<?xml version="1.0"?>
<VTKFile type="UnstructuredGrid"  version="0.1"  >
<UnstructuredGrid>
<Piece  NumberOfPoints="11156" NumberOfCells="22000">
<Points>
<DataArray  type="Float64"  NumberOfComponents="3"  format="ascii">0 0 0  2 0 0  4 0 0  6 0 0  8 0 0  10 0 0  12 0 0  14 0 0  16 0 0  18 0 0  20 0 0  22 0 0  24 0 0  26 0 0  28 0 0  30 0 0  32 0 0  34 0 0  36 0 0  38 0 0  40 0 0  42 0 0  44 0 0  46 0 0  48 0 0  50 0 0  52 0 0  54 0 0  56 0 0  58 0 0  60 0 0  62 0 0  64 0 0  66 0 0  68 0 0  70 0 0  72 0 0  74 0 0  76 0 0  78 0 0  80 0 0  82 0 0  84 0 0  86 0 0  88 0 0  90 0 0  92 0 0  94 0 0  96 0 0  98 0 0  100 0 0  102 0 0  104 0 0  106 0 0  108 0 0  110 0 0  112 0 0  114 0 0  116 0 0  118 0 0  120 0 0  122 0 0  124 0 0  126 0 0  128 0 0  130 0 0  132 0 0  134 0 0  136 0 0  138 0 0  140 0 0  142 0 0  144 0 0  146 0 0  148 0 0  150 0 0  152 0 0  154 0 0  156 0 0  158 0 0  160 0 0  162 0 0  164 0 0  166 0 0  168 0 0  170 0 0  172 0 0  174 0 0  176 0 0  178 0 0  180 0 0  182 0 0  184 0 0  186 0 0  188 0 0  190 0 0  192 0 0  194 0 0  196 0 0  198 0 0  200 0 0  0 2 0  2 2 0  4 2 0  6 2 0  8 2 0  10 2 0  12 2 0  14 2 0  16 2 0  18 2 0  20 2 0  22 2 0  24 2 0  26 2 0  28 2 0  30 2 0  32 2 0  34 2 0  36 2 0  38 2 0  40 2 0  42 2 0  44 2 0  46 2 0  48 2 0  50 2 0  52 2 0  54 2 0  56 2 0  58 2 0  60 2 0  62 2 0  64 2 0  66 2 0  68 2 0  70 2 0  72 2 0  74 2 0  76 2 0  78 2 0  80 2 0  82 2 0  84 2 0  86 2 0  88 2 0  90 2 0  92 2 0  94 2 0  96 2 0  98 2 0  100 2 0  102 2 0  104 2 0  106 2 0  108 2 0  110 2 0  112 2 0  114 2 0  116 2 0  118 2 0  120 2 0  122 2 0  124 2 0  126 2 0  128 2 0  130 2 0  132 2 0  134 2 0  136 2 0  138 2 0  140 2 0  142 2 0  144 2 0  146 2 0  148 2 0  150 2 0  152 2 0  154 2 0  156 2 0  158 2 0  160 2 0  162 2 0  164 2 0  166 2 0  168 2 0  170 2 0  172 2 0  174 2 0  176 2 0  178 2 0  180 2 0  182 2 0  184 2 0  186 2 0  188 2 0  190 2 0  192 2 0  194 2 0  196 2 0  198 2 0  200 2 0  0 4 0  2 4 0  4 4 0  6 4 0  8 4 0  10 4 0  12 4 0  14 4 0  16 4 0  18 4 0  20 4 0  22 4 0  24 4 0  26 4 0  28 4 0  30 4 0  32 4 0  34 4 0  36 4 0  38 4 0  40 4 0  42 4 0  44 4 0  46 4 0  48 4 0  50 4 0  52 4 0  54 4 0  56 4 0  58 4 0  60 4 0  62 4 0  64 4 0  66 4 0  68 4 0  70 4 0  72 4 0  74 4 0  76 4 0  78 4 0  80 4 0  82 4 0  84 4 0  86 4 0  88 4 0  90 4 0  92 4 0  94 4 0  96 4 0  98 4 0  100 4 0  102 4 0  104 4 0  106 4 0  108 4 0  110 4 0  112 4 0  114 4 0  116 4 0  118 4 0  120 4 0  122 4 0  124 4 0  126 4 0  128 4 0  130 4 0  132 4 0  134 4 0  136 4 0  138 4 0  140 4 0  142 4 0  144 4 0  146 4 0  148 4 0  150 4 0  152 4 0  154 4 0  156 4 0  158 4 0  160 4 0  162 4 0  164 4 0  166 4 0  168 4 0  170 4 0  172 4 0  174 4 0  176 4 0  178 4 0  180 4 0  182 4 0  184 4 0  186 4 0  188 4 0  190 4 0  192 4 0  194 4 0  196 4 0  198 4 0  200 4 0  0 6 0  2 6 0  4 6 0  6 6 0  8 6 0  10 6 0  12 6 0  14 6 0  16 6 0  18 6 0  20 6 0  22 6 0  24 6 0  26 6 0  28 6 0  30 6 0  32 6 0  34 6 0  36 6 0  38 6 0  40 6 0  42 6 0  44 6 0  46 6 0  48 6 0  50 6 0  52 6 0  54 6 0  56 6 0  58 6 0  60 6 0  62 6 0  64 6 0  66 6 0  68 6 0  70 6 0  72 6 0  74 6 0  76 6 0  78 6 0  80 6 0  82 6 0  84 6 0  86 6 0  88 6 0  90 6 0  92 6 0  94 6 0  96 6 0  98 6 0  100 6 0  102 6 0  104 6 0  106 6 0  108 6 0  110 6 0  112 6 0  114 6 0  116 6 0  118 6 0  120 6 0  122 6 0  124 6 0  126 6 0  128 6 0  130 6 0  132 6 0  134 6 0  136 6 0  138 6 0  140 6 0  142 6 0  144 6 0  146 6 0  148 6 0  150 6 0  152 6 0  154 6 0  156 6 0  158 6 0  160 6 0  162 6 0  164 6 0  166 6 0  168 6 0  170 6 0  172 6 0  174 6 0  176 6 0  178 6 0  180 6 0  182 6 0  184 6 0  186 6 0  188 6 0  190 6 0  192 6 0  194 6 0  196 6 0  198 6 0  200 6 0  0 8 0  2 8 0  4 8 0  6 8 0  8 8 0  10 8 0  12 8 0  14 8 0  16 8 0  18 8 0  20 8 0  22 8 0  24 8 0  26 8 0  28 8 0  30 8 0  32 8 0  34 8 0  36 8 0  38 8 0  40 8 0  42 8 0  44 8 0  46 8 0  48 8 0  50 8 0  52 8 0  54 8 0  56 8 0  58 8 0  60 8 0  62 8 0  64 8 0  66 8 0  68 8 0  70 8 0  72 8 0  74 8 0  76 8 0  78 8 0  80 8 0  82 8 0  84 8 0  86 8 0  88 8 0  90 8 0  92 8 0  94 8 0  96 8 0  98 8 0  100 8 0  102 8 0  104 8 0  106 8 0  108 8 0  110 8 0  112 8 0  114 8 0  116 8 0  118 8 0  120 8 0  122 8 0  124 8 0  126 8 0  128 8 0  130 8 0  132 8 0  134 8 0  136 8 0  138 8 0  140 8 0  142 8 0  144 8 0  146 8 0  148 8 0  150 8 0  152 8 0  154 8 0  156 8 0  158 8 0  160 8 0  162 8 0  164 8 0  166 8 0  168 8 0  170 8 0  172 8 0  174 8 0  176 8 0  178 8 0  180 8 0  182 8 0  184 8 0  186 8 0  188 8 0  190 8 0  192 8 0  194 8 0  196 8 0  198 8 0  200 8 0  0 10 0  2 10 0  4 10 0  6 10 0  8 10 0  10 10 0  12 10 0  14 10 0  16 10 0  18 10 0  20 10 0  22 10 0  24 10 0  26 10 0  28 10 0  30 10 0  32 10 0  34 10 0  36 10 0  38 10 0  40 10 0  42 10 0  44 10 0  46 10 0  48 10 0  50 10 0  52 10 0  54 10 0  56 10 0  58 10 0  60 10 0  62 10 0  64 10 0  66 10 0  68 10 0  70 10 0  72 10 0  74 10 0  76 10 0  78 10 0  80 10 0  82 10 0  84 10 0  86 10 0  88 10 0  90 10 0  92 10 0  94 10 0  96 10 0  98 10 0  100 10 0  102 10 0  104 10 0  106 10 0  108 10 0  110 10 0  112 10 0  114 10 0  116 10 0  118 10 0  120 10 0  122 10 0  124 10 0  126 10 0  128 10 0  130 10 0  132 10 0  134 10 0  136 10 0  138 10 0  140 10 0  142 10 0  144 10 0  146 10 0  148 10 0  150 10 0  152 10 0  154 10 0  156 10 0  158 10 0  160 10 0  162 10 0  164 10 0  166 10 0  168 10 0  170 10 0  172 10 0  174 10 0  176 10 0  178 10 0  180 10 0  182 10 0  184 10 0  186 10 0  188 10 0  190 10 0  192 10 0  194 10 0  196 10 0  198 10 0  200 10 0  0 12 0  2 12 0  4 12 0  6 12 0  8 12 0  10 12 0  12 12 0  14 12 0  16 12 0  18 12 0  20 12 0  22 12 0  24 12 0  26 12 0  28 12 0  30 12 0  32 12 0  34 12 0  36 12 0  38 12 0  40 12 0  42 12 0  44 12 0  46 12 0  48 12 0  50 12 0  52 12 0  54 12 0  56 12 0  58 12 0  60 12 0  62 12 0  64 12 0  66 12 0  68 12 0  70 12 0  72 12 0  74 12 0  76 12 0  78 12 0  80 12 0  82 12 0  84 12 0  86 12 0  88 12 0  90 12 0  92 12 0  94 12 0  96 12 0  98 12 0  100 12 0  102 12 0  104 12 0  106 12 0  108 12 0  110 12 0  112 12 0  114 12 0  116 12 0  118 12 0  120 12 0  122 12 0  124 12 0  126 12 0  128 12 0  130 12 0  132 12 0  134 12 0  136 12 0  138 12 0  140 12 0  142 12 0  144 12 0  146 12 0  148 12 0  150 12 0  152 12 0  154 12 0  156 12 0  158 12 0  160 12 0  162 12 0  164 12 0  166 12 0  168 12 0  170 12 0  172 12 0  174 12 0  176 12 0  178 12 0  180 12 0  182 12 0  184 12 0  186 12 0  188 12 0  190 12 0  192 12 0  194 12 0  196 12 0  198 12 0  200 12 0  0 14 0  2 14 0  4 14 0  6 14 0  8 14 0  10 14 0  12 14 0  14 14 0  16 14 0  18 14 0  20 14 0  22 14 0  24 14 0  26 14 0  28 14 0  30 14 0  32 14 0  34 14 0  36 14 0  38 14 0  40 14 0  42 14 0  44 14 0  46 14 0  48 14 0  50 14 0  52 14 0  54 14 0  56 14 0  58 14 0  60 14 0  62 14 0  64 14 0  66 14 0  68 14 0  70 14 0  72 14 0  74 14 0  76 14 0  78 14 0  80 14 0  82 14 0  84 14 0  86 14 0  88 14 0  90 14 0  92 14 0  94 14 0  96 14 0  98 14 0  100 14 0  102 14 0  104 14 0  106 14 0  108 14 0  110 14 0  112 14 0  114 14 0  116 14 0  118 14 0  120 14 0  122 14 0  124 14 0  126 14 0  128 14 0  130 14 0  132 14 0  134 14 0  136 14 0  138 14 0  140 14 0  142 14 0  144 14 0  146 14 0  148 14 0  150 14 0  152 14 0  154 14 0  156 14 0  158 14 0  160 14 0  162 14 0  164 14 0  166 14 0  168 14 0  170 14 0  172 14 0  174 14 0  176 14 0  178 14 0  180 14 0  182 14 0  184 14 0  186 14 0  188 14 0  190 14 0  192 14 0  194 14 0  196 14 0  198 14 0  200 14 0  0 16 0  2 16 0  4 16 0  6 16 0  8 16 0  10 16 0  12 16 0  14 16 0  16 16 0  18 16 0  20 16 0  22 16 0  24 16 0  26 16 0  28 16 0  30 16 0  32 16 0  34 16 0  36 16 0  38 16 0  40 16 0  42 16 0  44 16 0  46 16 0  48 16 0  50 16 0  52 16 0  54 16 0  56 16 0  58 16 0  60 16 0  62 16 0  64 16 0  66 16 0  68 16 0  70 16 0  72 16 0  74 16 0  76 16 0  78 16 0  80 16 0  82 16 0  84 16 0  86 16 0  88 16 0  90 16 0  92 16 0  94 16 0  96 16 0  98 16 0  100 16 0  102 16 0  104 16 0  106 16 0  108 16 0  110 16 0  112 16 0  114 16 0  116 16 0  118 16 0  120 16 0  122 16 0  124 16 0  126 16 0  128 16 0  130 16 0  132 16 0  134 16 0  136 16 0  138 16 0  140 16 0  142 16 0  144 16 0  146 16 0  148 16 0  150 16 0  152 16 0  154 16 0  156 16 0  158 16 0  160 16 0  162 16 0  164 16 0  166 16 0  168 16 0  170 16 0  172 16 0  174 16 0  176 16 0  178 16 0  180 16 0  182 16 0  184 16 0  186 16 0  188 16 0  190 16 0  192 16 0  194 16 0  196 16 0  198 16 0  200 16 0  0 18 0  2 18 0  4 18 0  6 18 0  8 18 0  10 18 0  12 18 0  14 18 0  16 18 0  18 18 0  20 18 0  22 18 0  24 18 0  26 18 0  28 18 0  30 18 0  32 18 0  34 18 0  36 18 0  38 18 0  40 18 0  42 18 0  44 18 0  46 18 0  48 18 0  50 18 0  52 18 0  54 18 0  56 18 0  58 18 0  60 18 0  62 18 0  64 18 0  66 18 0  68 18 0  70 18 0  72 18 0  74 18 0  76 18 0  78 18 0  80 18 0  82 18 0  84 18 0  86 18 0  88 18 0  90 18 0  92 18 0  94 18 0  96 18 0  98 18 0  100 18 0  102 18 0  104 18 0  106 18 0  108 18 0  110 18 0  112 18 0  114 18 0  116 18 0  118 18 0  120 18 0  122 18 0  124 18 0  126 18 0  128 18 0  130 18 0  132 18 0  134 18 0  136 18 0  138 18 0  140 18 0  142 18 0  144 18 0  146 18 0  148 18 0  150 18 0  152 18 0  154 18 0  156 18 0  158 18 0  160 18 0  162 18 0  164 18 0  166 18 0  168 18 0  170 18 0  172 18 0  174 18 0  176 18 0  178 18 0  180 18 0  182 18 0  184 18 0  186 18 0  188 18 0  190 18 0  192 18 0  194 18 0  196 18 0  198 18 0  200 18 0  0 20 0  2 20 0  4 20 0  6 20 0  8 20 0  10 20 0  12 20 0  14 20 0  16 20 0  18 20 0  20 20 0  22 20 0  24 20 0  26 20 0  28 20 0  30 20 0  32 20 0  34 20 0  36 20 0  38 20 0  40 20 0  42 20 0  44 20 0  46 20 0  48 20 0  50 20 0  52 20 0  54 20 0  56 20 0  58 20 0  60 20 0  62 20 0  64 20 0  66 20 0  68 20 0  70 20 0  72 20 0  74 20 0  76 20 0  78 20 0  80 20 0  82 20 0  84 20 0  86 20 0  88 20 0  90 20 0  92 20 0  94 20 0  96 20 0  98 20 0  100 20 0  102 20 0  104 20 0  106 20 0  108 20 0  110 20 0  112 20 0  114 20 0  116 20 0  118 20 0  120 20 0  122 20 0  124 20 0  126 20 0  128 20 0  130 20 0  132 20 0  134 20 0  136 20 0  138 20 0  140 20 0  142 20 0  144 20 0  146 20 0  148 20 0  150 20 0  152 20 0  154 20 0  156 20 0  158 20 0  160 20 0  162 20 0  164 20 0  166 20 0  168 20 0  170 20 0  172 20 0  174 20 0  176 20 0  178 20 0  180 20 0  182 20 0  184 20 0  186 20 0  188 20 0  190 20 0  192 20 0  194 20 0  196 20 0  198 20 0  200 20 0  0 22 0  2 22 0  4 22 0  6 22 0  8 22 0  10 22 0  12 22 0  14 22 0  16 22 0  18 22 0  20 22 0  22 22 0  24 22 0  26 22 0  28 22 0  30 22 0  32 22 0  34 22 0  36 22 0  38 22 0  40 22 0  42 22 0  44 22 0  46 22 0  48 22 0  50 22 0  52 22 0  54 22 0  56 22 0  58 22 0  60 22 0  62 22 0  64 22 0  66 22 0  68 22 0  70 22 0  72 22 0  74 22 0  76 22 0  78 22 0  80 22 0  82 22 0  84 22 0  86 22 0  88 22 0  90 22 0  92 22 0  94 22 0  96 22 0  98 22 0  100 22 0  102 22 0  104 22 0  106 22 0  108 22 0  110 22 0  112 22 0  114 22 0  116 22 0  118 22 0  120 22 0  122 22 0  124 22 0  126 22 0  128 22 0  130 22 0  132 22 0  134 22 0  136 22 0  138 22 0  140 22 0  142 22 0  144 22 0  146 22 0  148 22 0  150 22 0  152 22 0  154 22 0  156 22 0  158 22 0  160 22 0  162 22 0  164 22 0  166 22 0  168 22 0  170 22 0  172 22 0  174 22 0  176 22 0  178 22 0  180 22 0  182 22 0  184 22 0  186 22 0  188 22 0  190 22 0  192 22 0  194 22 0  196 22 0  198 22 0  200 22 0  0 24 0  2 24 0  4 24 0  6 24 0  8 24 0  10 24 0  12 24 0  14 24 0  16 24 0  18 24 0  20 24 0  22 24 0  24 24 0  26 24 0  28 24 0  30 24 0  32 24 0  34 24 0  36 24 0  38 24 0  40 24 0  42 24 0  44 24 0  46 24 0  48 24 0  50 24 0  52 24 0  54 24 0  56 24 0  58 24 0  60 24 0  62 24 0  64 24 0  66 24 0  68 24 0  70 24 0  72 24 0  74 24 0  76 24 0  78 24 0  80 24 0  82 24 0  84 24 0  86 24 0  88 24 0  90 24 0  92 24 0  94 24 0  96 24 0  98 24 0  100 24 0  102 24 0  104 24 0  106 24 0  108 24 0  110 24 0  112 24 0  114 24 0  116 24 0  118 24 0  120 24 0  122 24 0  124 24 0  126 24 0  128 24 0  130 24 0  132 24 0  134 24 0  136 24 0  138 24 0  140 24 0  142 24 0  144 24 0  146 24 0  148 24 0  150 24 0  152 24 0  154 24 0  156 24 0  158 24 0  160 24 0  162 24 0  164 24 0  166 24 0  168 24 0  170 24 0  172 24 0  174 24 0  176 24 0  178 24 0  180 24 0  182 24 0  184 24 0  186 24 0  188 24 0  190 24 0  192 24 0  194 24 0  196 24 0  198 24 0  200 24 0  0 26 0  2 26 0  4 26 0  6 26 0  8 26 0  10 26 0  12 26 0  14 26 0  16 26 0  18 26 0  20 26 0  22 26 0  24 26 0  26 26 0  28 26 0  30 26 0  32 26 0  34 26 0  36 26 0  38 26 0  40 26 0  42 26 0  44 26 0  46 26 0  48 26 0  50 26 0  52 26 0  54 26 0  56 26 0  58 26 0  60 26 0  62 26 0  64 26 0  66 26 0  68 26 0  70 26 0  72 26 0  74 26 0  76 26 0  78 26 0  80 26 0  82 26 0  84 26 0  86 26 0  88 26 0  90 26 0  92 26 0  94 26 0  96 26 0  98 26 0  100 26 0  102 26 0  104 26 0  106 26 0  108 26 0  110 26 0  112 26 0  114 26 0  116 26 0  118 26 0  120 26 0  122 26 0  124 26 0  126 26 0  128 26 0  130 26 0  132 26 0  134 26 0  136 26 0  138 26 0  140 26 0  142 26 0  144 26 0  146 26 0  148 26 0  150 26 0  152 26 0  154 26 0  156 26 0  158 26 0  160 26 0  162 26 0  164 26 0  166 26 0  168 26 0  170 26 0  172 26 0  174 26 0  176 26 0  178 26 0  180 26 0  182 26 0  184 26 0  186 26 0  188 26 0  190 26 0  192 26 0  194 26 0  196 26 0  198 26 0  200 26 0  0 28 0  2 28 0  4 28 0  6 28 0  8 28 0  10 28 0  12 28 0  14 28 0  16 28 0  18 28 0  20 28 0  22 28 0  24 28 0  26 28 0  28 28 0  30 28 0  32 28 0  34 28 0  36 28 0  38 28 0  40 28 0  42 28 0  44 28 0  46 28 0  48 28 0  50 28 0  52 28 0  54 28 0  56 28 0  58 28 0  60 28 0  62 28 0  64 28 0  66 28 0  68 28 0  70 28 0  72 28 0  74 28 0  76 28 0  78 28 0  80 28 0  82 28 0  84 28 0  86 28 0  88 28 0  90 28 0  92 28 0  94 28 0  96 28 0  98 28 0  100 28 0  102 28 0  104 28 0  106 28 0  108 28 0  110 28 0  112 28 0  114 28 0  116 28 0  118 28 0  120 28 0  122 28 0  124 28 0  126 28 0  128 28 0  130 28 0  132 28 0  134 28 0  136 28 0  138 28 0  140 28 0  142 28 0  144 28 0  146 28 0  148 28 0  150 28 0  152 28 0  154 28 0  156 28 0  158 28 0  160 28 0  162 28 0  164 28 0  166 28 0  168 28 0  170 28 0  172 28 0  174 28 0  176 28 0  178 28 0  180 28 0  182 28 0  184 28 0  186 28 0  188 28 0  190 28 0  192 28 0  194 28 0  196 28 0  198 28 0  200 28 0  0 30 0  2 30 0  4 30 0  6 30 0  8 30 0  10 30 0  12 30 0  14 30 0  16 30 0  18 30 0  20 30 0  22 30 0  24 30 0  26 30 0  28 30 0  30 30 0  32 30 0  34 30 0  36 30 0  38 30 0  40 30 0  42 30 0  44 30 0  46 30 0  48 30 0  50 30 0  52 30 0  54 30 0  56 30 0  58 30 0  60 30 0  62 30 0  64 30 0  66 30 0  68 30 0  70 30 0  72 30 0  74 30 0  76 30 0  78 30 0  80 30 0  82 30 0  84 30 0  86 30 0  88 30 0  90 30 0  92 30 0  94 30 0  96 30 0  98 30 0  100 30 0  102 30 0  104 30 0  106 30 0  108 30 0  110 30 0  112 30 0  114 30 0  116 30 0  118 30 0  120 30 0  122 30 0  124 30 0  126 30 0  128 30 0  130 30 0  132 30 0  134 30 0  136 30 0  138 30 0  140 30 0  142 30 0  144 30 0  146 30 0  148 30 0  150 30 0  152 30 0  154 30 0  156 30 0  158 30 0  160 30 0  162 30 0  164 30 0  166 30 0  168 30 0  170 30 0  172 30 0  174 30 0  176 30 0  178 30 0  180 30 0  182 30 0  184 30 0  186 30 0  188 30 0  190 30 0  192 30 0  194 30 0  196 30 0  198 30 0  200 30 0  0 32 0  2 32 0  4 32 0  6 32 0  8 32 0  10 32 0  12 32 0  14 32 0  16 32 0  18 32 0  20 32 0  22 32 0  24 32 0  26 32 0  28 32 0  30 32 0  32 32 0  34 32 0  36 32 0  38 32 0  40 32 0  42 32 0  44 32 0  46 32 0  48 32 0  50 32 0  52 32 0  54 32 0  56 32 0  58 32 0  60 32 0  62 32 0  64 32 0  66 32 0  68 32 0  70 32 0  72 32 0  74 32 0  76 32 0  78 32 0  80 32 0  82 32 0  84 32 0  86 32 0  88 32 0  90 32 0  92 32 0  94 32 0  96 32 0  98 32 0  100 32 0  102 32 0  104 32 0  106 32 0  108 32 0  110 32 0  112 32 0  114 32 0  116 32 0  118 32 0  120 32 0  122 32 0  124 32 0  126 32 0  128 32 0  130 32 0  132 32 0  134 32 0  136 32 0  138 32 0  140 32 0  142 32 0  144 32 0  146 32 0  148 32 0  150 32 0  152 32 0  154 32 0  156 32 0  158 32 0  160 32 0  162 32 0  164 32 0  166 32 0  168 32 0  170 32 0  172 32 0  174 32 0  176 32 0  178 32 0  180 32 0  182 32 0  184 32 0  186 32 0  188 32 0  190 32 0  192 32 0  194 32 0  196 32 0  198 32 0  200 32 0  0 34 0  2 34 0  4 34 0  6 34 0  8 34 0  10 34 0  12 34 0  14 34 0  16 34 0  18 34 0  20 34 0  22 34 0  24 34 0  26 34 0  28 34 0  30 34 0  32 34 0  34 34 0  36 34 0  38 34 0  40 34 0  42 34 0  44 34 0  46 34 0  48 34 0  50 34 0  52 34 0  54 34 0  56 34 0  58 34 0  60 34 0  62 34 0  64 34 0  66 34 0  68 34 0  70 34 0  72 34 0  74 34 0  76 34 0  78 34 0  80 34 0  82 34 0  84 34 0  86 34 0  88 34 0  90 34 0  92 34 0  94 34 0  96 34 0  98 34 0  100 34 0  102 34 0  104 34 0  106 34 0  108 34 0  110 34 0  112 34 0  114 34 0  116 34 0  118 34 0  120 34 0  122 34 0  124 34 0  126 34 0  128 34 0  130 34 0  132 34 0  134 34 0  136 34 0  138 34 0  140 34 0  142 34 0  144 34 0  146 34 0  148 34 0  150 34 0  152 34 0  154 34 0  156 34 0  158 34 0  160 34 0  162 34 0  164 34 0  166 34 0  168 34 0  170 34 0  172 34 0  174 34 0  176 34 0  178 34 0  180 34 0  182 34 0  184 34 0  186 34 0  188 34 0  190 34 0  192 34 0  194 34 0  196 34 0  198 34 0  200 34 0  0 36 0  2 36 0  4 36 0  6 36 0  8 36 0  10 36 0  12 36 0  14 36 0  16 36 0  18 36 0  20 36 0  22 36 0  24 36 0  26 36 0  28 36 0  30 36 0  32 36 0  34 36 0  36 36 0  38 36 0  40 36 0  42 36 0  44 36 0  46 36 0  48 36 0  50 36 0  52 36 0  54 36 0  56 36 0  58 36 0  60 36 0  62 36 0  64 36 0  66 36 0  68 36 0  70 36 0  72 36 0  74 36 0  76 36 0  78 36 0  80 36 0  82 36 0  84 36 0  86 36 0  88 36 0  90 36 0  92 36 0  94 36 0  96 36 0  98 36 0  100 36 0  102 36 0  104 36 0  106 36 0  108 36 0  110 36 0  112 36 0  114 36 0  116 36 0  118 36 0  120 36 0  122 36 0  124 36 0  126 36 0  128 36 0  130 36 0  132 36 0  134 36 0  136 36 0  138 36 0  140 36 0  142 36 0  144 36 0  146 36 0  148 36 0  150 36 0  152 36 0  154 36 0  156 36 0  158 36 0  160 36 0  162 36 0  164 36 0  166 36 0  168 36 0  170 36 0  172 36 0  174 36 0  176 36 0  178 36 0  180 36 0  182 36 0  184 36 0  186 36 0  188 36 0  190 36 0  192 36 0  194 36 0  196 36 0  198 36 0  200 36 0  0 38 0  2 38 0  4 38 0  6 38 0  8 38 0  10 38 0  12 38 0  14 38 0  16 38 0  18 38 0  20 38 0  22 38 0  24 38 0  26 38 0  28 38 0  30 38 0  32 38 0  34 38 0  36 38 0  38 38 0  40 38 0  42 38 0  44 38 0  46 38 0  48 38 0  50 38 0  52 38 0  54 38 0  56 38 0  58 38 0  60 38 0  62 38 0  64 38 0  66 38 0  68 38 0  70 38 0  72 38 0  74 38 0  76 38 0  78 38 0  80 38 0  82 38 0  84 38 0  86 38 0  88 38 0  90 38 0  92 38 0  94 38 0  96 38 0  98 38 0  100 38 0  102 38 0  104 38 0  106 38 0  108 38 0  110 38 0  112 38 0  114 38 0  116 38 0  118 38 0  120 38 0  122 38 0  124 38 0  126 38 0  128 38 0  130 38 0  132 38 0  134 38 0  136 38 0  138 38 0  140 38 0  142 38 0  144 38 0  146 38 0  148 38 0  150 38 0  152 38 0  154 38 0  156 38 0  158 38 0  160 38 0  162 38 0  164 38 0  166 38 0  168 38 0  170 38 0  172 38 0  174 38 0  176 38 0  178 38 0  180 38 0  182 38 0  184 38 0  186 38 0  188 38 0  190 38 0  192 38 0  194 38 0  196 38 0  198 38 0  200 38 0  0 40 0  2 40 0  4 40 0  6 40 0  8 40 0  10 40 0  12 40 0  14 40 0  16 40 0  18 40 0  20 40 0  22 40 0  24 40 0  26 40 0  28 40 0  30 40 0  32 40 0  34 40 0  36 40 0  38 40 0  40 40 0  42 40 0  44 40 0  46 40 0  48 40 0  50 40 0  52 40 0  54 40 0  56 40 0  58 40 0  60 40 0  62 40 0  64 40 0  66 40 0  68 40 0  70 40 0  72 40 0  74 40 0  76 40 0  78 40 0  80 40 0  82 40 0  84 40 0  86 40 0  88 40 0  90 40 0  92 40 0  94 40 0  96 40 0  98 40 0  100 40 0  102 40 0  104 40 0  106 40 0  108 40 0  110 40 0  112 40 0  114 40 0  116 40 0  118 40 0  120 40 0  122 40 0  124 40 0  126 40 0  128 40 0  130 40 0  132 40 0  134 40 0  136 40 0  138 40 0  140 40 0  142 40 0  144 40 0  146 40 0  148 40 0  150 40 0  152 40 0  154 40 0  156 40 0  158 40 0  160 40 0  162 40 0  164 40 0  166 40 0  168 40 0  170 40 0  172 40 0  174 40 0  176 40 0  178 40 0  180 40 0  182 40 0  184 40 0  186 40 0  188 40 0  190 40 0  192 40 0  194 40 0  196 40 0  198 40 0  200 40 0  0 42 0  2 42 0  4 42 0  6 42 0  8 42 0  10 42 0  12 42 0  14 42 0  16 42 0  18 42 0  20 42 0  22 42 0  24 42 0  26 42 0  28 42 0  30 42 0  32 42 0  34 42 0  36 42 0  38 42 0  40 42 0  42 42 0  44 42 0  46 42 0  48 42 0  50 42 0  52 42 0  54 42 0  56 42 0  58 42 0  60 42 0  62 42 0  64 42 0  66 42 0  68 42 0  70 42 0  72 42 0  74 42 0  76 42 0  78 42 0  80 42 0  82 42 0  84 42 0  86 42 0  88 42 0  90 42 0  92 42 0  94 42 0  96 42 0  98 42 0  100 42 0  102 42 0  104 42 0  106 42 0  108 42 0  110 42 0  112 42 0  114 42 0  116 42 0  118 42 0  120 42 0  122 42 0  124 42 0  126 42 0  128 42 0  130 42 0  132 42 0  134 42 0  136 42 0  138 42 0  140 42 0  142 42 0  144 42 0  146 42 0  148 42 0  150 42 0  152 42 0  154 42 0  156 42 0  158 42 0  160 42 0  162 42 0  164 42 0  166 42 0  168 42 0  170 42 0  172 42 0  174 42 0  176 42 0  178 42 0  180 42 0  182 42 0  184 42 0  186 42 0  188 42 0  190 42 0  192 42 0  194 42 0  196 42 0  198 42 0  200 42 0  0 44 0  2 44 0  4 44 0  6 44 0  8 44 0  10 44 0  12 44 0  14 44 0  16 44 0  18 44 0  20 44 0  22 44 0  24 44 0  26 44 0  28 44 0  30 44 0  32 44 0  34 44 0  36 44 0  38 44 0  40 44 0  42 44 0  44 44 0  46 44 0  48 44 0  50 44 0  52 44 0  54 44 0  56 44 0  58 44 0  60 44 0  62 44 0  64 44 0  66 44 0  68 44 0  70 44 0  72 44 0  74 44 0  76 44 0  78 44 0  80 44 0  82 44 0  84 44 0  86 44 0  88 44 0  90 44 0  92 44 0  94 44 0  96 44 0  98 44 0  100 44 0  102 44 0  104 44 0  106 44 0  108 44 0  110 44 0  112 44 0  114 44 0  116 44 0  118 44 0  120 44 0  122 44 0  124 44 0  126 44 0  128 44 0  130 44 0  132 44 0  134 44 0  136 44 0  138 44 0  140 44 0  142 44 0  144 44 0  146 44 0  148 44 0  150 44 0  152 44 0  154 44 0  156 44 0  158 44 0  160 44 0  162 44 0  164 44 0  166 44 0  168 44 0  170 44 0  172 44 0  174 44 0  176 44 0  178 44 0  180 44 0  182 44 0  184 44 0  186 44 0  188 44 0  190 44 0  192 44 0  194 44 0  196 44 0  198 44 0  200 44 0  0 46 0  2 46 0  4 46 0  6 46 0  8 46 0  10 46 0  12 46 0  14 46 0  16 46 0  18 46 0  20 46 0  22 46 0  24 46 0  26 46 0  28 46 0  30 46 0  32 46 0  34 46 0  36 46 0  38 46 0  40 46 0  42 46 0  44 46 0  46 46 0  48 46 0  50 46 0  52 46 0  54 46 0  56 46 0  58 46 0  60 46 0  62 46 0  64 46 0  66 46 0  68 46 0  70 46 0  72 46 0  74 46 0  76 46 0  78 46 0  80 46 0  82 46 0  84 46 0  86 46 0  88 46 0  90 46 0  92 46 0  94 46 0  96 46 0  98 46 0  100 46 0  102 46 0  104 46 0  106 46 0  108 46 0  110 46 0  112 46 0  114 46 0  116 46 0  118 46 0  120 46 0  122 46 0  124 46 0  126 46 0  128 46 0  130 46 0  132 46 0  134 46 0  136 46 0  138 46 0  140 46 0  142 46 0  144 46 0  146 46 0  148 46 0  150 46 0  152 46 0  154 46 0  156 46 0  158 46 0  160 46 0  162 46 0  164 46 0  166 46 0  168 46 0  170 46 0  172 46 0  174 46 0  176 46 0  178 46 0  180 46 0  182 46 0  184 46 0  186 46 0  188 46 0  190 46 0  192 46 0  194 46 0  196 46 0  198 46 0  200 46 0  0 48 0  2 48 0  4 48 0  6 48 0  8 48 0  10 48 0  12 48 0  14 48 0  16 48 0  18 48 0  20 48 0  22 48 0  24 48 0  26 48 0  28 48 0  30 48 0  32 48 0  34 48 0  36 48 0  38 48 0  40 48 0  42 48 0  44 48 0  46 48 0  48 48 0  50 48 0  52 48 0  54 48 0  56 48 0  58 48 0  60 48 0  62 48 0  64 48 0  66 48 0  68 48 0  70 48 0  72 48 0  74 48 0  76 48 0  78 48 0  80 48 0  82 48 0  84 48 0  86 48 0  88 48 0  90 48 0  92 48 0  94 48 0  96 48 0  98 48 0  100 48 0  102 48 0  104 48 0  106 48 0  108 48 0  110 48 0  112 48 0  114 48 0  116 48 0  118 48 0  120 48 0  122 48 0  124 48 0  126 48 0  128 48 0  130 48 0  132 48 0  134 48 0  136 48 0  138 48 0  140 48 0  142 48 0  144 48 0  146 48 0  148 48 0  150 48 0  152 48 0  154 48 0  156 48 0  158 48 0  160 48 0  162 48 0  164 48 0  166 48 0  168 48 0  170 48 0  172 48 0  174 48 0  176 48 0  178 48 0  180 48 0  182 48 0  184 48 0  186 48 0  188 48 0  190 48 0  192 48 0  194 48 0  196 48 0  198 48 0  200 48 0  0 50 0  2 50 0  4 50 0  6 50 0  8 50 0  10 50 0  12 50 0  14 50 0  16 50 0  18 50 0  20 50 0  22 50 0  24 50 0  26 50 0  28 50 0  30 50 0  32 50 0  34 50 0  36 50 0  38 50 0  40 50 0  42 50 0  44 50 0  46 50 0  48 50 0  50 50 0  52 50 0  54 50 0  56 50 0  58 50 0  60 50 0  62 50 0  64 50 0  66 50 0  68 50 0  70 50 0  72 50 0  74 50 0  76 50 0  78 50 0  80 50 0  82 50 0  84 50 0  86 50 0  88 50 0  90 50 0  92 50 0  94 50 0  96 50 0  98 50 0  100 50 0  102 50 0  104 50 0  106 50 0  108 50 0  110 50 0  112 50 0  114 50 0  116 50 0  118 50 0  120 50 0  122 50 0  124 50 0  126 50 0  128 50 0  130 50 0  132 50 0  134 50 0  136 50 0  138 50 0  140 50 0  142 50 0  144 50 0  146 50 0  148 50 0  150 50 0  152 50 0  154 50 0  156 50 0  158 50 0  160 50 0  162 50 0  164 50 0  166 50 0  168 50 0  170 50 0  172 50 0  174 50 0  176 50 0  178 50 0  180 50 0  182 50 0  184 50 0  186 50 0  188 50 0  190 50 0  192 50 0  194 50 0  196 50 0  198 50 0  200 50 0  0 52 0  2 52 0  4 52 0  6 52 0  8 52 0  10 52 0  12 52 0  14 52 0  16 52 0  18 52 0  20 52 0  22 52 0  24 52 0  26 52 0  28 52 0  30 52 0  32 52 0  34 52 0  36 52 0  38 52 0  40 52 0  42 52 0  44 52 0  46 52 0  48 52 0  50 52 0  52 52 0  54 52 0  56 52 0  58 52 0  60 52 0  62 52 0  64 52 0  66 52 0  68 52 0  70 52 0  72 52 0  74 52 0  76 52 0  78 52 0  80 52 0  82 52 0  84 52 0  86 52 0  88 52 0  90 52 0  92 52 0  94 52 0  96 52 0  98 52 0  100 52 0  102 52 0  104 52 0  106 52 0  108 52 0  110 52 0  112 52 0  114 52 0  116 52 0  118 52 0  120 52 0  122 52 0  124 52 0  126 52 0  128 52 0  130 52 0  132 52 0  134 52 0  136 52 0  138 52 0  140 52 0  142 52 0  144 52 0  146 52 0  148 52 0  150 52 0  152 52 0  154 52 0  156 52 0  158 52 0  160 52 0  162 52 0  164 52 0  166 52 0  168 52 0  170 52 0  172 52 0  174 52 0  176 52 0  178 52 0  180 52 0  182 52 0  184 52 0  186 52 0  188 52 0  190 52 0  192 52 0  194 52 0  196 52 0  198 52 0  200 52 0  0 54 0  2 54 0  4 54 0  6 54 0  8 54 0  10 54 0  12 54 0  14 54 0  16 54 0  18 54 0  20 54 0  22 54 0  24 54 0  26 54 0  28 54 0  30 54 0  32 54 0  34 54 0  36 54 0  38 54 0  40 54 0  42 54 0  44 54 0  46 54 0  48 54 0  50 54 0  52 54 0  54 54 0  56 54 0  58 54 0  60 54 0  62 54 0  64 54 0  66 54 0  68 54 0  70 54 0  72 54 0  74 54 0  76 54 0  78 54 0  80 54 0  82 54 0  84 54 0  86 54 0  88 54 0  90 54 0  92 54 0  94 54 0  96 54 0  98 54 0  100 54 0  102 54 0  104 54 0  106 54 0  108 54 0  110 54 0  112 54 0  114 54 0  116 54 0  118 54 0  120 54 0  122 54 0  124 54 0  126 54 0  128 54 0  130 54 0  132 54 0  134 54 0  136 54 0  138 54 0  140 54 0  142 54 0  144 54 0  146 54 0  148 54 0  150 54 0  152 54 0  154 54 0  156 54 0  158 54 0  160 54 0  162 54 0  164 54 0  166 54 0  168 54 0  170 54 0  172 54 0  174 54 0  176 54 0  178 54 0  180 54 0  182 54 0  184 54 0  186 54 0  188 54 0  190 54 0  192 54 0  194 54 0  196 54 0  198 54 0  200 54 0  0 56 0  2 56 0  4 56 0  6 56 0  8 56 0  10 56 0  12 56 0  14 56 0  16 56 0  18 56 0  20 56 0  22 56 0  24 56 0  26 56 0  28 56 0  30 56 0  32 56 0  34 56 0  36 56 0  38 56 0  40 56 0  42 56 0  44 56 0  46 56 0  48 56 0  50 56 0  52 56 0  54 56 0  56 56 0  58 56 0  60 56 0  62 56 0  64 56 0  66 56 0  68 56 0  70 56 0  72 56 0  74 56 0  76 56 0  78 56 0  80 56 0  82 56 0  84 56 0  86 56 0  88 56 0  90 56 0  92 56 0  94 56 0  96 56 0  98 56 0  100 56 0  102 56 0  104 56 0  106 56 0  108 56 0  110 56 0  112 56 0  114 56 0  116 56 0  118 56 0  120 56 0  122 56 0  124 56 0  126 56 0  128 56 0  130 56 0  132 56 0  134 56 0  136 56 0  138 56 0  140 56 0  142 56 0  144 56 0  146 56 0  148 56 0  150 56 0  152 56 0  154 56 0  156 56 0  158 56 0  160 56 0  162 56 0  164 56 0  166 56 0  168 56 0  170 56 0  172 56 0  174 56 0  176 56 0  178 56 0  180 56 0  182 56 0  184 56 0  186 56 0  188 56 0  190 56 0  192 56 0  194 56 0  196 56 0  198 56 0  200 56 0  0 58 0  2 58 0  4 58 0  6 58 0  8 58 0  10 58 0  12 58 0  14 58 0  16 58 0  18 58 0  20 58 0  22 58 0  24 58 0  26 58 0  28 58 0  30 58 0  32 58 0  34 58 0  36 58 0  38 58 0  40 58 0  42 58 0  44 58 0  46 58 0  48 58 0  50 58 0  52 58 0  54 58 0  56 58 0  58 58 0  60 58 0  62 58 0  64 58 0  66 58 0  68 58 0  70 58 0  72 58 0  74 58 0  76 58 0  78 58 0  80 58 0  82 58 0  84 58 0  86 58 0  88 58 0  90 58 0  92 58 0  94 58 0  96 58 0  98 58 0  100 58 0  102 58 0  104 58 0  106 58 0  108 58 0  110 58 0  112 58 0  114 58 0  116 58 0  118 58 0  120 58 0  122 58 0  124 58 0  126 58 0  128 58 0  130 58 0  132 58 0  134 58 0  136 58 0  138 58 0  140 58 0  142 58 0  144 58 0  146 58 0  148 58 0  150 58 0  152 58 0  154 58 0  156 58 0  158 58 0  160 58 0  162 58 0  164 58 0  166 58 0  168 58 0  170 58 0  172 58 0  174 58 0  176 58 0  178 58 0  180 58 0  182 58 0  184 58 0  186 58 0  188 58 0  190 58 0  192 58 0  194 58 0  196 58 0  198 58 0  200 58 0  0 60 0  2 60 0  4 60 0  6 60 0  8 60 0  10 60 0  12 60 0  14 60 0  16 60 0  18 60 0  20 60 0  22 60 0  24 60 0  26 60 0  28 60 0  30 60 0  32 60 0  34 60 0  36 60 0  38 60 0  40 60 0  42 60 0  44 60 0  46 60 0  48 60 0  50 60 0  52 60 0  54 60 0  56 60 0  58 60 0  60 60 0  62 60 0  64 60 0  66 60 0  68 60 0  70 60 0  72 60 0  74 60 0  76 60 0  78 60 0  80 60 0  82 60 0  84 60 0  86 60 0  88 60 0  90 60 0  92 60 0  94 60 0  96 60 0  98 60 0  100 60 0  102 60 0  104 60 0  106 60 0  108 60 0  110 60 0  112 60 0  114 60 0  116 60 0  118 60 0  120 60 0  122 60 0  124 60 0  126 60 0  128 60 0  130 60 0  132 60 0  134 60 0  136 60 0  138 60 0  140 60 0  142 60 0  144 60 0  146 60 0  148 60 0  150 60 0  152 60 0  154 60 0  156 60 0  158 60 0  160 60 0  162 60 0  164 60 0  166 60 0  168 60 0  170 60 0  172 60 0  174 60 0  176 60 0  178 60 0  180 60 0  182 60 0  184 60 0  186 60 0  188 60 0  190 60 0  192 60 0  194 60 0  196 60 0  198 60 0  200 60 0  0 62 0  2 62 0  4 62 0  6 62 0  8 62 0  10 62 0  12 62 0  14 62 0  16 62 0  18 62 0  20 62 0  22 62 0  24 62 0  26 62 0  28 62 0  30 62 0  32 62 0  34 62 0  36 62 0  38 62 0  40 62 0  42 62 0  44 62 0  46 62 0  48 62 0  50 62 0  52 62 0  54 62 0  56 62 0  58 62 0  60 62 0  62 62 0  64 62 0  66 62 0  68 62 0  70 62 0  72 62 0  74 62 0  76 62 0  78 62 0  80 62 0  82 62 0  84 62 0  86 62 0  88 62 0  90 62 0  92 62 0  94 62 0  96 62 0  98 62 0  100 62 0  102 62 0  104 62 0  106 62 0  108 62 0  110 62 0  112 62 0  114 62 0  116 62 0  118 62 0  120 62 0  122 62 0  124 62 0  126 62 0  128 62 0  130 62 0  132 62 0  134 62 0  136 62 0  138 62 0  140 62 0  142 62 0  144 62 0  146 62 0  148 62 0  150 62 0  152 62 0  154 62 0  156 62 0  158 62 0  160 62 0  162 62 0  164 62 0  166 62 0  168 62 0  170 62 0  172 62 0  174 62 0  176 62 0  178 62 0  180 62 0  182 62 0  184 62 0  186 62 0  188 62 0  190 62 0  192 62 0  194 62 0  196 62 0  198 62 0  200 62 0  0 64 0  2 64 0  4 64 0  6 64 0  8 64 0  10 64 0  12 64 0  14 64 0  16 64 0  18 64 0  20 64 0  22 64 0  24 64 0  26 64 0  28 64 0  30 64 0  32 64 0  34 64 0  36 64 0  38 64 0  40 64 0  42 64 0  44 64 0  46 64 0  48 64 0  50 64 0  52 64 0  54 64 0  56 64 0  58 64 0  60 64 0  62 64 0  64 64 0  66 64 0  68 64 0  70 64 0  72 64 0  74 64 0  76 64 0  78 64 0  80 64 0  82 64 0  84 64 0  86 64 0  88 64 0  90 64 0  92 64 0  94 64 0  96 64 0  98 64 0  100 64 0  102 64 0  104 64 0  106 64 0  108 64 0  110 64 0  112 64 0  114 64 0  116 64 0  118 64 0  120 64 0  122 64 0  124 64 0  126 64 0  128 64 0  130 64 0  132 64 0  134 64 0  136 64 0  138 64 0  140 64 0  142 64 0  144 64 0  146 64 0  148 64 0  150 64 0  152 64 0  154 64 0  156 64 0  158 64 0  160 64 0  162 64 0  164 64 0  166 64 0  168 64 0  170 64 0  172 64 0  174 64 0  176 64 0  178 64 0  180 64 0  182 64 0  184 64 0  186 64 0  188 64 0  190 64 0  192 64 0  194 64 0  196 64 0  198 64 0  200 64 0  0 66 0  2 66 0  4 66 0  6 66 0  8 66 0  10 66 0  12 66 0  14 66 0  16 66 0  18 66 0  20 66 0  22 66 0  24 66 0  26 66 0  28 66 0  30 66 0  32 66 0  34 66 0  36 66 0  38 66 0  40 66 0  42 66 0  44 66 0  46 66 0  48 66 0  50 66 0  52 66 0  54 66 0  56 66 0  58 66 0  60 66 0  62 66 0  64 66 0  66 66 0  68 66 0  70 66 0  72 66 0  74 66 0  76 66 0  78 66 0  80 66 0  82 66 0  84 66 0  86 66 0  88 66 0  90 66 0  92 66 0  94 66 0  96 66 0  98 66 0  100 66 0  102 66 0  104 66 0  106 66 0  108 66 0  110 66 0  112 66 0  114 66 0  116 66 0  118 66 0  120 66 0  122 66 0  124 66 0  126 66 0  128 66 0  130 66 0  132 66 0  134 66 0  136 66 0  138 66 0  140 66 0  142 66 0  144 66 0  146 66 0  148 66 0  150 66 0  152 66 0  154 66 0  156 66 0  158 66 0  160 66 0  162 66 0  164 66 0  166 66 0  168 66 0  170 66 0  172 66 0  174 66 0  176 66 0  178 66 0  180 66 0  182 66 0  184 66 0  186 66 0  188 66 0  190 66 0  192 66 0  194 66 0  196 66 0  198 66 0  200 66 0  0 68 0  2 68 0  4 68 0  6 68 0  8 68 0  10 68 0  12 68 0  14 68 0  16 68 0  18 68 0  20 68 0  22 68 0  24 68 0  26 68 0  28 68 0  30 68 0  32 68 0  34 68 0  36 68 0  38 68 0  40 68 0  42 68 0  44 68 0  46 68 0  48 68 0  50 68 0  52 68 0  54 68 0  56 68 0  58 68 0  60 68 0  62 68 0  64 68 0  66 68 0  68 68 0  70 68 0  72 68 0  74 68 0  76 68 0  78 68 0  80 68 0  82 68 0  84 68 0  86 68 0  88 68 0  90 68 0  92 68 0  94 68 0  96 68 0  98 68 0  100 68 0  102 68 0  104 68 0  106 68 0  108 68 0  110 68 0  112 68 0  114 68 0  116 68 0  118 68 0  120 68 0  122 68 0  124 68 0  126 68 0  128 68 0  130 68 0  132 68 0  134 68 0  136 68 0  138 68 0  140 68 0  142 68 0  144 68 0  146 68 0  148 68 0  150 68 0  152 68 0  154 68 0  156 68 0  158 68 0  160 68 0  162 68 0  164 68 0  166 68 0  168 68 0  170 68 0  172 68 0  174 68 0  176 68 0  178 68 0  180 68 0  182 68 0  184 68 0  186 68 0  188 68 0  190 68 0  192 68 0  194 68 0  196 68 0  198 68 0  200 68 0  0 70 0  2 70 0  4 70 0  6 70 0  8 70 0  10 70 0  12 70 0  14 70 0  16 70 0  18 70 0  20 70 0  22 70 0  24 70 0  26 70 0  28 70 0  30 70 0  32 70 0  34 70 0  36 70 0  38 70 0  40 70 0  42 70 0  44 70 0  46 70 0  48 70 0  50 70 0  52 70 0  54 70 0  56 70 0  58 70 0  60 70 0  62 70 0  64 70 0  66 70 0  68 70 0  70 70 0  72 70 0  74 70 0  76 70 0  78 70 0  80 70 0  82 70 0  84 70 0  86 70 0  88 70 0  90 70 0  92 70 0  94 70 0  96 70 0  98 70 0  100 70 0  102 70 0  104 70 0  106 70 0  108 70 0  110 70 0  112 70 0  114 70 0  116 70 0  118 70 0  120 70 0  122 70 0  124 70 0  126 70 0  128 70 0  130 70 0  132 70 0  134 70 0  136 70 0  138 70 0  140 70 0  142 70 0  144 70 0  146 70 0  148 70 0  150 70 0  152 70 0  154 70 0  156 70 0  158 70 0  160 70 0  162 70 0  164 70 0  166 70 0  168 70 0  170 70 0  172 70 0  174 70 0  176 70 0  178 70 0  180 70 0  182 70 0  184 70 0  186 70 0  188 70 0  190 70 0  192 70 0  194 70 0  196 70 0  198 70 0  200 70 0  0 72 0  2 72 0  4 72 0  6 72 0  8 72 0  10 72 0  12 72 0  14 72 0  16 72 0  18 72 0  20 72 0  22 72 0  24 72 0  26 72 0  28 72 0  30 72 0  32 72 0  34 72 0  36 72 0  38 72 0  40 72 0  42 72 0  44 72 0  46 72 0  48 72 0  50 72 0  52 72 0  54 72 0  56 72 0  58 72 0  60 72 0  62 72 0  64 72 0  66 72 0  68 72 0  70 72 0  72 72 0  74 72 0  76 72 0  78 72 0  80 72 0  82 72 0  84 72 0  86 72 0  88 72 0  90 72 0  92 72 0  94 72 0  96 72 0  98 72 0  100 72 0  102 72 0  104 72 0  106 72 0  108 72 0  110 72 0  112 72 0  114 72 0  116 72 0  118 72 0  120 72 0  122 72 0  124 72 0  126 72 0  128 72 0  130 72 0  132 72 0  134 72 0  136 72 0  138 72 0  140 72 0  142 72 0  144 72 0  146 72 0  148 72 0  150 72 0  152 72 0  154 72 0  156 72 0  158 72 0  160 72 0  162 72 0  164 72 0  166 72 0  168 72 0  170 72 0  172 72 0  174 72 0  176 72 0  178 72 0  180 72 0  182 72 0  184 72 0  186 72 0  188 72 0  190 72 0  192 72 0  194 72 0  196 72 0  198 72 0  200 72 0  0 74 0  2 74 0  4 74 0  6 74 0  8 74 0  10 74 0  12 74 0  14 74 0  16 74 0  18 74 0  20 74 0  22 74 0  24 74 0  26 74 0  28 74 0  30 74 0  32 74 0  34 74 0  36 74 0  38 74 0  40 74 0  42 74 0  44 74 0  46 74 0  48 74 0  50 74 0  52 74 0  54 74 0  56 74 0  58 74 0  60 74 0  62 74 0  64 74 0  66 74 0  68 74 0  70 74 0  72 74 0  74 74 0  76 74 0  78 74 0  80 74 0  82 74 0  84 74 0  86 74 0  88 74 0  90 74 0  92 74 0  94 74 0  96 74 0  98 74 0  100 74 0  102 74 0  104 74 0  106 74 0  108 74 0  110 74 0  112 74 0  114 74 0  116 74 0  118 74 0  120 74 0  122 74 0  124 74 0  126 74 0  128 74 0  130 74 0  132 74 0  134 74 0  136 74 0  138 74 0  140 74 0  142 74 0  144 74 0  146 74 0  148 74 0  150 74 0  152 74 0  154 74 0  156 74 0  158 74 0  160 74 0  162 74 0  164 74 0  166 74 0  168 74 0  170 74 0  172 74 0  174 74 0  176 74 0  178 74 0  180 74 0  182 74 0  184 74 0  186 74 0  188 74 0  190 74 0  192 74 0  194 74 0  196 74 0  198 74 0  200 74 0  0 76 0  2 76 0  4 76 0  6 76 0  8 76 0  10 76 0  12 76 0  14 76 0  16 76 0  18 76 0  20 76 0  22 76 0  24 76 0  26 76 0  28 76 0  30 76 0  32 76 0  34 76 0  36 76 0  38 76 0  40 76 0  42 76 0  44 76 0  46 76 0  48 76 0  50 76 0  52 76 0  54 76 0  56 76 0  58 76 0  60 76 0  62 76 0  64 76 0  66 76 0  68 76 0  70 76 0  72 76 0  74 76 0  76 76 0  78 76 0  80 76 0  82 76 0  84 76 0  86 76 0  88 76 0  90 76 0  92 76 0  94 76 0  96 76 0  98 76 0  100 76 0  102 76 0  104 76 0  106 76 0  108 76 0  110 76 0  112 76 0  114 76 0  116 76 0  118 76 0  120 76 0  122 76 0  124 76 0  126 76 0  128 76 0  130 76 0  132 76 0  134 76 0  136 76 0  138 76 0  140 76 0  142 76 0  144 76 0  146 76 0  148 76 0  150 76 0  152 76 0  154 76 0  156 76 0  158 76 0  160 76 0  162 76 0  164 76 0  166 76 0  168 76 0  170 76 0  172 76 0  174 76 0  176 76 0  178 76 0  180 76 0  182 76 0  184 76 0  186 76 0  188 76 0  190 76 0  192 76 0  194 76 0  196 76 0  198 76 0  200 76 0  0 78 0  2 78 0  4 78 0  6 78 0  8 78 0  10 78 0  12 78 0  14 78 0  16 78 0  18 78 0  20 78 0  22 78 0  24 78 0  26 78 0  28 78 0  30 78 0  32 78 0  34 78 0  36 78 0  38 78 0  40 78 0  42 78 0  44 78 0  46 78 0  48 78 0  50 78 0  52 78 0  54 78 0  56 78 0  58 78 0  60 78 0  62 78 0  64 78 0  66 78 0  68 78 0  70 78 0  72 78 0  74 78 0  76 78 0  78 78 0  80 78 0  82 78 0  84 78 0  86 78 0  88 78 0  90 78 0  92 78 0  94 78 0  96 78 0  98 78 0  100 78 0  102 78 0  104 78 0  106 78 0  108 78 0  110 78 0  112 78 0  114 78 0  116 78 0  118 78 0  120 78 0  122 78 0  124 78 0  126 78 0  128 78 0  130 78 0  132 78 0  134 78 0  136 78 0  138 78 0  140 78 0  142 78 0  144 78 0  146 78 0  148 78 0  150 78 0  152 78 0  154 78 0  156 78 0  158 78 0  160 78 0  162 78 0  164 78 0  166 78 0  168 78 0  170 78 0  172 78 0  174 78 0  176 78 0  178 78 0  180 78 0  182 78 0  184 78 0  186 78 0  188 78 0  190 78 0  192 78 0  194 78 0  196 78 0  198 78 0  200 78 0  0 80 0  2 80 0  4 80 0  6 80 0  8 80 0  10 80 0  12 80 0  14 80 0  16 80 0  18 80 0  20 80 0  22 80 0  24 80 0  26 80 0  28 80 0  30 80 0  32 80 0  34 80 0  36 80 0  38 80 0  40 80 0  42 80 0  44 80 0  46 80 0  48 80 0  50 80 0  52 80 0  54 80 0  56 80 0  58 80 0  60 80 0  62 80 0  64 80 0  66 80 0  68 80 0  70 80 0  72 80 0  74 80 0  76 80 0  78 80 0  80 80 0  82 80 0  84 80 0  86 80 0  88 80 0  90 80 0  92 80 0  94 80 0  96 80 0  98 80 0  100 80 0  102 80 0  104 80 0  106 80 0  108 80 0  110 80 0  112 80 0  114 80 0  116 80 0  118 80 0  120 80 0  122 80 0  124 80 0  126 80 0  128 80 0  130 80 0  132 80 0  134 80 0  136 80 0  138 80 0  140 80 0  142 80 0  144 80 0  146 80 0  148 80 0  150 80 0  152 80 0  154 80 0  156 80 0  158 80 0  160 80 0  162 80 0  164 80 0  166 80 0  168 80 0  170 80 0  172 80 0  174 80 0  176 80 0  178 80 0  180 80 0  182 80 0  184 80 0  186 80 0  188 80 0  190 80 0  192 80 0  194 80 0  196 80 0  198 80 0  200 80 0  0 82 0  2 82 0  4 82 0  6 82 0  8 82 0  10 82 0  12 82 0  14 82 0  16 82 0  18 82 0  20 82 0  22 82 0  24 82 0  26 82 0  28 82 0  30 82 0  32 82 0  34 82 0  36 82 0  38 82 0  40 82 0  42 82 0  44 82 0  46 82 0  48 82 0  50 82 0  52 82 0  54 82 0  56 82 0  58 82 0  60 82 0  62 82 0  64 82 0  66 82 0  68 82 0  70 82 0  72 82 0  74 82 0  76 82 0  78 82 0  80 82 0  82 82 0  84 82 0  86 82 0  88 82 0  90 82 0  92 82 0  94 82 0  96 82 0  98 82 0  100 82 0  102 82 0  104 82 0  106 82 0  108 82 0  110 82 0  112 82 0  114 82 0  116 82 0  118 82 0  120 82 0  122 82 0  124 82 0  126 82 0  128 82 0  130 82 0  132 82 0  134 82 0  136 82 0  138 82 0  140 82 0  142 82 0  144 82 0  146 82 0  148 82 0  150 82 0  152 82 0  154 82 0  156 82 0  158 82 0  160 82 0  162 82 0  164 82 0  166 82 0  168 82 0  170 82 0  172 82 0  174 82 0  176 82 0  178 82 0  180 82 0  182 82 0  184 82 0  186 82 0  188 82 0  190 82 0  192 82 0  194 82 0  196 82 0  198 82 0  200 82 0  0 84 0  2 84 0  4 84 0  6 84 0  8 84 0  10 84 0  12 84 0  14 84 0  16 84 0  18 84 0  20 84 0  22 84 0  24 84 0  26 84 0  28 84 0  30 84 0  32 84 0  34 84 0  36 84 0  38 84 0  40 84 0  42 84 0  44 84 0  46 84 0  48 84 0  50 84 0  52 84 0  54 84 0  56 84 0  58 84 0  60 84 0  62 84 0  64 84 0  66 84 0  68 84 0  70 84 0  72 84 0  74 84 0  76 84 0  78 84 0  80 84 0  82 84 0  84 84 0  86 84 0  88 84 0  90 84 0  92 84 0  94 84 0  96 84 0  98 84 0  100 84 0  102 84 0  104 84 0  106 84 0  108 84 0  110 84 0  112 84 0  114 84 0  116 84 0  118 84 0  120 84 0  122 84 0  124 84 0  126 84 0  128 84 0  130 84 0  132 84 0  134 84 0  136 84 0  138 84 0  140 84 0  142 84 0  144 84 0  146 84 0  148 84 0  150 84 0  152 84 0  154 84 0  156 84 0  158 84 0  160 84 0  162 84 0  164 84 0  166 84 0  168 84 0  170 84 0  172 84 0  174 84 0  176 84 0  178 84 0  180 84 0  182 84 0  184 84 0  186 84 0  188 84 0  190 84 0  192 84 0  194 84 0  196 84 0  198 84 0  200 84 0  0 86 0  2 86 0  4 86 0  6 86 0  8 86 0  10 86 0  12 86 0  14 86 0  16 86 0  18 86 0  20 86 0  22 86 0  24 86 0  26 86 0  28 86 0  30 86 0  32 86 0  34 86 0  36 86 0  38 86 0  40 86 0  42 86 0  44 86 0  46 86 0  48 86 0  50 86 0  52 86 0  54 86 0  56 86 0  58 86 0  60 86 0  62 86 0  64 86 0  66 86 0  68 86 0  70 86 0  72 86 0  74 86 0  76 86 0  78 86 0  80 86 0  82 86 0  84 86 0  86 86 0  88 86 0  90 86 0  92 86 0  94 86 0  96 86 0  98 86 0  100 86 0  102 86 0  104 86 0  106 86 0  108 86 0  110 86 0  112 86 0  114 86 0  116 86 0  118 86 0  120 86 0  122 86 0  124 86 0  126 86 0  128 86 0  130 86 0  132 86 0  134 86 0  136 86 0  138 86 0  140 86 0  142 86 0  144 86 0  146 86 0  148 86 0  150 86 0  152 86 0  154 86 0  156 86 0  158 86 0  160 86 0  162 86 0  164 86 0  166 86 0  168 86 0  170 86 0  172 86 0  174 86 0  176 86 0  178 86 0  180 86 0  182 86 0  184 86 0  186 86 0  188 86 0  190 86 0  192 86 0  194 86 0  196 86 0  198 86 0  200 86 0  0 88 0  2 88 0  4 88 0  6 88 0  8 88 0  10 88 0  12 88 0  14 88 0  16 88 0  18 88 0  20 88 0  22 88 0  24 88 0  26 88 0  28 88 0  30 88 0  32 88 0  34 88 0  36 88 0  38 88 0  40 88 0  42 88 0  44 88 0  46 88 0  48 88 0  50 88 0  52 88 0  54 88 0  56 88 0  58 88 0  60 88 0  62 88 0  64 88 0  66 88 0  68 88 0  70 88 0  72 88 0  74 88 0  76 88 0  78 88 0  80 88 0  82 88 0  84 88 0  86 88 0  88 88 0  90 88 0  92 88 0  94 88 0  96 88 0  98 88 0  100 88 0  102 88 0  104 88 0  106 88 0  108 88 0  110 88 0  112 88 0  114 88 0  116 88 0  118 88 0  120 88 0  122 88 0  124 88 0  126 88 0  128 88 0  130 88 0  132 88 0  134 88 0  136 88 0  138 88 0  140 88 0  142 88 0  144 88 0  146 88 0  148 88 0  150 88 0  152 88 0  154 88 0  156 88 0  158 88 0  160 88 0  162 88 0  164 88 0  166 88 0  168 88 0  170 88 0  172 88 0  174 88 0  176 88 0  178 88 0  180 88 0  182 88 0  184 88 0  186 88 0  188 88 0  190 88 0  192 88 0  194 88 0  196 88 0  198 88 0  200 88 0  0 90 0  2 90 0  4 90 0  6 90 0  8 90 0  10 90 0  12 90 0  14 90 0  16 90 0  18 90 0  20 90 0  22 90 0  24 90 0  26 90 0  28 90 0  30 90 0  32 90 0  34 90 0  36 90 0  38 90 0  40 90 0  42 90 0  44 90 0  46 90 0  48 90 0  50 90 0  52 90 0  54 90 0  56 90 0  58 90 0  60 90 0  62 90 0  64 90 0  66 90 0  68 90 0  70 90 0  72 90 0  74 90 0  76 90 0  78 90 0  80 90 0  82 90 0  84 90 0  86 90 0  88 90 0  90 90 0  92 90 0  94 90 0  96 90 0  98 90 0  100 90 0  102 90 0  104 90 0  106 90 0  108 90 0  110 90 0  112 90 0  114 90 0  116 90 0  118 90 0  120 90 0  122 90 0  124 90 0  126 90 0  128 90 0  130 90 0  132 90 0  134 90 0  136 90 0  138 90 0  140 90 0  142 90 0  144 90 0  146 90 0  148 90 0  150 90 0  152 90 0  154 90 0  156 90 0  158 90 0  160 90 0  162 90 0  164 90 0  166 90 0  168 90 0  170 90 0  172 90 0  174 90 0  176 90 0  178 90 0  180 90 0  182 90 0  184 90 0  186 90 0  188 90 0  190 90 0  192 90 0  194 90 0  196 90 0  198 90 0  200 90 0  0 92 0  2 92 0  4 92 0  6 92 0  8 92 0  10 92 0  12 92 0  14 92 0  16 92 0  18 92 0  20 92 0  22 92 0  24 92 0  26 92 0  28 92 0  30 92 0  32 92 0  34 92 0  36 92 0  38 92 0  40 92 0  42 92 0  44 92 0  46 92 0  48 92 0  50 92 0  52 92 0  54 92 0  56 92 0  58 92 0  60 92 0  62 92 0  64 92 0  66 92 0  68 92 0  70 92 0  72 92 0  74 92 0  76 92 0  78 92 0  80 92 0  82 92 0  84 92 0  86 92 0  88 92 0  90 92 0  92 92 0  94 92 0  96 92 0  98 92 0  100 92 0  102 92 0  104 92 0  106 92 0  108 92 0  110 92 0  112 92 0  114 92 0  116 92 0  118 92 0  120 92 0  122 92 0  124 92 0  126 92 0  128 92 0  130 92 0  132 92 0  134 92 0  136 92 0  138 92 0  140 92 0  142 92 0  144 92 0  146 92 0  148 92 0  150 92 0  152 92 0  154 92 0  156 92 0  158 92 0  160 92 0  162 92 0  164 92 0  166 92 0  168 92 0  170 92 0  172 92 0  174 92 0  176 92 0  178 92 0  180 92 0  182 92 0  184 92 0  186 92 0  188 92 0  190 92 0  192 92 0  194 92 0  196 92 0  198 92 0  200 92 0  0 94 0  2 94 0  4 94 0  6 94 0  8 94 0  10 94 0  12 94 0  14 94 0  16 94 0  18 94 0  20 94 0  22 94 0  24 94 0  26 94 0  28 94 0  30 94 0  32 94 0  34 94 0  36 94 0  38 94 0  40 94 0  42 94 0  44 94 0  46 94 0  48 94 0  50 94 0  52 94 0  54 94 0  56 94 0  58 94 0  60 94 0  62 94 0  64 94 0  66 94 0  68 94 0  70 94 0  72 94 0  74 94 0  76 94 0  78 94 0  80 94 0  82 94 0  84 94 0  86 94 0  88 94 0  90 94 0  92 94 0  94 94 0  96 94 0  98 94 0  100 94 0  102 94 0  104 94 0  106 94 0  108 94 0  110 94 0  112 94 0  114 94 0  116 94 0  118 94 0  120 94 0  122 94 0  124 94 0  126 94 0  128 94 0  130 94 0  132 94 0  134 94 0  136 94 0  138 94 0  140 94 0  142 94 0  144 94 0  146 94 0  148 94 0  150 94 0  152 94 0  154 94 0  156 94 0  158 94 0  160 94 0  162 94 0  164 94 0  166 94 0  168 94 0  170 94 0  172 94 0  174 94 0  176 94 0  178 94 0  180 94 0  182 94 0  184 94 0  186 94 0  188 94 0  190 94 0  192 94 0  194 94 0  196 94 0  198 94 0  200 94 0  0 96 0  2 96 0  4 96 0  6 96 0  8 96 0  10 96 0  12 96 0  14 96 0  16 96 0  18 96 0  20 96 0  22 96 0  24 96 0  26 96 0  28 96 0  30 96 0  32 96 0  34 96 0  36 96 0  38 96 0  40 96 0  42 96 0  44 96 0  46 96 0  48 96 0  50 96 0  52 96 0  54 96 0  56 96 0  58 96 0  60 96 0  62 96 0  64 96 0  66 96 0  68 96 0  70 96 0  72 96 0  74 96 0  76 96 0  78 96 0  80 96 0  82 96 0  84 96 0  86 96 0  88 96 0  90 96 0  92 96 0  94 96 0  96 96 0  98 96 0  100 96 0  102 96 0  104 96 0  106 96 0  108 96 0  110 96 0  112 96 0  114 96 0  116 96 0  118 96 0  120 96 0  122 96 0  124 96 0  126 96 0  128 96 0  130 96 0  132 96 0  134 96 0  136 96 0  138 96 0  140 96 0  142 96 0  144 96 0  146 96 0  148 96 0  150 96 0  152 96 0  154 96 0  156 96 0  158 96 0  160 96 0  162 96 0  164 96 0  166 96 0  168 96 0  170 96 0  172 96 0  174 96 0  176 96 0  178 96 0  180 96 0  182 96 0  184 96 0  186 96 0  188 96 0  190 96 0  192 96 0  194 96 0  196 96 0  198 96 0  200 96 0  0 98 0  2 98 0  4 98 0  6 98 0  8 98 0  10 98 0  12 98 0  14 98 0  16 98 0  18 98 0  20 98 0  22 98 0  24 98 0  26 98 0  28 98 0  30 98 0  32 98 0  34 98 0  36 98 0  38 98 0  40 98 0  42 98 0  44 98 0  46 98 0  48 98 0  50 98 0  52 98 0  54 98 0  56 98 0  58 98 0  60 98 0  62 98 0  64 98 0  66 98 0  68 98 0  70 98 0  72 98 0  74 98 0  76 98 0  78 98 0  80 98 0  82 98 0  84 98 0  86 98 0  88 98 0  90 98 0  92 98 0  94 98 0  96 98 0  98 98 0  100 98 0  102 98 0  104 98 0  106 98 0  108 98 0  110 98 0  112 98 0  114 98 0  116 98 0  118 98 0  120 98 0  122 98 0  124 98 0  126 98 0  128 98 0  130 98 0  132 98 0  134 98 0  136 98 0  138 98 0  140 98 0  142 98 0  144 98 0  146 98 0  148 98 0  150 98 0  152 98 0  154 98 0  156 98 0  158 98 0  160 98 0  162 98 0  164 98 0  166 98 0  168 98 0  170 98 0  172 98 0  174 98 0  176 98 0  178 98 0  180 98 0  182 98 0  184 98 0  186 98 0  188 98 0  190 98 0  192 98 0  194 98 0  196 98 0  198 98 0  200 98 0  0 100 0  2 100 0  4 100 0  6 100 0  8 100 0  10 100 0  12 100 0  14 100 0  16 100 0  18 100 0  20 100 0  22 100 0  24 100 0  26 100 0  28 100 0  30 100 0  32 100 0  34 100 0  36 100 0  38 100 0  40 100 0  42 100 0  44 100 0  46 100 0  48 100 0  50 100 0  52 100 0  54 100 0  56 100 0  58 100 0  60 100 0  62 100 0  64 100 0  66 100 0  68 100 0  70 100 0  72 100 0  74 100 0  76 100 0  78 100 0  80 100 0  82 100 0  84 100 0  86 100 0  88 100 0  90 100 0  92 100 0  94 100 0  96 100 0  98 100 0  100 100 0  102 100 0  104 100 0  106 100 0  108 100 0  110 100 0  112 100 0  114 100 0  116 100 0  118 100 0  120 100 0  122 100 0  124 100 0  126 100 0  128 100 0  130 100 0  132 100 0  134 100 0  136 100 0  138 100 0  140 100 0  142 100 0  144 100 0  146 100 0  148 100 0  150 100 0  152 100 0  154 100 0  156 100 0  158 100 0  160 100 0  162 100 0  164 100 0  166 100 0  168 100 0  170 100 0  172 100 0  174 100 0  176 100 0  178 100 0  180 100 0  182 100 0  184 100 0  186 100 0  188 100 0  190 100 0  192 100 0  194 100 0  196 100 0  198 100 0  200 100 0  0 102 0  2 102 0  4 102 0  6 102 0  8 102 0  10 102 0  12 102 0  14 102 0  16 102 0  18 102 0  20 102 0  22 102 0  24 102 0  26 102 0  28 102 0  30 102 0  32 102 0  34 102 0  36 102 0  38 102 0  40 102 0  42 102 0  44 102 0  46 102 0  48 102 0  50 102 0  52 102 0  54 102 0  56 102 0  58 102 0  60 102 0  62 102 0  64 102 0  66 102 0  68 102 0  70 102 0  72 102 0  74 102 0  76 102 0  78 102 0  80 102 0  82 102 0  84 102 0  86 102 0  88 102 0  90 102 0  92 102 0  94 102 0  96 102 0  98 102 0  100 102 0  102 102 0  104 102 0  106 102 0  108 102 0  110 102 0  112 102 0  114 102 0  116 102 0  118 102 0  120 102 0  122 102 0  124 102 0  126 102 0  128 102 0  130 102 0  132 102 0  134 102 0  136 102 0  138 102 0  140 102 0  142 102 0  144 102 0  146 102 0  148 102 0  150 102 0  152 102 0  154 102 0  156 102 0  158 102 0  160 102 0  162 102 0  164 102 0  166 102 0  168 102 0  170 102 0  172 102 0  174 102 0  176 102 0  178 102 0  180 102 0  182 102 0  184 102 0  186 102 0  188 102 0  190 102 0  192 102 0  194 102 0  196 102 0  198 102 0  200 102 0  0 104 0  2 104 0  4 104 0  6 104 0  8 104 0  10 104 0  12 104 0  14 104 0  16 104 0  18 104 0  20 104 0  22 104 0  24 104 0  26 104 0  28 104 0  30 104 0  32 104 0  34 104 0  36 104 0  38 104 0  40 104 0  42 104 0  44 104 0  46 104 0  48 104 0  50 104 0  52 104 0  54 104 0  56 104 0  58 104 0  60 104 0  62 104 0  64 104 0  66 104 0  68 104 0  70 104 0  72 104 0  74 104 0  76 104 0  78 104 0  80 104 0  82 104 0  84 104 0  86 104 0  88 104 0  90 104 0  92 104 0  94 104 0  96 104 0  98 104 0  100 104 0  102 104 0  104 104 0  106 104 0  108 104 0  110 104 0  112 104 0  114 104 0  116 104 0  118 104 0  120 104 0  122 104 0  124 104 0  126 104 0  128 104 0  130 104 0  132 104 0  134 104 0  136 104 0  138 104 0  140 104 0  142 104 0  144 104 0  146 104 0  148 104 0  150 104 0  152 104 0  154 104 0  156 104 0  158 104 0  160 104 0  162 104 0  164 104 0  166 104 0  168 104 0  170 104 0  172 104 0  174 104 0  176 104 0  178 104 0  180 104 0  182 104 0  184 104 0  186 104 0  188 104 0  190 104 0  192 104 0  194 104 0  196 104 0  198 104 0  200 104 0  0 106 0  2 106 0  4 106 0  6 106 0  8 106 0  10 106 0  12 106 0  14 106 0  16 106 0  18 106 0  20 106 0  22 106 0  24 106 0  26 106 0  28 106 0  30 106 0  32 106 0  34 106 0  36 106 0  38 106 0  40 106 0  42 106 0  44 106 0  46 106 0  48 106 0  50 106 0  52 106 0  54 106 0  56 106 0  58 106 0  60 106 0  62 106 0  64 106 0  66 106 0  68 106 0  70 106 0  72 106 0  74 106 0  76 106 0  78 106 0  80 106 0  82 106 0  84 106 0  86 106 0  88 106 0  90 106 0  92 106 0  94 106 0  96 106 0  98 106 0  100 106 0  102 106 0  104 106 0  106 106 0  108 106 0  110 106 0  112 106 0  114 106 0  116 106 0  118 106 0  120 106 0  122 106 0  124 106 0  126 106 0  128 106 0  130 106 0  132 106 0  134 106 0  136 106 0  138 106 0  140 106 0  142 106 0  144 106 0  146 106 0  148 106 0  150 106 0  152 106 0  154 106 0  156 106 0  158 106 0  160 106 0  162 106 0  164 106 0  166 106 0  168 106 0  170 106 0  172 106 0  174 106 0  176 106 0  178 106 0  180 106 0  182 106 0  184 106 0  186 106 0  188 106 0  190 106 0  192 106 0  194 106 0  196 106 0  198 106 0  200 106 0  0 108 0  2 108 0  4 108 0  6 108 0  8 108 0  10 108 0  12 108 0  14 108 0  16 108 0  18 108 0  20 108 0  22 108 0  24 108 0  26 108 0  28 108 0  30 108 0  32 108 0  34 108 0  36 108 0  38 108 0  40 108 0  42 108 0  44 108 0  46 108 0  48 108 0  50 108 0  52 108 0  54 108 0  56 108 0  58 108 0  60 108 0  62 108 0  64 108 0  66 108 0  68 108 0  70 108 0  72 108 0  74 108 0  76 108 0  78 108 0  80 108 0  82 108 0  84 108 0  86 108 0  88 108 0  90 108 0  92 108 0  94 108 0  96 108 0  98 108 0  100 108 0  102 108 0  104 108 0  106 108 0  108 108 0  110 108 0  112 108 0  114 108 0  116 108 0  118 108 0  120 108 0  122 108 0  124 108 0  126 108 0  128 108 0  130 108 0  132 108 0  134 108 0  136 108 0  138 108 0  140 108 0  142 108 0  144 108 0  146 108 0  148 108 0  150 108 0  152 108 0  154 108 0  156 108 0  158 108 0  160 108 0  162 108 0  164 108 0  166 108 0  168 108 0  170 108 0  172 108 0  174 108 0  176 108 0  178 108 0  180 108 0  182 108 0  184 108 0  186 108 0  188 108 0  190 108 0  192 108 0  194 108 0  196 108 0  198 108 0  200 108 0  0 110 0  2 110 0  4 110 0  6 110 0  8 110 0  10 110 0  12 110 0  14 110 0  16 110 0  18 110 0  20 110 0  22 110 0  24 110 0  26 110 0  28 110 0  30 110 0  32 110 0  34 110 0  36 110 0  38 110 0  40 110 0  42 110 0  44 110 0  46 110 0  48 110 0  50 110 0  52 110 0  54 110 0  56 110 0  58 110 0  60 110 0  62 110 0  64 110 0  66 110 0  68 110 0  70 110 0  72 110 0  74 110 0  76 110 0  78 110 0  80 110 0  82 110 0  84 110 0  86 110 0  88 110 0  90 110 0  92 110 0  94 110 0  96 110 0  98 110 0  100 110 0  102 110 0  104 110 0  106 110 0  108 110 0  110 110 0  112 110 0  114 110 0  116 110 0  118 110 0  120 110 0  122 110 0  124 110 0  126 110 0  128 110 0  130 110 0  132 110 0  134 110 0  136 110 0  138 110 0  140 110 0  142 110 0  144 110 0  146 110 0  148 110 0  150 110 0  152 110 0  154 110 0  156 110 0  158 110 0  160 110 0  162 110 0  164 110 0  166 110 0  168 110 0  170 110 0  172 110 0  174 110 0  176 110 0  178 110 0  180 110 0  182 110 0  184 110 0  186 110 0  188 110 0  190 110 0  192 110 0  194 110 0  196 110 0  198 110 0  200 110 0  1 1 0  3 1 0  5 1 0  7 1 0  9 1 0  11 1 0  13 1 0  15 1 0  17 1 0  19 1 0  21 1 0  23 1 0  25 1 0  27 1 0  29 1 0  31 1 0  33 1 0  35 1 0  37 1 0  39 1 0  41 1 0  43 1 0  45 1 0  47 1 0  49 1 0  51 1 0  53 1 0  55 1 0  57 1 0  59 1 0  61 1 0  63 1 0  65 1 0  67 1 0  69 1 0  71 1 0  73 1 0  75 1 0  77 1 0  79 1 0  81 1 0  83 1 0  85 1 0  87 1 0  89 1 0  91 1 0  93 1 0  95 1 0  97 1 0  99 1 0  101 1 0  103 1 0  105 1 0  107 1 0  109 1 0  111 1 0  113 1 0  115 1 0  117 1 0  119 1 0  121 1 0  123 1 0  125 1 0  127 1 0  129 1 0  131 1 0  133 1 0  135 1 0  137 1 0  139 1 0  141 1 0  143 1 0  145 1 0  147 1 0  149 1 0  151 1 0  153 1 0  155 1 0  157 1 0  159 1 0  161 1 0  163 1 0  165 1 0  167 1 0  169 1 0  171 1 0  173 1 0  175 1 0  177 1 0  179 1 0  181 1 0  183 1 0  185 1 0  187 1 0  189 1 0  191 1 0  193 1 0  195 1 0  197 1 0  199 1 0  1 3 0  3 3 0  5 3 0  7 3 0  9 3 0  11 3 0  13 3 0  15 3 0  17 3 0  19 3 0  21 3 0  23 3 0  25 3 0  27 3 0  29 3 0  31 3 0  33 3 0  35 3 0  37 3 0  39 3 0  41 3 0  43 3 0  45 3 0  47 3 0  49 3 0  51 3 0  53 3 0  55 3 0  57 3 0  59 3 0  61 3 0  63 3 0  65 3 0  67 3 0  69 3 0  71 3 0  73 3 0  75 3 0  77 3 0  79 3 0  81 3 0  83 3 0  85 3 0  87 3 0  89 3 0  91 3 0  93 3 0  95 3 0  97 3 0  99 3 0  101 3 0  103 3 0  105 3 0  107 3 0  109 3 0  111 3 0  113 3 0  115 3 0  117 3 0  119 3 0  121 3 0  123 3 0  125 3 0  127 3 0  129 3 0  131 3 0  133 3 0  135 3 0  137 3 0  139 3 0  141 3 0  143 3 0  145 3 0  147 3 0  149 3 0  151 3 0  153 3 0  155 3 0  157 3 0  159 3 0  161 3 0  163 3 0  165 3 0  167 3 0  169 3 0  171 3 0  173 3 0  175 3 0  177 3 0  179 3 0  181 3 0  183 3 0  185 3 0  187 3 0  189 3 0  191 3 0  193 3 0  195 3 0  197 3 0  199 3 0  1 5 0  3 5 0  5 5 0  7 5 0  9 5 0  11 5 0  13 5 0  15 5 0  17 5 0  19 5 0  21 5 0  23 5 0  25 5 0  27 5 0  29 5 0  31 5 0  33 5 0  35 5 0  37 5 0  39 5 0  41 5 0  43 5 0  45 5 0  47 5 0  49 5 0  51 5 0  53 5 0  55 5 0  57 5 0  59 5 0  61 5 0  63 5 0  65 5 0  67 5 0  69 5 0  71 5 0  73 5 0  75 5 0  77 5 0  79 5 0  81 5 0  83 5 0  85 5 0  87 5 0  89 5 0  91 5 0  93 5 0  95 5 0  97 5 0  99 5 0  101 5 0  103 5 0  105 5 0  107 5 0  109 5 0  111 5 0  113 5 0  115 5 0  117 5 0  119 5 0  121 5 0  123 5 0  125 5 0  127 5 0  129 5 0  131 5 0  133 5 0  135 5 0  137 5 0  139 5 0  141 5 0  143 5 0  145 5 0  147 5 0  149 5 0  151 5 0  153 5 0  155 5 0  157 5 0  159 5 0  161 5 0  163 5 0  165 5 0  167 5 0  169 5 0  171 5 0  173 5 0  175 5 0  177 5 0  179 5 0  181 5 0  183 5 0  185 5 0  187 5 0  189 5 0  191 5 0  193 5 0  195 5 0  197 5 0  199 5 0  1 7 0  3 7 0  5 7 0  7 7 0  9 7 0  11 7 0  13 7 0  15 7 0  17 7 0  19 7 0  21 7 0  23 7 0  25 7 0  27 7 0  29 7 0  31 7 0  33 7 0  35 7 0  37 7 0  39 7 0  41 7 0  43 7 0  45 7 0  47 7 0  49 7 0  51 7 0  53 7 0  55 7 0  57 7 0  59 7 0  61 7 0  63 7 0  65 7 0  67 7 0  69 7 0  71 7 0  73 7 0  75 7 0  77 7 0  79 7 0  81 7 0  83 7 0  85 7 0  87 7 0  89 7 0  91 7 0  93 7 0  95 7 0  97 7 0  99 7 0  101 7 0  103 7 0  105 7 0  107 7 0  109 7 0  111 7 0  113 7 0  115 7 0  117 7 0  119 7 0  121 7 0  123 7 0  125 7 0  127 7 0  129 7 0  131 7 0  133 7 0  135 7 0  137 7 0  139 7 0  141 7 0  143 7 0  145 7 0  147 7 0  149 7 0  151 7 0  153 7 0  155 7 0  157 7 0  159 7 0  161 7 0  163 7 0  165 7 0  167 7 0  169 7 0  171 7 0  173 7 0  175 7 0  177 7 0  179 7 0  181 7 0  183 7 0  185 7 0  187 7 0  189 7 0  191 7 0  193 7 0  195 7 0  197 7 0  199 7 0  1 9 0  3 9 0  5 9 0  7 9 0  9 9 0  11 9 0  13 9 0  15 9 0  17 9 0  19 9 0  21 9 0  23 9 0  25 9 0  27 9 0  29 9 0  31 9 0  33 9 0  35 9 0  37 9 0  39 9 0  41 9 0  43 9 0  45 9 0  47 9 0  49 9 0  51 9 0  53 9 0  55 9 0  57 9 0  59 9 0  61 9 0  63 9 0  65 9 0  67 9 0  69 9 0  71 9 0  73 9 0  75 9 0  77 9 0  79 9 0  81 9 0  83 9 0  85 9 0  87 9 0  89 9 0  91 9 0  93 9 0  95 9 0  97 9 0  99 9 0  101 9 0  103 9 0  105 9 0  107 9 0  109 9 0  111 9 0  113 9 0  115 9 0  117 9 0  119 9 0  121 9 0  123 9 0  125 9 0  127 9 0  129 9 0  131 9 0  133 9 0  135 9 0  137 9 0  139 9 0  141 9 0  143 9 0  145 9 0  147 9 0  149 9 0  151 9 0  153 9 0  155 9 0  157 9 0  159 9 0  161 9 0  163 9 0  165 9 0  167 9 0  169 9 0  171 9 0  173 9 0  175 9 0  177 9 0  179 9 0  181 9 0  183 9 0  185 9 0  187 9 0  189 9 0  191 9 0  193 9 0  195 9 0  197 9 0  199 9 0  1 11 0  3 11 0  5 11 0  7 11 0  9 11 0  11 11 0  13 11 0  15 11 0  17 11 0  19 11 0  21 11 0  23 11 0  25 11 0  27 11 0  29 11 0  31 11 0  33 11 0  35 11 0  37 11 0  39 11 0  41 11 0  43 11 0  45 11 0  47 11 0  49 11 0  51 11 0  53 11 0  55 11 0  57 11 0  59 11 0  61 11 0  63 11 0  65 11 0  67 11 0  69 11 0  71 11 0  73 11 0  75 11 0  77 11 0  79 11 0  81 11 0  83 11 0  85 11 0  87 11 0  89 11 0  91 11 0  93 11 0  95 11 0  97 11 0  99 11 0  101 11 0  103 11 0  105 11 0  107 11 0  109 11 0  111 11 0  113 11 0  115 11 0  117 11 0  119 11 0  121 11 0  123 11 0  125 11 0  127 11 0  129 11 0  131 11 0  133 11 0  135 11 0  137 11 0  139 11 0  141 11 0  143 11 0  145 11 0  147 11 0  149 11 0  151 11 0  153 11 0  155 11 0  157 11 0  159 11 0  161 11 0  163 11 0  165 11 0  167 11 0  169 11 0  171 11 0  173 11 0  175 11 0  177 11 0  179 11 0  181 11 0  183 11 0  185 11 0  187 11 0  189 11 0  191 11 0  193 11 0  195 11 0  197 11 0  199 11 0  1 13 0  3 13 0  5 13 0  7 13 0  9 13 0  11 13 0  13 13 0  15 13 0  17 13 0  19 13 0  21 13 0  23 13 0  25 13 0  27 13 0  29 13 0  31 13 0  33 13 0  35 13 0  37 13 0  39 13 0  41 13 0  43 13 0  45 13 0  47 13 0  49 13 0  51 13 0  53 13 0  55 13 0  57 13 0  59 13 0  61 13 0  63 13 0  65 13 0  67 13 0  69 13 0  71 13 0  73 13 0  75 13 0  77 13 0  79 13 0  81 13 0  83 13 0  85 13 0  87 13 0  89 13 0  91 13 0  93 13 0  95 13 0  97 13 0  99 13 0  101 13 0  103 13 0  105 13 0  107 13 0  109 13 0  111 13 0  113 13 0  115 13 0  117 13 0  119 13 0  121 13 0  123 13 0  125 13 0  127 13 0  129 13 0  131 13 0  133 13 0  135 13 0  137 13 0  139 13 0  141 13 0  143 13 0  145 13 0  147 13 0  149 13 0  151 13 0  153 13 0  155 13 0  157 13 0  159 13 0  161 13 0  163 13 0  165 13 0  167 13 0  169 13 0  171 13 0  173 13 0  175 13 0  177 13 0  179 13 0  181 13 0  183 13 0  185 13 0  187 13 0  189 13 0  191 13 0  193 13 0  195 13 0  197 13 0  199 13 0  1 15 0  3 15 0  5 15 0  7 15 0  9 15 0  11 15 0  13 15 0  15 15 0  17 15 0  19 15 0  21 15 0  23 15 0  25 15 0  27 15 0  29 15 0  31 15 0  33 15 0  35 15 0  37 15 0  39 15 0  41 15 0  43 15 0  45 15 0  47 15 0  49 15 0  51 15 0  53 15 0  55 15 0  57 15 0  59 15 0  61 15 0  63 15 0  65 15 0  67 15 0  69 15 0  71 15 0  73 15 0  75 15 0  77 15 0  79 15 0  81 15 0  83 15 0  85 15 0  87 15 0  89 15 0  91 15 0  93 15 0  95 15 0  97 15 0  99 15 0  101 15 0  103 15 0  105 15 0  107 15 0  109 15 0  111 15 0  113 15 0  115 15 0  117 15 0  119 15 0  121 15 0  123 15 0  125 15 0  127 15 0  129 15 0  131 15 0  133 15 0  135 15 0  137 15 0  139 15 0  141 15 0  143 15 0  145 15 0  147 15 0  149 15 0  151 15 0  153 15 0  155 15 0  157 15 0  159 15 0  161 15 0  163 15 0  165 15 0  167 15 0  169 15 0  171 15 0  173 15 0  175 15 0  177 15 0  179 15 0  181 15 0  183 15 0  185 15 0  187 15 0  189 15 0  191 15 0  193 15 0  195 15 0  197 15 0  199 15 0  1 17 0  3 17 0  5 17 0  7 17 0  9 17 0  11 17 0  13 17 0  15 17 0  17 17 0  19 17 0  21 17 0  23 17 0  25 17 0  27 17 0  29 17 0  31 17 0  33 17 0  35 17 0  37 17 0  39 17 0  41 17 0  43 17 0  45 17 0  47 17 0  49 17 0  51 17 0  53 17 0  55 17 0  57 17 0  59 17 0  61 17 0  63 17 0  65 17 0  67 17 0  69 17 0  71 17 0  73 17 0  75 17 0  77 17 0  79 17 0  81 17 0  83 17 0  85 17 0  87 17 0  89 17 0  91 17 0  93 17 0  95 17 0  97 17 0  99 17 0  101 17 0  103 17 0  105 17 0  107 17 0  109 17 0  111 17 0  113 17 0  115 17 0  117 17 0  119 17 0  121 17 0  123 17 0  125 17 0  127 17 0  129 17 0  131 17 0  133 17 0  135 17 0  137 17 0  139 17 0  141 17 0  143 17 0  145 17 0  147 17 0  149 17 0  151 17 0  153 17 0  155 17 0  157 17 0  159 17 0  161 17 0  163 17 0  165 17 0  167 17 0  169 17 0  171 17 0  173 17 0  175 17 0  177 17 0  179 17 0  181 17 0  183 17 0  185 17 0  187 17 0  189 17 0  191 17 0  193 17 0  195 17 0  197 17 0  199 17 0  1 19 0  3 19 0  5 19 0  7 19 0  9 19 0  11 19 0  13 19 0  15 19 0  17 19 0  19 19 0  21 19 0  23 19 0  25 19 0  27 19 0  29 19 0  31 19 0  33 19 0  35 19 0  37 19 0  39 19 0  41 19 0  43 19 0  45 19 0  47 19 0  49 19 0  51 19 0  53 19 0  55 19 0  57 19 0  59 19 0  61 19 0  63 19 0  65 19 0  67 19 0  69 19 0  71 19 0  73 19 0  75 19 0  77 19 0  79 19 0  81 19 0  83 19 0  85 19 0  87 19 0  89 19 0  91 19 0  93 19 0  95 19 0  97 19 0  99 19 0  101 19 0  103 19 0  105 19 0  107 19 0  109 19 0  111 19 0  113 19 0  115 19 0  117 19 0  119 19 0  121 19 0  123 19 0  125 19 0  127 19 0  129 19 0  131 19 0  133 19 0  135 19 0  137 19 0  139 19 0  141 19 0  143 19 0  145 19 0  147 19 0  149 19 0  151 19 0  153 19 0  155 19 0  157 19 0  159 19 0  161 19 0  163 19 0  165 19 0  167 19 0  169 19 0  171 19 0  173 19 0  175 19 0  177 19 0  179 19 0  181 19 0  183 19 0  185 19 0  187 19 0  189 19 0  191 19 0  193 19 0  195 19 0  197 19 0  199 19 0  1 21 0  3 21 0  5 21 0  7 21 0  9 21 0  11 21 0  13 21 0  15 21 0  17 21 0  19 21 0  21 21 0  23 21 0  25 21 0  27 21 0  29 21 0  31 21 0  33 21 0  35 21 0  37 21 0  39 21 0  41 21 0  43 21 0  45 21 0  47 21 0  49 21 0  51 21 0  53 21 0  55 21 0  57 21 0  59 21 0  61 21 0  63 21 0  65 21 0  67 21 0  69 21 0  71 21 0  73 21 0  75 21 0  77 21 0  79 21 0  81 21 0  83 21 0  85 21 0  87 21 0  89 21 0  91 21 0  93 21 0  95 21 0  97 21 0  99 21 0  101 21 0  103 21 0  105 21 0  107 21 0  109 21 0  111 21 0  113 21 0  115 21 0  117 21 0  119 21 0  121 21 0  123 21 0  125 21 0  127 21 0  129 21 0  131 21 0  133 21 0  135 21 0  137 21 0  139 21 0  141 21 0  143 21 0  145 21 0  147 21 0  149 21 0  151 21 0  153 21 0  155 21 0  157 21 0  159 21 0  161 21 0  163 21 0  165 21 0  167 21 0  169 21 0  171 21 0  173 21 0  175 21 0  177 21 0  179 21 0  181 21 0  183 21 0  185 21 0  187 21 0  189 21 0  191 21 0  193 21 0  195 21 0  197 21 0  199 21 0  1 23 0  3 23 0  5 23 0  7 23 0  9 23 0  11 23 0  13 23 0  15 23 0  17 23 0  19 23 0  21 23 0  23 23 0  25 23 0  27 23 0  29 23 0  31 23 0  33 23 0  35 23 0  37 23 0  39 23 0  41 23 0  43 23 0  45 23 0  47 23 0  49 23 0  51 23 0  53 23 0  55 23 0  57 23 0  59 23 0  61 23 0  63 23 0  65 23 0  67 23 0  69 23 0  71 23 0  73 23 0  75 23 0  77 23 0  79 23 0  81 23 0  83 23 0  85 23 0  87 23 0  89 23 0  91 23 0  93 23 0  95 23 0  97 23 0  99 23 0  101 23 0  103 23 0  105 23 0  107 23 0  109 23 0  111 23 0  113 23 0  115 23 0  117 23 0  119 23 0  121 23 0  123 23 0  125 23 0  127 23 0  129 23 0  131 23 0  133 23 0  135 23 0  137 23 0  139 23 0  141 23 0  143 23 0  145 23 0  147 23 0  149 23 0  151 23 0  153 23 0  155 23 0  157 23 0  159 23 0  161 23 0  163 23 0  165 23 0  167 23 0  169 23 0  171 23 0  173 23 0  175 23 0  177 23 0  179 23 0  181 23 0  183 23 0  185 23 0  187 23 0  189 23 0  191 23 0  193 23 0  195 23 0  197 23 0  199 23 0  1 25 0  3 25 0  5 25 0  7 25 0  9 25 0  11 25 0  13 25 0  15 25 0  17 25 0  19 25 0  21 25 0  23 25 0  25 25 0  27 25 0  29 25 0  31 25 0  33 25 0  35 25 0  37 25 0  39 25 0  41 25 0  43 25 0  45 25 0  47 25 0  49 25 0  51 25 0  53 25 0  55 25 0  57 25 0  59 25 0  61 25 0  63 25 0  65 25 0  67 25 0  69 25 0  71 25 0  73 25 0  75 25 0  77 25 0  79 25 0  81 25 0  83 25 0  85 25 0  87 25 0  89 25 0  91 25 0  93 25 0  95 25 0  97 25 0  99 25 0  101 25 0  103 25 0  105 25 0  107 25 0  109 25 0  111 25 0  113 25 0  115 25 0  117 25 0  119 25 0  121 25 0  123 25 0  125 25 0  127 25 0  129 25 0  131 25 0  133 25 0  135 25 0  137 25 0  139 25 0  141 25 0  143 25 0  145 25 0  147 25 0  149 25 0  151 25 0  153 25 0  155 25 0  157 25 0  159 25 0  161 25 0  163 25 0  165 25 0  167 25 0  169 25 0  171 25 0  173 25 0  175 25 0  177 25 0  179 25 0  181 25 0  183 25 0  185 25 0  187 25 0  189 25 0  191 25 0  193 25 0  195 25 0  197 25 0  199 25 0  1 27 0  3 27 0  5 27 0  7 27 0  9 27 0  11 27 0  13 27 0  15 27 0  17 27 0  19 27 0  21 27 0  23 27 0  25 27 0  27 27 0  29 27 0  31 27 0  33 27 0  35 27 0  37 27 0  39 27 0  41 27 0  43 27 0  45 27 0  47 27 0  49 27 0  51 27 0  53 27 0  55 27 0  57 27 0  59 27 0  61 27 0  63 27 0  65 27 0  67 27 0  69 27 0  71 27 0  73 27 0  75 27 0  77 27 0  79 27 0  81 27 0  83 27 0  85 27 0  87 27 0  89 27 0  91 27 0  93 27 0  95 27 0  97 27 0  99 27 0  101 27 0  103 27 0  105 27 0  107 27 0  109 27 0  111 27 0  113 27 0  115 27 0  117 27 0  119 27 0  121 27 0  123 27 0  125 27 0  127 27 0  129 27 0  131 27 0  133 27 0  135 27 0  137 27 0  139 27 0  141 27 0  143 27 0  145 27 0  147 27 0  149 27 0  151 27 0  153 27 0  155 27 0  157 27 0  159 27 0  161 27 0  163 27 0  165 27 0  167 27 0  169 27 0  171 27 0  173 27 0  175 27 0  177 27 0  179 27 0  181 27 0  183 27 0  185 27 0  187 27 0  189 27 0  191 27 0  193 27 0  195 27 0  197 27 0  199 27 0  1 29 0  3 29 0  5 29 0  7 29 0  9 29 0  11 29 0  13 29 0  15 29 0  17 29 0  19 29 0  21 29 0  23 29 0  25 29 0  27 29 0  29 29 0  31 29 0  33 29 0  35 29 0  37 29 0  39 29 0  41 29 0  43 29 0  45 29 0  47 29 0  49 29 0  51 29 0  53 29 0  55 29 0  57 29 0  59 29 0  61 29 0  63 29 0  65 29 0  67 29 0  69 29 0  71 29 0  73 29 0  75 29 0  77 29 0  79 29 0  81 29 0  83 29 0  85 29 0  87 29 0  89 29 0  91 29 0  93 29 0  95 29 0  97 29 0  99 29 0  101 29 0  103 29 0  105 29 0  107 29 0  109 29 0  111 29 0  113 29 0  115 29 0  117 29 0  119 29 0  121 29 0  123 29 0  125 29 0  127 29 0  129 29 0  131 29 0  133 29 0  135 29 0  137 29 0  139 29 0  141 29 0  143 29 0  145 29 0  147 29 0  149 29 0  151 29 0  153 29 0  155 29 0  157 29 0  159 29 0  161 29 0  163 29 0  165 29 0  167 29 0  169 29 0  171 29 0  173 29 0  175 29 0  177 29 0  179 29 0  181 29 0  183 29 0  185 29 0  187 29 0  189 29 0  191 29 0  193 29 0  195 29 0  197 29 0  199 29 0  1 31 0  3 31 0  5 31 0  7 31 0  9 31 0  11 31 0  13 31 0  15 31 0  17 31 0  19 31 0  21 31 0  23 31 0  25 31 0  27 31 0  29 31 0  31 31 0  33 31 0  35 31 0  37 31 0  39 31 0  41 31 0  43 31 0  45 31 0  47 31 0  49 31 0  51 31 0  53 31 0  55 31 0  57 31 0  59 31 0  61 31 0  63 31 0  65 31 0  67 31 0  69 31 0  71 31 0  73 31 0  75 31 0  77 31 0  79 31 0  81 31 0  83 31 0  85 31 0  87 31 0  89 31 0  91 31 0  93 31 0  95 31 0  97 31 0  99 31 0  101 31 0  103 31 0  105 31 0  107 31 0  109 31 0  111 31 0  113 31 0  115 31 0  117 31 0  119 31 0  121 31 0  123 31 0  125 31 0  127 31 0  129 31 0  131 31 0  133 31 0  135 31 0  137 31 0  139 31 0  141 31 0  143 31 0  145 31 0  147 31 0  149 31 0  151 31 0  153 31 0  155 31 0  157 31 0  159 31 0  161 31 0  163 31 0  165 31 0  167 31 0  169 31 0  171 31 0  173 31 0  175 31 0  177 31 0  179 31 0  181 31 0  183 31 0  185 31 0  187 31 0  189 31 0  191 31 0  193 31 0  195 31 0  197 31 0  199 31 0  1 33 0  3 33 0  5 33 0  7 33 0  9 33 0  11 33 0  13 33 0  15 33 0  17 33 0  19 33 0  21 33 0  23 33 0  25 33 0  27 33 0  29 33 0  31 33 0  33 33 0  35 33 0  37 33 0  39 33 0  41 33 0  43 33 0  45 33 0  47 33 0  49 33 0  51 33 0  53 33 0  55 33 0  57 33 0  59 33 0  61 33 0  63 33 0  65 33 0  67 33 0  69 33 0  71 33 0  73 33 0  75 33 0  77 33 0  79 33 0  81 33 0  83 33 0  85 33 0  87 33 0  89 33 0  91 33 0  93 33 0  95 33 0  97 33 0  99 33 0  101 33 0  103 33 0  105 33 0  107 33 0  109 33 0  111 33 0  113 33 0  115 33 0  117 33 0  119 33 0  121 33 0  123 33 0  125 33 0  127 33 0  129 33 0  131 33 0  133 33 0  135 33 0  137 33 0  139 33 0  141 33 0  143 33 0  145 33 0  147 33 0  149 33 0  151 33 0  153 33 0  155 33 0  157 33 0  159 33 0  161 33 0  163 33 0  165 33 0  167 33 0  169 33 0  171 33 0  173 33 0  175 33 0  177 33 0  179 33 0  181 33 0  183 33 0  185 33 0  187 33 0  189 33 0  191 33 0  193 33 0  195 33 0  197 33 0  199 33 0  1 35 0  3 35 0  5 35 0  7 35 0  9 35 0  11 35 0  13 35 0  15 35 0  17 35 0  19 35 0  21 35 0  23 35 0  25 35 0  27 35 0  29 35 0  31 35 0  33 35 0  35 35 0  37 35 0  39 35 0  41 35 0  43 35 0  45 35 0  47 35 0  49 35 0  51 35 0  53 35 0  55 35 0  57 35 0  59 35 0  61 35 0  63 35 0  65 35 0  67 35 0  69 35 0  71 35 0  73 35 0  75 35 0  77 35 0  79 35 0  81 35 0  83 35 0  85 35 0  87 35 0  89 35 0  91 35 0  93 35 0  95 35 0  97 35 0  99 35 0  101 35 0  103 35 0  105 35 0  107 35 0  109 35 0  111 35 0  113 35 0  115 35 0  117 35 0  119 35 0  121 35 0  123 35 0  125 35 0  127 35 0  129 35 0  131 35 0  133 35 0  135 35 0  137 35 0  139 35 0  141 35 0  143 35 0  145 35 0  147 35 0  149 35 0  151 35 0  153 35 0  155 35 0  157 35 0  159 35 0  161 35 0  163 35 0  165 35 0  167 35 0  169 35 0  171 35 0  173 35 0  175 35 0  177 35 0  179 35 0  181 35 0  183 35 0  185 35 0  187 35 0  189 35 0  191 35 0  193 35 0  195 35 0  197 35 0  199 35 0  1 37 0  3 37 0  5 37 0  7 37 0  9 37 0  11 37 0  13 37 0  15 37 0  17 37 0  19 37 0  21 37 0  23 37 0  25 37 0  27 37 0  29 37 0  31 37 0  33 37 0  35 37 0  37 37 0  39 37 0  41 37 0  43 37 0  45 37 0  47 37 0  49 37 0  51 37 0  53 37 0  55 37 0  57 37 0  59 37 0  61 37 0  63 37 0  65 37 0  67 37 0  69 37 0  71 37 0  73 37 0  75 37 0  77 37 0  79 37 0  81 37 0  83 37 0  85 37 0  87 37 0  89 37 0  91 37 0  93 37 0  95 37 0  97 37 0  99 37 0  101 37 0  103 37 0  105 37 0  107 37 0  109 37 0  111 37 0  113 37 0  115 37 0  117 37 0  119 37 0  121 37 0  123 37 0  125 37 0  127 37 0  129 37 0  131 37 0  133 37 0  135 37 0  137 37 0  139 37 0  141 37 0  143 37 0  145 37 0  147 37 0  149 37 0  151 37 0  153 37 0  155 37 0  157 37 0  159 37 0  161 37 0  163 37 0  165 37 0  167 37 0  169 37 0  171 37 0  173 37 0  175 37 0  177 37 0  179 37 0  181 37 0  183 37 0  185 37 0  187 37 0  189 37 0  191 37 0  193 37 0  195 37 0  197 37 0  199 37 0  1 39 0  3 39 0  5 39 0  7 39 0  9 39 0  11 39 0  13 39 0  15 39 0  17 39 0  19 39 0  21 39 0  23 39 0  25 39 0  27 39 0  29 39 0  31 39 0  33 39 0  35 39 0  37 39 0  39 39 0  41 39 0  43 39 0  45 39 0  47 39 0  49 39 0  51 39 0  53 39 0  55 39 0  57 39 0  59 39 0  61 39 0  63 39 0  65 39 0  67 39 0  69 39 0  71 39 0  73 39 0  75 39 0  77 39 0  79 39 0  81 39 0  83 39 0  85 39 0  87 39 0  89 39 0  91 39 0  93 39 0  95 39 0  97 39 0  99 39 0  101 39 0  103 39 0  105 39 0  107 39 0  109 39 0  111 39 0  113 39 0  115 39 0  117 39 0  119 39 0  121 39 0  123 39 0  125 39 0  127 39 0  129 39 0  131 39 0  133 39 0  135 39 0  137 39 0  139 39 0  141 39 0  143 39 0  145 39 0  147 39 0  149 39 0  151 39 0  153 39 0  155 39 0  157 39 0  159 39 0  161 39 0  163 39 0  165 39 0  167 39 0  169 39 0  171 39 0  173 39 0  175 39 0  177 39 0  179 39 0  181 39 0  183 39 0  185 39 0  187 39 0  189 39 0  191 39 0  193 39 0  195 39 0  197 39 0  199 39 0  1 41 0  3 41 0  5 41 0  7 41 0  9 41 0  11 41 0  13 41 0  15 41 0  17 41 0  19 41 0  21 41 0  23 41 0  25 41 0  27 41 0  29 41 0  31 41 0  33 41 0  35 41 0  37 41 0  39 41 0  41 41 0  43 41 0  45 41 0  47 41 0  49 41 0  51 41 0  53 41 0  55 41 0  57 41 0  59 41 0  61 41 0  63 41 0  65 41 0  67 41 0  69 41 0  71 41 0  73 41 0  75 41 0  77 41 0  79 41 0  81 41 0  83 41 0  85 41 0  87 41 0  89 41 0  91 41 0  93 41 0  95 41 0  97 41 0  99 41 0  101 41 0  103 41 0  105 41 0  107 41 0  109 41 0  111 41 0  113 41 0  115 41 0  117 41 0  119 41 0  121 41 0  123 41 0  125 41 0  127 41 0  129 41 0  131 41 0  133 41 0  135 41 0  137 41 0  139 41 0  141 41 0  143 41 0  145 41 0  147 41 0  149 41 0  151 41 0  153 41 0  155 41 0  157 41 0  159 41 0  161 41 0  163 41 0  165 41 0  167 41 0  169 41 0  171 41 0  173 41 0  175 41 0  177 41 0  179 41 0  181 41 0  183 41 0  185 41 0  187 41 0  189 41 0  191 41 0  193 41 0  195 41 0  197 41 0  199 41 0  1 43 0  3 43 0  5 43 0  7 43 0  9 43 0  11 43 0  13 43 0  15 43 0  17 43 0  19 43 0  21 43 0  23 43 0  25 43 0  27 43 0  29 43 0  31 43 0  33 43 0  35 43 0  37 43 0  39 43 0  41 43 0  43 43 0  45 43 0  47 43 0  49 43 0  51 43 0  53 43 0  55 43 0  57 43 0  59 43 0  61 43 0  63 43 0  65 43 0  67 43 0  69 43 0  71 43 0  73 43 0  75 43 0  77 43 0  79 43 0  81 43 0  83 43 0  85 43 0  87 43 0  89 43 0  91 43 0  93 43 0  95 43 0  97 43 0  99 43 0  101 43 0  103 43 0  105 43 0  107 43 0  109 43 0  111 43 0  113 43 0  115 43 0  117 43 0  119 43 0  121 43 0  123 43 0  125 43 0  127 43 0  129 43 0  131 43 0  133 43 0  135 43 0  137 43 0  139 43 0  141 43 0  143 43 0  145 43 0  147 43 0  149 43 0  151 43 0  153 43 0  155 43 0  157 43 0  159 43 0  161 43 0  163 43 0  165 43 0  167 43 0  169 43 0  171 43 0  173 43 0  175 43 0  177 43 0  179 43 0  181 43 0  183 43 0  185 43 0  187 43 0  189 43 0  191 43 0  193 43 0  195 43 0  197 43 0  199 43 0  1 45 0  3 45 0  5 45 0  7 45 0  9 45 0  11 45 0  13 45 0  15 45 0  17 45 0  19 45 0  21 45 0  23 45 0  25 45 0  27 45 0  29 45 0  31 45 0  33 45 0  35 45 0  37 45 0  39 45 0  41 45 0  43 45 0  45 45 0  47 45 0  49 45 0  51 45 0  53 45 0  55 45 0  57 45 0  59 45 0  61 45 0  63 45 0  65 45 0  67 45 0  69 45 0  71 45 0  73 45 0  75 45 0  77 45 0  79 45 0  81 45 0  83 45 0  85 45 0  87 45 0  89 45 0  91 45 0  93 45 0  95 45 0  97 45 0  99 45 0  101 45 0  103 45 0  105 45 0  107 45 0  109 45 0  111 45 0  113 45 0  115 45 0  117 45 0  119 45 0  121 45 0  123 45 0  125 45 0  127 45 0  129 45 0  131 45 0  133 45 0  135 45 0  137 45 0  139 45 0  141 45 0  143 45 0  145 45 0  147 45 0  149 45 0  151 45 0  153 45 0  155 45 0  157 45 0  159 45 0  161 45 0  163 45 0  165 45 0  167 45 0  169 45 0  171 45 0  173 45 0  175 45 0  177 45 0  179 45 0  181 45 0  183 45 0  185 45 0  187 45 0  189 45 0  191 45 0  193 45 0  195 45 0  197 45 0  199 45 0  1 47 0  3 47 0  5 47 0  7 47 0  9 47 0  11 47 0  13 47 0  15 47 0  17 47 0  19 47 0  21 47 0  23 47 0  25 47 0  27 47 0  29 47 0  31 47 0  33 47 0  35 47 0  37 47 0  39 47 0  41 47 0  43 47 0  45 47 0  47 47 0  49 47 0  51 47 0  53 47 0  55 47 0  57 47 0  59 47 0  61 47 0  63 47 0  65 47 0  67 47 0  69 47 0  71 47 0  73 47 0  75 47 0  77 47 0  79 47 0  81 47 0  83 47 0  85 47 0  87 47 0  89 47 0  91 47 0  93 47 0  95 47 0  97 47 0  99 47 0  101 47 0  103 47 0  105 47 0  107 47 0  109 47 0  111 47 0  113 47 0  115 47 0  117 47 0  119 47 0  121 47 0  123 47 0  125 47 0  127 47 0  129 47 0  131 47 0  133 47 0  135 47 0  137 47 0  139 47 0  141 47 0  143 47 0  145 47 0  147 47 0  149 47 0  151 47 0  153 47 0  155 47 0  157 47 0  159 47 0  161 47 0  163 47 0  165 47 0  167 47 0  169 47 0  171 47 0  173 47 0  175 47 0  177 47 0  179 47 0  181 47 0  183 47 0  185 47 0  187 47 0  189 47 0  191 47 0  193 47 0  195 47 0  197 47 0  199 47 0  1 49 0  3 49 0  5 49 0  7 49 0  9 49 0  11 49 0  13 49 0  15 49 0  17 49 0  19 49 0  21 49 0  23 49 0  25 49 0  27 49 0  29 49 0  31 49 0  33 49 0  35 49 0  37 49 0  39 49 0  41 49 0  43 49 0  45 49 0  47 49 0  49 49 0  51 49 0  53 49 0  55 49 0  57 49 0  59 49 0  61 49 0  63 49 0  65 49 0  67 49 0  69 49 0  71 49 0  73 49 0  75 49 0  77 49 0  79 49 0  81 49 0  83 49 0  85 49 0  87 49 0  89 49 0  91 49 0  93 49 0  95 49 0  97 49 0  99 49 0  101 49 0  103 49 0  105 49 0  107 49 0  109 49 0  111 49 0  113 49 0  115 49 0  117 49 0  119 49 0  121 49 0  123 49 0  125 49 0  127 49 0  129 49 0  131 49 0  133 49 0  135 49 0  137 49 0  139 49 0  141 49 0  143 49 0  145 49 0  147 49 0  149 49 0  151 49 0  153 49 0  155 49 0  157 49 0  159 49 0  161 49 0  163 49 0  165 49 0  167 49 0  169 49 0  171 49 0  173 49 0  175 49 0  177 49 0  179 49 0  181 49 0  183 49 0  185 49 0  187 49 0  189 49 0  191 49 0  193 49 0  195 49 0  197 49 0  199 49 0  1 51 0  3 51 0  5 51 0  7 51 0  9 51 0  11 51 0  13 51 0  15 51 0  17 51 0  19 51 0  21 51 0  23 51 0  25 51 0  27 51 0  29 51 0  31 51 0  33 51 0  35 51 0  37 51 0  39 51 0  41 51 0  43 51 0  45 51 0  47 51 0  49 51 0  51 51 0  53 51 0  55 51 0  57 51 0  59 51 0  61 51 0  63 51 0  65 51 0  67 51 0  69 51 0  71 51 0  73 51 0  75 51 0  77 51 0  79 51 0  81 51 0  83 51 0  85 51 0  87 51 0  89 51 0  91 51 0  93 51 0  95 51 0  97 51 0  99 51 0  101 51 0  103 51 0  105 51 0  107 51 0  109 51 0  111 51 0  113 51 0  115 51 0  117 51 0  119 51 0  121 51 0  123 51 0  125 51 0  127 51 0  129 51 0  131 51 0  133 51 0  135 51 0  137 51 0  139 51 0  141 51 0  143 51 0  145 51 0  147 51 0  149 51 0  151 51 0  153 51 0  155 51 0  157 51 0  159 51 0  161 51 0  163 51 0  165 51 0  167 51 0  169 51 0  171 51 0  173 51 0  175 51 0  177 51 0  179 51 0  181 51 0  183 51 0  185 51 0  187 51 0  189 51 0  191 51 0  193 51 0  195 51 0  197 51 0  199 51 0  1 53 0  3 53 0  5 53 0  7 53 0  9 53 0  11 53 0  13 53 0  15 53 0  17 53 0  19 53 0  21 53 0  23 53 0  25 53 0  27 53 0  29 53 0  31 53 0  33 53 0  35 53 0  37 53 0  39 53 0  41 53 0  43 53 0  45 53 0  47 53 0  49 53 0  51 53 0  53 53 0  55 53 0  57 53 0  59 53 0  61 53 0  63 53 0  65 53 0  67 53 0  69 53 0  71 53 0  73 53 0  75 53 0  77 53 0  79 53 0  81 53 0  83 53 0  85 53 0  87 53 0  89 53 0  91 53 0  93 53 0  95 53 0  97 53 0  99 53 0  101 53 0  103 53 0  105 53 0  107 53 0  109 53 0  111 53 0  113 53 0  115 53 0  117 53 0  119 53 0  121 53 0  123 53 0  125 53 0  127 53 0  129 53 0  131 53 0  133 53 0  135 53 0  137 53 0  139 53 0  141 53 0  143 53 0  145 53 0  147 53 0  149 53 0  151 53 0  153 53 0  155 53 0  157 53 0  159 53 0  161 53 0  163 53 0  165 53 0  167 53 0  169 53 0  171 53 0  173 53 0  175 53 0  177 53 0  179 53 0  181 53 0  183 53 0  185 53 0  187 53 0  189 53 0  191 53 0  193 53 0  195 53 0  197 53 0  199 53 0  1 55 0  3 55 0  5 55 0  7 55 0  9 55 0  11 55 0  13 55 0  15 55 0  17 55 0  19 55 0  21 55 0  23 55 0  25 55 0  27 55 0  29 55 0  31 55 0  33 55 0  35 55 0  37 55 0  39 55 0  41 55 0  43 55 0  45 55 0  47 55 0  49 55 0  51 55 0  53 55 0  55 55 0  57 55 0  59 55 0  61 55 0  63 55 0  65 55 0  67 55 0  69 55 0  71 55 0  73 55 0  75 55 0  77 55 0  79 55 0  81 55 0  83 55 0  85 55 0  87 55 0  89 55 0  91 55 0  93 55 0  95 55 0  97 55 0  99 55 0  101 55 0  103 55 0  105 55 0  107 55 0  109 55 0  111 55 0  113 55 0  115 55 0  117 55 0  119 55 0  121 55 0  123 55 0  125 55 0  127 55 0  129 55 0  131 55 0  133 55 0  135 55 0  137 55 0  139 55 0  141 55 0  143 55 0  145 55 0  147 55 0  149 55 0  151 55 0  153 55 0  155 55 0  157 55 0  159 55 0  161 55 0  163 55 0  165 55 0  167 55 0  169 55 0  171 55 0  173 55 0  175 55 0  177 55 0  179 55 0  181 55 0  183 55 0  185 55 0  187 55 0  189 55 0  191 55 0  193 55 0  195 55 0  197 55 0  199 55 0  1 57 0  3 57 0  5 57 0  7 57 0  9 57 0  11 57 0  13 57 0  15 57 0  17 57 0  19 57 0  21 57 0  23 57 0  25 57 0  27 57 0  29 57 0  31 57 0  33 57 0  35 57 0  37 57 0  39 57 0  41 57 0  43 57 0  45 57 0  47 57 0  49 57 0  51 57 0  53 57 0  55 57 0  57 57 0  59 57 0  61 57 0  63 57 0  65 57 0  67 57 0  69 57 0  71 57 0  73 57 0  75 57 0  77 57 0  79 57 0  81 57 0  83 57 0  85 57 0  87 57 0  89 57 0  91 57 0  93 57 0  95 57 0  97 57 0  99 57 0  101 57 0  103 57 0  105 57 0  107 57 0  109 57 0  111 57 0  113 57 0  115 57 0  117 57 0  119 57 0  121 57 0  123 57 0  125 57 0  127 57 0  129 57 0  131 57 0  133 57 0  135 57 0  137 57 0  139 57 0  141 57 0  143 57 0  145 57 0  147 57 0  149 57 0  151 57 0  153 57 0  155 57 0  157 57 0  159 57 0  161 57 0  163 57 0  165 57 0  167 57 0  169 57 0  171 57 0  173 57 0  175 57 0  177 57 0  179 57 0  181 57 0  183 57 0  185 57 0  187 57 0  189 57 0  191 57 0  193 57 0  195 57 0  197 57 0  199 57 0  1 59 0  3 59 0  5 59 0  7 59 0  9 59 0  11 59 0  13 59 0  15 59 0  17 59 0  19 59 0  21 59 0  23 59 0  25 59 0  27 59 0  29 59 0  31 59 0  33 59 0  35 59 0  37 59 0  39 59 0  41 59 0  43 59 0  45 59 0  47 59 0  49 59 0  51 59 0  53 59 0  55 59 0  57 59 0  59 59 0  61 59 0  63 59 0  65 59 0  67 59 0  69 59 0  71 59 0  73 59 0  75 59 0  77 59 0  79 59 0  81 59 0  83 59 0  85 59 0  87 59 0  89 59 0  91 59 0  93 59 0  95 59 0  97 59 0  99 59 0  101 59 0  103 59 0  105 59 0  107 59 0  109 59 0  111 59 0  113 59 0  115 59 0  117 59 0  119 59 0  121 59 0  123 59 0  125 59 0  127 59 0  129 59 0  131 59 0  133 59 0  135 59 0  137 59 0  139 59 0  141 59 0  143 59 0  145 59 0  147 59 0  149 59 0  151 59 0  153 59 0  155 59 0  157 59 0  159 59 0  161 59 0  163 59 0  165 59 0  167 59 0  169 59 0  171 59 0  173 59 0  175 59 0  177 59 0  179 59 0  181 59 0  183 59 0  185 59 0  187 59 0  189 59 0  191 59 0  193 59 0  195 59 0  197 59 0  199 59 0  1 61 0  3 61 0  5 61 0  7 61 0  9 61 0  11 61 0  13 61 0  15 61 0  17 61 0  19 61 0  21 61 0  23 61 0  25 61 0  27 61 0  29 61 0  31 61 0  33 61 0  35 61 0  37 61 0  39 61 0  41 61 0  43 61 0  45 61 0  47 61 0  49 61 0  51 61 0  53 61 0  55 61 0  57 61 0  59 61 0  61 61 0  63 61 0  65 61 0  67 61 0  69 61 0  71 61 0  73 61 0  75 61 0  77 61 0  79 61 0  81 61 0  83 61 0  85 61 0  87 61 0  89 61 0  91 61 0  93 61 0  95 61 0  97 61 0  99 61 0  101 61 0  103 61 0  105 61 0  107 61 0  109 61 0  111 61 0  113 61 0  115 61 0  117 61 0  119 61 0  121 61 0  123 61 0  125 61 0  127 61 0  129 61 0  131 61 0  133 61 0  135 61 0  137 61 0  139 61 0  141 61 0  143 61 0  145 61 0  147 61 0  149 61 0  151 61 0  153 61 0  155 61 0  157 61 0  159 61 0  161 61 0  163 61 0  165 61 0  167 61 0  169 61 0  171 61 0  173 61 0  175 61 0  177 61 0  179 61 0  181 61 0  183 61 0  185 61 0  187 61 0  189 61 0  191 61 0  193 61 0  195 61 0  197 61 0  199 61 0  1 63 0  3 63 0  5 63 0  7 63 0  9 63 0  11 63 0  13 63 0  15 63 0  17 63 0  19 63 0  21 63 0  23 63 0  25 63 0  27 63 0  29 63 0  31 63 0  33 63 0  35 63 0  37 63 0  39 63 0  41 63 0  43 63 0  45 63 0  47 63 0  49 63 0  51 63 0  53 63 0  55 63 0  57 63 0  59 63 0  61 63 0  63 63 0  65 63 0  67 63 0  69 63 0  71 63 0  73 63 0  75 63 0  77 63 0  79 63 0  81 63 0  83 63 0  85 63 0  87 63 0  89 63 0  91 63 0  93 63 0  95 63 0  97 63 0  99 63 0  101 63 0  103 63 0  105 63 0  107 63 0  109 63 0  111 63 0  113 63 0  115 63 0  117 63 0  119 63 0  121 63 0  123 63 0  125 63 0  127 63 0  129 63 0  131 63 0  133 63 0  135 63 0  137 63 0  139 63 0  141 63 0  143 63 0  145 63 0  147 63 0  149 63 0  151 63 0  153 63 0  155 63 0  157 63 0  159 63 0  161 63 0  163 63 0  165 63 0  167 63 0  169 63 0  171 63 0  173 63 0  175 63 0  177 63 0  179 63 0  181 63 0  183 63 0  185 63 0  187 63 0  189 63 0  191 63 0  193 63 0  195 63 0  197 63 0  199 63 0  1 65 0  3 65 0  5 65 0  7 65 0  9 65 0  11 65 0  13 65 0  15 65 0  17 65 0  19 65 0  21 65 0  23 65 0  25 65 0  27 65 0  29 65 0  31 65 0  33 65 0  35 65 0  37 65 0  39 65 0  41 65 0  43 65 0  45 65 0  47 65 0  49 65 0  51 65 0  53 65 0  55 65 0  57 65 0  59 65 0  61 65 0  63 65 0  65 65 0  67 65 0  69 65 0  71 65 0  73 65 0  75 65 0  77 65 0  79 65 0  81 65 0  83 65 0  85 65 0  87 65 0  89 65 0  91 65 0  93 65 0  95 65 0  97 65 0  99 65 0  101 65 0  103 65 0  105 65 0  107 65 0  109 65 0  111 65 0  113 65 0  115 65 0  117 65 0  119 65 0  121 65 0  123 65 0  125 65 0  127 65 0  129 65 0  131 65 0  133 65 0  135 65 0  137 65 0  139 65 0  141 65 0  143 65 0  145 65 0  147 65 0  149 65 0  151 65 0  153 65 0  155 65 0  157 65 0  159 65 0  161 65 0  163 65 0  165 65 0  167 65 0  169 65 0  171 65 0  173 65 0  175 65 0  177 65 0  179 65 0  181 65 0  183 65 0  185 65 0  187 65 0  189 65 0  191 65 0  193 65 0  195 65 0  197 65 0  199 65 0  1 67 0  3 67 0  5 67 0  7 67 0  9 67 0  11 67 0  13 67 0  15 67 0  17 67 0  19 67 0  21 67 0  23 67 0  25 67 0  27 67 0  29 67 0  31 67 0  33 67 0  35 67 0  37 67 0  39 67 0  41 67 0  43 67 0  45 67 0  47 67 0  49 67 0  51 67 0  53 67 0  55 67 0  57 67 0  59 67 0  61 67 0  63 67 0  65 67 0  67 67 0  69 67 0  71 67 0  73 67 0  75 67 0  77 67 0  79 67 0  81 67 0  83 67 0  85 67 0  87 67 0  89 67 0  91 67 0  93 67 0  95 67 0  97 67 0  99 67 0  101 67 0  103 67 0  105 67 0  107 67 0  109 67 0  111 67 0  113 67 0  115 67 0  117 67 0  119 67 0  121 67 0  123 67 0  125 67 0  127 67 0  129 67 0  131 67 0  133 67 0  135 67 0  137 67 0  139 67 0  141 67 0  143 67 0  145 67 0  147 67 0  149 67 0  151 67 0  153 67 0  155 67 0  157 67 0  159 67 0  161 67 0  163 67 0  165 67 0  167 67 0  169 67 0  171 67 0  173 67 0  175 67 0  177 67 0  179 67 0  181 67 0  183 67 0  185 67 0  187 67 0  189 67 0  191 67 0  193 67 0  195 67 0  197 67 0  199 67 0  1 69 0  3 69 0  5 69 0  7 69 0  9 69 0  11 69 0  13 69 0  15 69 0  17 69 0  19 69 0  21 69 0  23 69 0  25 69 0  27 69 0  29 69 0  31 69 0  33 69 0  35 69 0  37 69 0  39 69 0  41 69 0  43 69 0  45 69 0  47 69 0  49 69 0  51 69 0  53 69 0  55 69 0  57 69 0  59 69 0  61 69 0  63 69 0  65 69 0  67 69 0  69 69 0  71 69 0  73 69 0  75 69 0  77 69 0  79 69 0  81 69 0  83 69 0  85 69 0  87 69 0  89 69 0  91 69 0  93 69 0  95 69 0  97 69 0  99 69 0  101 69 0  103 69 0  105 69 0  107 69 0  109 69 0  111 69 0  113 69 0  115 69 0  117 69 0  119 69 0  121 69 0  123 69 0  125 69 0  127 69 0  129 69 0  131 69 0  133 69 0  135 69 0  137 69 0  139 69 0  141 69 0  143 69 0  145 69 0  147 69 0  149 69 0  151 69 0  153 69 0  155 69 0  157 69 0  159 69 0  161 69 0  163 69 0  165 69 0  167 69 0  169 69 0  171 69 0  173 69 0  175 69 0  177 69 0  179 69 0  181 69 0  183 69 0  185 69 0  187 69 0  189 69 0  191 69 0  193 69 0  195 69 0  197 69 0  199 69 0  1 71 0  3 71 0  5 71 0  7 71 0  9 71 0  11 71 0  13 71 0  15 71 0  17 71 0  19 71 0  21 71 0  23 71 0  25 71 0  27 71 0  29 71 0  31 71 0  33 71 0  35 71 0  37 71 0  39 71 0  41 71 0  43 71 0  45 71 0  47 71 0  49 71 0  51 71 0  53 71 0  55 71 0  57 71 0  59 71 0  61 71 0  63 71 0  65 71 0  67 71 0  69 71 0  71 71 0  73 71 0  75 71 0  77 71 0  79 71 0  81 71 0  83 71 0  85 71 0  87 71 0  89 71 0  91 71 0  93 71 0  95 71 0  97 71 0  99 71 0  101 71 0  103 71 0  105 71 0  107 71 0  109 71 0  111 71 0  113 71 0  115 71 0  117 71 0  119 71 0  121 71 0  123 71 0  125 71 0  127 71 0  129 71 0  131 71 0  133 71 0  135 71 0  137 71 0  139 71 0  141 71 0  143 71 0  145 71 0  147 71 0  149 71 0  151 71 0  153 71 0  155 71 0  157 71 0  159 71 0  161 71 0  163 71 0  165 71 0  167 71 0  169 71 0  171 71 0  173 71 0  175 71 0  177 71 0  179 71 0  181 71 0  183 71 0  185 71 0  187 71 0  189 71 0  191 71 0  193 71 0  195 71 0  197 71 0  199 71 0  1 73 0  3 73 0  5 73 0  7 73 0  9 73 0  11 73 0  13 73 0  15 73 0  17 73 0  19 73 0  21 73 0  23 73 0  25 73 0  27 73 0  29 73 0  31 73 0  33 73 0  35 73 0  37 73 0  39 73 0  41 73 0  43 73 0  45 73 0  47 73 0  49 73 0  51 73 0  53 73 0  55 73 0  57 73 0  59 73 0  61 73 0  63 73 0  65 73 0  67 73 0  69 73 0  71 73 0  73 73 0  75 73 0  77 73 0  79 73 0  81 73 0  83 73 0  85 73 0  87 73 0  89 73 0  91 73 0  93 73 0  95 73 0  97 73 0  99 73 0  101 73 0  103 73 0  105 73 0  107 73 0  109 73 0  111 73 0  113 73 0  115 73 0  117 73 0  119 73 0  121 73 0  123 73 0  125 73 0  127 73 0  129 73 0  131 73 0  133 73 0  135 73 0  137 73 0  139 73 0  141 73 0  143 73 0  145 73 0  147 73 0  149 73 0  151 73 0  153 73 0  155 73 0  157 73 0  159 73 0  161 73 0  163 73 0  165 73 0  167 73 0  169 73 0  171 73 0  173 73 0  175 73 0  177 73 0  179 73 0  181 73 0  183 73 0  185 73 0  187 73 0  189 73 0  191 73 0  193 73 0  195 73 0  197 73 0  199 73 0  1 75 0  3 75 0  5 75 0  7 75 0  9 75 0  11 75 0  13 75 0  15 75 0  17 75 0  19 75 0  21 75 0  23 75 0  25 75 0  27 75 0  29 75 0  31 75 0  33 75 0  35 75 0  37 75 0  39 75 0  41 75 0  43 75 0  45 75 0  47 75 0  49 75 0  51 75 0  53 75 0  55 75 0  57 75 0  59 75 0  61 75 0  63 75 0  65 75 0  67 75 0  69 75 0  71 75 0  73 75 0  75 75 0  77 75 0  79 75 0  81 75 0  83 75 0  85 75 0  87 75 0  89 75 0  91 75 0  93 75 0  95 75 0  97 75 0  99 75 0  101 75 0  103 75 0  105 75 0  107 75 0  109 75 0  111 75 0  113 75 0  115 75 0  117 75 0  119 75 0  121 75 0  123 75 0  125 75 0  127 75 0  129 75 0  131 75 0  133 75 0  135 75 0  137 75 0  139 75 0  141 75 0  143 75 0  145 75 0  147 75 0  149 75 0  151 75 0  153 75 0  155 75 0  157 75 0  159 75 0  161 75 0  163 75 0  165 75 0  167 75 0  169 75 0  171 75 0  173 75 0  175 75 0  177 75 0  179 75 0  181 75 0  183 75 0  185 75 0  187 75 0  189 75 0  191 75 0  193 75 0  195 75 0  197 75 0  199 75 0  1 77 0  3 77 0  5 77 0  7 77 0  9 77 0  11 77 0  13 77 0  15 77 0  17 77 0  19 77 0  21 77 0  23 77 0  25 77 0  27 77 0  29 77 0  31 77 0  33 77 0  35 77 0  37 77 0  39 77 0  41 77 0  43 77 0  45 77 0  47 77 0  49 77 0  51 77 0  53 77 0  55 77 0  57 77 0  59 77 0  61 77 0  63 77 0  65 77 0  67 77 0  69 77 0  71 77 0  73 77 0  75 77 0  77 77 0  79 77 0  81 77 0  83 77 0  85 77 0  87 77 0  89 77 0  91 77 0  93 77 0  95 77 0  97 77 0  99 77 0  101 77 0  103 77 0  105 77 0  107 77 0  109 77 0  111 77 0  113 77 0  115 77 0  117 77 0  119 77 0  121 77 0  123 77 0  125 77 0  127 77 0  129 77 0  131 77 0  133 77 0  135 77 0  137 77 0  139 77 0  141 77 0  143 77 0  145 77 0  147 77 0  149 77 0  151 77 0  153 77 0  155 77 0  157 77 0  159 77 0  161 77 0  163 77 0  165 77 0  167 77 0  169 77 0  171 77 0  173 77 0  175 77 0  177 77 0  179 77 0  181 77 0  183 77 0  185 77 0  187 77 0  189 77 0  191 77 0  193 77 0  195 77 0  197 77 0  199 77 0  1 79 0  3 79 0  5 79 0  7 79 0  9 79 0  11 79 0  13 79 0  15 79 0  17 79 0  19 79 0  21 79 0  23 79 0  25 79 0  27 79 0  29 79 0  31 79 0  33 79 0  35 79 0  37 79 0  39 79 0  41 79 0  43 79 0  45 79 0  47 79 0  49 79 0  51 79 0  53 79 0  55 79 0  57 79 0  59 79 0  61 79 0  63 79 0  65 79 0  67 79 0  69 79 0  71 79 0  73 79 0  75 79 0  77 79 0  79 79 0  81 79 0  83 79 0  85 79 0  87 79 0  89 79 0  91 79 0  93 79 0  95 79 0  97 79 0  99 79 0  101 79 0  103 79 0  105 79 0  107 79 0  109 79 0  111 79 0  113 79 0  115 79 0  117 79 0  119 79 0  121 79 0  123 79 0  125 79 0  127 79 0  129 79 0  131 79 0  133 79 0  135 79 0  137 79 0  139 79 0  141 79 0  143 79 0  145 79 0  147 79 0  149 79 0  151 79 0  153 79 0  155 79 0  157 79 0  159 79 0  161 79 0  163 79 0  165 79 0  167 79 0  169 79 0  171 79 0  173 79 0  175 79 0  177 79 0  179 79 0  181 79 0  183 79 0  185 79 0  187 79 0  189 79 0  191 79 0  193 79 0  195 79 0  197 79 0  199 79 0  1 81 0  3 81 0  5 81 0  7 81 0  9 81 0  11 81 0  13 81 0  15 81 0  17 81 0  19 81 0  21 81 0  23 81 0  25 81 0  27 81 0  29 81 0  31 81 0  33 81 0  35 81 0  37 81 0  39 81 0  41 81 0  43 81 0  45 81 0  47 81 0  49 81 0  51 81 0  53 81 0  55 81 0  57 81 0  59 81 0  61 81 0  63 81 0  65 81 0  67 81 0  69 81 0  71 81 0  73 81 0  75 81 0  77 81 0  79 81 0  81 81 0  83 81 0  85 81 0  87 81 0  89 81 0  91 81 0  93 81 0  95 81 0  97 81 0  99 81 0  101 81 0  103 81 0  105 81 0  107 81 0  109 81 0  111 81 0  113 81 0  115 81 0  117 81 0  119 81 0  121 81 0  123 81 0  125 81 0  127 81 0  129 81 0  131 81 0  133 81 0  135 81 0  137 81 0  139 81 0  141 81 0  143 81 0  145 81 0  147 81 0  149 81 0  151 81 0  153 81 0  155 81 0  157 81 0  159 81 0  161 81 0  163 81 0  165 81 0  167 81 0  169 81 0  171 81 0  173 81 0  175 81 0  177 81 0  179 81 0  181 81 0  183 81 0  185 81 0  187 81 0  189 81 0  191 81 0  193 81 0  195 81 0  197 81 0  199 81 0  1 83 0  3 83 0  5 83 0  7 83 0  9 83 0  11 83 0  13 83 0  15 83 0  17 83 0  19 83 0  21 83 0  23 83 0  25 83 0  27 83 0  29 83 0  31 83 0  33 83 0  35 83 0  37 83 0  39 83 0  41 83 0  43 83 0  45 83 0  47 83 0  49 83 0  51 83 0  53 83 0  55 83 0  57 83 0  59 83 0  61 83 0  63 83 0  65 83 0  67 83 0  69 83 0  71 83 0  73 83 0  75 83 0  77 83 0  79 83 0  81 83 0  83 83 0  85 83 0  87 83 0  89 83 0  91 83 0  93 83 0  95 83 0  97 83 0  99 83 0  101 83 0  103 83 0  105 83 0  107 83 0  109 83 0  111 83 0  113 83 0  115 83 0  117 83 0  119 83 0  121 83 0  123 83 0  125 83 0  127 83 0  129 83 0  131 83 0  133 83 0  135 83 0  137 83 0  139 83 0  141 83 0  143 83 0  145 83 0  147 83 0  149 83 0  151 83 0  153 83 0  155 83 0  157 83 0  159 83 0  161 83 0  163 83 0  165 83 0  167 83 0  169 83 0  171 83 0  173 83 0  175 83 0  177 83 0  179 83 0  181 83 0  183 83 0  185 83 0  187 83 0  189 83 0  191 83 0  193 83 0  195 83 0  197 83 0  199 83 0  1 85 0  3 85 0  5 85 0  7 85 0  9 85 0  11 85 0  13 85 0  15 85 0  17 85 0  19 85 0  21 85 0  23 85 0  25 85 0  27 85 0  29 85 0  31 85 0  33 85 0  35 85 0  37 85 0  39 85 0  41 85 0  43 85 0  45 85 0  47 85 0  49 85 0  51 85 0  53 85 0  55 85 0  57 85 0  59 85 0  61 85 0  63 85 0  65 85 0  67 85 0  69 85 0  71 85 0  73 85 0  75 85 0  77 85 0  79 85 0  81 85 0  83 85 0  85 85 0  87 85 0  89 85 0  91 85 0  93 85 0  95 85 0  97 85 0  99 85 0  101 85 0  103 85 0  105 85 0  107 85 0  109 85 0  111 85 0  113 85 0  115 85 0  117 85 0  119 85 0  121 85 0  123 85 0  125 85 0  127 85 0  129 85 0  131 85 0  133 85 0  135 85 0  137 85 0  139 85 0  141 85 0  143 85 0  145 85 0  147 85 0  149 85 0  151 85 0  153 85 0  155 85 0  157 85 0  159 85 0  161 85 0  163 85 0  165 85 0  167 85 0  169 85 0  171 85 0  173 85 0  175 85 0  177 85 0  179 85 0  181 85 0  183 85 0  185 85 0  187 85 0  189 85 0  191 85 0  193 85 0  195 85 0  197 85 0  199 85 0  1 87 0  3 87 0  5 87 0  7 87 0  9 87 0  11 87 0  13 87 0  15 87 0  17 87 0  19 87 0  21 87 0  23 87 0  25 87 0  27 87 0  29 87 0  31 87 0  33 87 0  35 87 0  37 87 0  39 87 0  41 87 0  43 87 0  45 87 0  47 87 0  49 87 0  51 87 0  53 87 0  55 87 0  57 87 0  59 87 0  61 87 0  63 87 0  65 87 0  67 87 0  69 87 0  71 87 0  73 87 0  75 87 0  77 87 0  79 87 0  81 87 0  83 87 0  85 87 0  87 87 0  89 87 0  91 87 0  93 87 0  95 87 0  97 87 0  99 87 0  101 87 0  103 87 0  105 87 0  107 87 0  109 87 0  111 87 0  113 87 0  115 87 0  117 87 0  119 87 0  121 87 0  123 87 0  125 87 0  127 87 0  129 87 0  131 87 0  133 87 0  135 87 0  137 87 0  139 87 0  141 87 0  143 87 0  145 87 0  147 87 0  149 87 0  151 87 0  153 87 0  155 87 0  157 87 0  159 87 0  161 87 0  163 87 0  165 87 0  167 87 0  169 87 0  171 87 0  173 87 0  175 87 0  177 87 0  179 87 0  181 87 0  183 87 0  185 87 0  187 87 0  189 87 0  191 87 0  193 87 0  195 87 0  197 87 0  199 87 0  1 89 0  3 89 0  5 89 0  7 89 0  9 89 0  11 89 0  13 89 0  15 89 0  17 89 0  19 89 0  21 89 0  23 89 0  25 89 0  27 89 0  29 89 0  31 89 0  33 89 0  35 89 0  37 89 0  39 89 0  41 89 0  43 89 0  45 89 0  47 89 0  49 89 0  51 89 0  53 89 0  55 89 0  57 89 0  59 89 0  61 89 0  63 89 0  65 89 0  67 89 0  69 89 0  71 89 0  73 89 0  75 89 0  77 89 0  79 89 0  81 89 0  83 89 0  85 89 0  87 89 0  89 89 0  91 89 0  93 89 0  95 89 0  97 89 0  99 89 0  101 89 0  103 89 0  105 89 0  107 89 0  109 89 0  111 89 0  113 89 0  115 89 0  117 89 0  119 89 0  121 89 0  123 89 0  125 89 0  127 89 0  129 89 0  131 89 0  133 89 0  135 89 0  137 89 0  139 89 0  141 89 0  143 89 0  145 89 0  147 89 0  149 89 0  151 89 0  153 89 0  155 89 0  157 89 0  159 89 0  161 89 0  163 89 0  165 89 0  167 89 0  169 89 0  171 89 0  173 89 0  175 89 0  177 89 0  179 89 0  181 89 0  183 89 0  185 89 0  187 89 0  189 89 0  191 89 0  193 89 0  195 89 0  197 89 0  199 89 0  1 91 0  3 91 0  5 91 0  7 91 0  9 91 0  11 91 0  13 91 0  15 91 0  17 91 0  19 91 0  21 91 0  23 91 0  25 91 0  27 91 0  29 91 0  31 91 0  33 91 0  35 91 0  37 91 0  39 91 0  41 91 0  43 91 0  45 91 0  47 91 0  49 91 0  51 91 0  53 91 0  55 91 0  57 91 0  59 91 0  61 91 0  63 91 0  65 91 0  67 91 0  69 91 0  71 91 0  73 91 0  75 91 0  77 91 0  79 91 0  81 91 0  83 91 0  85 91 0  87 91 0  89 91 0  91 91 0  93 91 0  95 91 0  97 91 0  99 91 0  101 91 0  103 91 0  105 91 0  107 91 0  109 91 0  111 91 0  113 91 0  115 91 0  117 91 0  119 91 0  121 91 0  123 91 0  125 91 0  127 91 0  129 91 0  131 91 0  133 91 0  135 91 0  137 91 0  139 91 0  141 91 0  143 91 0  145 91 0  147 91 0  149 91 0  151 91 0  153 91 0  155 91 0  157 91 0  159 91 0  161 91 0  163 91 0  165 91 0  167 91 0  169 91 0  171 91 0  173 91 0  175 91 0  177 91 0  179 91 0  181 91 0  183 91 0  185 91 0  187 91 0  189 91 0  191 91 0  193 91 0  195 91 0  197 91 0  199 91 0  1 93 0  3 93 0  5 93 0  7 93 0  9 93 0  11 93 0  13 93 0  15 93 0  17 93 0  19 93 0  21 93 0  23 93 0  25 93 0  27 93 0  29 93 0  31 93 0  33 93 0  35 93 0  37 93 0  39 93 0  41 93 0  43 93 0  45 93 0  47 93 0  49 93 0  51 93 0  53 93 0  55 93 0  57 93 0  59 93 0  61 93 0  63 93 0  65 93 0  67 93 0  69 93 0  71 93 0  73 93 0  75 93 0  77 93 0  79 93 0  81 93 0  83 93 0  85 93 0  87 93 0  89 93 0  91 93 0  93 93 0  95 93 0  97 93 0  99 93 0  101 93 0  103 93 0  105 93 0  107 93 0  109 93 0  111 93 0  113 93 0  115 93 0  117 93 0  119 93 0  121 93 0  123 93 0  125 93 0  127 93 0  129 93 0  131 93 0  133 93 0  135 93 0  137 93 0  139 93 0  141 93 0  143 93 0  145 93 0  147 93 0  149 93 0  151 93 0  153 93 0  155 93 0  157 93 0  159 93 0  161 93 0  163 93 0  165 93 0  167 93 0  169 93 0  171 93 0  173 93 0  175 93 0  177 93 0  179 93 0  181 93 0  183 93 0  185 93 0  187 93 0  189 93 0  191 93 0  193 93 0  195 93 0  197 93 0  199 93 0  1 95 0  3 95 0  5 95 0  7 95 0  9 95 0  11 95 0  13 95 0  15 95 0  17 95 0  19 95 0  21 95 0  23 95 0  25 95 0  27 95 0  29 95 0  31 95 0  33 95 0  35 95 0  37 95 0  39 95 0  41 95 0  43 95 0  45 95 0  47 95 0  49 95 0  51 95 0  53 95 0  55 95 0  57 95 0  59 95 0  61 95 0  63 95 0  65 95 0  67 95 0  69 95 0  71 95 0  73 95 0  75 95 0  77 95 0  79 95 0  81 95 0  83 95 0  85 95 0  87 95 0  89 95 0  91 95 0  93 95 0  95 95 0  97 95 0  99 95 0  101 95 0  103 95 0  105 95 0  107 95 0  109 95 0  111 95 0  113 95 0  115 95 0  117 95 0  119 95 0  121 95 0  123 95 0  125 95 0  127 95 0  129 95 0  131 95 0  133 95 0  135 95 0  137 95 0  139 95 0  141 95 0  143 95 0  145 95 0  147 95 0  149 95 0  151 95 0  153 95 0  155 95 0  157 95 0  159 95 0  161 95 0  163 95 0  165 95 0  167 95 0  169 95 0  171 95 0  173 95 0  175 95 0  177 95 0  179 95 0  181 95 0  183 95 0  185 95 0  187 95 0  189 95 0  191 95 0  193 95 0  195 95 0  197 95 0  199 95 0  1 97 0  3 97 0  5 97 0  7 97 0  9 97 0  11 97 0  13 97 0  15 97 0  17 97 0  19 97 0  21 97 0  23 97 0  25 97 0  27 97 0  29 97 0  31 97 0  33 97 0  35 97 0  37 97 0  39 97 0  41 97 0  43 97 0  45 97 0  47 97 0  49 97 0  51 97 0  53 97 0  55 97 0  57 97 0  59 97 0  61 97 0  63 97 0  65 97 0  67 97 0  69 97 0  71 97 0  73 97 0  75 97 0  77 97 0  79 97 0  81 97 0  83 97 0  85 97 0  87 97 0  89 97 0  91 97 0  93 97 0  95 97 0  97 97 0  99 97 0  101 97 0  103 97 0  105 97 0  107 97 0  109 97 0  111 97 0  113 97 0  115 97 0  117 97 0  119 97 0  121 97 0  123 97 0  125 97 0  127 97 0  129 97 0  131 97 0  133 97 0  135 97 0  137 97 0  139 97 0  141 97 0  143 97 0  145 97 0  147 97 0  149 97 0  151 97 0  153 97 0  155 97 0  157 97 0  159 97 0  161 97 0  163 97 0  165 97 0  167 97 0  169 97 0  171 97 0  173 97 0  175 97 0  177 97 0  179 97 0  181 97 0  183 97 0  185 97 0  187 97 0  189 97 0  191 97 0  193 97 0  195 97 0  197 97 0  199 97 0  1 99 0  3 99 0  5 99 0  7 99 0  9 99 0  11 99 0  13 99 0  15 99 0  17 99 0  19 99 0  21 99 0  23 99 0  25 99 0  27 99 0  29 99 0  31 99 0  33 99 0  35 99 0  37 99 0  39 99 0  41 99 0  43 99 0  45 99 0  47 99 0  49 99 0  51 99 0  53 99 0  55 99 0  57 99 0  59 99 0  61 99 0  63 99 0  65 99 0  67 99 0  69 99 0  71 99 0  73 99 0  75 99 0  77 99 0  79 99 0  81 99 0  83 99 0  85 99 0  87 99 0  89 99 0  91 99 0  93 99 0  95 99 0  97 99 0  99 99 0  101 99 0  103 99 0  105 99 0  107 99 0  109 99 0  111 99 0  113 99 0  115 99 0  117 99 0  119 99 0  121 99 0  123 99 0  125 99 0  127 99 0  129 99 0  131 99 0  133 99 0  135 99 0  137 99 0  139 99 0  141 99 0  143 99 0  145 99 0  147 99 0  149 99 0  151 99 0  153 99 0  155 99 0  157 99 0  159 99 0  161 99 0  163 99 0  165 99 0  167 99 0  169 99 0  171 99 0  173 99 0  175 99 0  177 99 0  179 99 0  181 99 0  183 99 0  185 99 0  187 99 0  189 99 0  191 99 0  193 99 0  195 99 0  197 99 0  199 99 0  1 101 0  3 101 0  5 101 0  7 101 0  9 101 0  11 101 0  13 101 0  15 101 0  17 101 0  19 101 0  21 101 0  23 101 0  25 101 0  27 101 0  29 101 0  31 101 0  33 101 0  35 101 0  37 101 0  39 101 0  41 101 0  43 101 0  45 101 0  47 101 0  49 101 0  51 101 0  53 101 0  55 101 0  57 101 0  59 101 0  61 101 0  63 101 0  65 101 0  67 101 0  69 101 0  71 101 0  73 101 0  75 101 0  77 101 0  79 101 0  81 101 0  83 101 0  85 101 0  87 101 0  89 101 0  91 101 0  93 101 0  95 101 0  97 101 0  99 101 0  101 101 0  103 101 0  105 101 0  107 101 0  109 101 0  111 101 0  113 101 0  115 101 0  117 101 0  119 101 0  121 101 0  123 101 0  125 101 0  127 101 0  129 101 0  131 101 0  133 101 0  135 101 0  137 101 0  139 101 0  141 101 0  143 101 0  145 101 0  147 101 0  149 101 0  151 101 0  153 101 0  155 101 0  157 101 0  159 101 0  161 101 0  163 101 0  165 101 0  167 101 0  169 101 0  171 101 0  173 101 0  175 101 0  177 101 0  179 101 0  181 101 0  183 101 0  185 101 0  187 101 0  189 101 0  191 101 0  193 101 0  195 101 0  197 101 0  199 101 0  1 103 0  3 103 0  5 103 0  7 103 0  9 103 0  11 103 0  13 103 0  15 103 0  17 103 0  19 103 0  21 103 0  23 103 0  25 103 0  27 103 0  29 103 0  31 103 0  33 103 0  35 103 0  37 103 0  39 103 0  41 103 0  43 103 0  45 103 0  47 103 0  49 103 0  51 103 0  53 103 0  55 103 0  57 103 0  59 103 0  61 103 0  63 103 0  65 103 0  67 103 0  69 103 0  71 103 0  73 103 0  75 103 0  77 103 0  79 103 0  81 103 0  83 103 0  85 103 0  87 103 0  89 103 0  91 103 0  93 103 0  95 103 0  97 103 0  99 103 0  101 103 0  103 103 0  105 103 0  107 103 0  109 103 0  111 103 0  113 103 0  115 103 0  117 103 0  119 103 0  121 103 0  123 103 0  125 103 0  127 103 0  129 103 0  131 103 0  133 103 0  135 103 0  137 103 0  139 103 0  141 103 0  143 103 0  145 103 0  147 103 0  149 103 0  151 103 0  153 103 0  155 103 0  157 103 0  159 103 0  161 103 0  163 103 0  165 103 0  167 103 0  169 103 0  171 103 0  173 103 0  175 103 0  177 103 0  179 103 0  181 103 0  183 103 0  185 103 0  187 103 0  189 103 0  191 103 0  193 103 0  195 103 0  197 103 0  199 103 0  1 105 0  3 105 0  5 105 0  7 105 0  9 105 0  11 105 0  13 105 0  15 105 0  17 105 0  19 105 0  21 105 0  23 105 0  25 105 0  27 105 0  29 105 0  31 105 0  33 105 0  35 105 0  37 105 0  39 105 0  41 105 0  43 105 0  45 105 0  47 105 0  49 105 0  51 105 0  53 105 0  55 105 0  57 105 0  59 105 0  61 105 0  63 105 0  65 105 0  67 105 0  69 105 0  71 105 0  73 105 0  75 105 0  77 105 0  79 105 0  81 105 0  83 105 0  85 105 0  87 105 0  89 105 0  91 105 0  93 105 0  95 105 0  97 105 0  99 105 0  101 105 0  103 105 0  105 105 0  107 105 0  109 105 0  111 105 0  113 105 0  115 105 0  117 105 0  119 105 0  121 105 0  123 105 0  125 105 0  127 105 0  129 105 0  131 105 0  133 105 0  135 105 0  137 105 0  139 105 0  141 105 0  143 105 0  145 105 0  147 105 0  149 105 0  151 105 0  153 105 0  155 105 0  157 105 0  159 105 0  161 105 0  163 105 0  165 105 0  167 105 0  169 105 0  171 105 0  173 105 0  175 105 0  177 105 0  179 105 0  181 105 0  183 105 0  185 105 0  187 105 0  189 105 0  191 105 0  193 105 0  195 105 0  197 105 0  199 105 0  1 107 0  3 107 0  5 107 0  7 107 0  9 107 0  11 107 0  13 107 0  15 107 0  17 107 0  19 107 0  21 107 0  23 107 0  25 107 0  27 107 0  29 107 0  31 107 0  33 107 0  35 107 0  37 107 0  39 107 0  41 107 0  43 107 0  45 107 0  47 107 0  49 107 0  51 107 0  53 107 0  55 107 0  57 107 0  59 107 0  61 107 0  63 107 0  65 107 0  67 107 0  69 107 0  71 107 0  73 107 0  75 107 0  77 107 0  79 107 0  81 107 0  83 107 0  85 107 0  87 107 0  89 107 0  91 107 0  93 107 0  95 107 0  97 107 0  99 107 0  101 107 0  103 107 0  105 107 0  107 107 0  109 107 0  111 107 0  113 107 0  115 107 0  117 107 0  119 107 0  121 107 0  123 107 0  125 107 0  127 107 0  129 107 0  131 107 0  133 107 0  135 107 0  137 107 0  139 107 0  141 107 0  143 107 0  145 107 0  147 107 0  149 107 0  151 107 0  153 107 0  155 107 0  157 107 0  159 107 0  161 107 0  163 107 0  165 107 0  167 107 0  169 107 0  171 107 0  173 107 0  175 107 0  177 107 0  179 107 0  181 107 0  183 107 0  185 107 0  187 107 0  189 107 0  191 107 0  193 107 0  195 107 0  197 107 0  199 107 0  1 109 0  3 109 0  5 109 0  7 109 0  9 109 0  11 109 0  13 109 0  15 109 0  17 109 0  19 109 0  21 109 0  23 109 0  25 109 0  27 109 0  29 109 0  31 109 0  33 109 0  35 109 0  37 109 0  39 109 0  41 109 0  43 109 0  45 109 0  47 109 0  49 109 0  51 109 0  53 109 0  55 109 0  57 109 0  59 109 0  61 109 0  63 109 0  65 109 0  67 109 0  69 109 0  71 109 0  73 109 0  75 109 0  77 109 0  79 109 0  81 109 0  83 109 0  85 109 0  87 109 0  89 109 0  91 109 0  93 109 0  95 109 0  97 109 0  99 109 0  101 109 0  103 109 0  105 109 0  107 109 0  109 109 0  111 109 0  113 109 0  115 109 0  117 109 0  119 109 0  121 109 0  123 109 0  125 109 0  127 109 0  129 109 0  131 109 0  133 109 0  135 109 0  137 109 0  139 109 0  141 109 0  143 109 0  145 109 0  147 109 0  149 109 0  151 109 0  153 109 0  155 109 0  157 109 0  159 109 0  161 109 0  163 109 0  165 109 0  167 109 0  169 109 0  171 109 0  173 109 0  175 109 0  177 109 0  179 109 0  181 109 0  183 109 0  185 109 0  187 109 0  189 109 0  191 109 0  193 109 0  195 109 0  197 109 0  199 109 0  </DataArray>
</Points>
<Cells>
<DataArray  type="UInt32"  Name="connectivity"  format="ascii">0 1 5656  0 101 5656  1 102 5656  101 102 5656  1 2 5657  1 102 5657  2 103 5657  102 103 5657  2 3 5658  2 103 5658  3 104 5658  103 104 5658  3 4 5659  3 104 5659  4 105 5659  104 105 5659  4 5 5660  4 105 5660  5 106 5660  105 106 5660  5 6 5661  5 106 5661  6 107 5661  106 107 5661  6 7 5662  6 107 5662  7 108 5662  107 108 5662  7 8 5663  7 108 5663  8 109 5663  108 109 5663  8 9 5664  8 109 5664  9 110 5664  109 110 5664  9 10 5665  9 110 5665  10 111 5665  110 111 5665  10 11 5666  10 111 5666  11 112 5666  111 112 5666  11 12 5667  11 112 5667  12 113 5667  112 113 5667  12 13 5668  12 113 5668  13 114 5668  113 114 5668  13 14 5669  13 114 5669  14 115 5669  114 115 5669  14 15 5670  14 115 5670  15 116 5670  115 116 5670  15 16 5671  15 116 5671  16 117 5671  116 117 5671  16 17 5672  16 117 5672  17 118 5672  117 118 5672  17 18 5673  17 118 5673  18 119 5673  118 119 5673  18 19 5674  18 119 5674  19 120 5674  119 120 5674  19 20 5675  19 120 5675  20 121 5675  120 121 5675  20 21 5676  20 121 5676  21 122 5676  121 122 5676  21 22 5677  21 122 5677  22 123 5677  122 123 5677  22 23 5678  22 123 5678  23 124 5678  123 124 5678  23 24 5679  23 124 5679  24 125 5679  124 125 5679  24 25 5680  24 125 5680  25 126 5680  125 126 5680  25 26 5681  25 126 5681  26 127 5681  126 127 5681  26 27 5682  26 127 5682  27 128 5682  127 128 5682  27 28 5683  27 128 5683  28 129 5683  128 129 5683  28 29 5684  28 129 5684  29 130 5684  129 130 5684  29 30 5685  29 130 5685  30 131 5685  130 131 5685  30 31 5686  30 131 5686  31 132 5686  131 132 5686  31 32 5687  31 132 5687  32 133 5687  132 133 5687  32 33 5688  32 133 5688  33 134 5688  133 134 5688  33 34 5689  33 134 5689  34 135 5689  134 135 5689  34 35 5690  34 135 5690  35 136 5690  135 136 5690  35 36 5691  35 136 5691  36 137 5691  136 137 5691  36 37 5692  36 137 5692  37 138 5692  137 138 5692  37 38 5693  37 138 5693  38 139 5693  138 139 5693  38 39 5694  38 139 5694  39 140 5694  139 140 5694  39 40 5695  39 140 5695  40 141 5695  140 141 5695  40 41 5696  40 141 5696  41 142 5696  141 142 5696  41 42 5697  41 142 5697  42 143 5697  142 143 5697  42 43 5698  42 143 5698  43 144 5698  143 144 5698  43 44 5699  43 144 5699  44 145 5699  144 145 5699  44 45 5700  44 145 5700  45 146 5700  145 146 5700  45 46 5701  45 146 5701  46 147 5701  146 147 5701  46 47 5702  46 147 5702  47 148 5702  147 148 5702  47 48 5703  47 148 5703  48 149 5703  148 149 5703  48 49 5704  48 149 5704  49 150 5704  149 150 5704  49 50 5705  49 150 5705  50 151 5705  150 151 5705  50 51 5706  50 151 5706  51 152 5706  151 152 5706  51 52 5707  51 152 5707  52 153 5707  152 153 5707  52 53 5708  52 153 5708  53 154 5708  153 154 5708  53 54 5709  53 154 5709  54 155 5709  154 155 5709  54 55 5710  54 155 5710  55 156 5710  155 156 5710  55 56 5711  55 156 5711  56 157 5711  156 157 5711  56 57 5712  56 157 5712  57 158 5712  157 158 5712  57 58 5713  57 158 5713  58 159 5713  158 159 5713  58 59 5714  58 159 5714  59 160 5714  159 160 5714  59 60 5715  59 160 5715  60 161 5715  160 161 5715  60 61 5716  60 161 5716  61 162 5716  161 162 5716  61 62 5717  61 162 5717  62 163 5717  162 163 5717  62 63 5718  62 163 5718  63 164 5718  163 164 5718  63 64 5719  63 164 5719  64 165 5719  164 165 5719  64 65 5720  64 165 5720  65 166 5720  165 166 5720  65 66 5721  65 166 5721  66 167 5721  166 167 5721  66 67 5722  66 167 5722  67 168 5722  167 168 5722  67 68 5723  67 168 5723  68 169 5723  168 169 5723  68 69 5724  68 169 5724  69 170 5724  169 170 5724  69 70 5725  69 170 5725  70 171 5725  170 171 5725  70 71 5726  70 171 5726  71 172 5726  171 172 5726  71 72 5727  71 172 5727  72 173 5727  172 173 5727  72 73 5728  72 173 5728  73 174 5728  173 174 5728  73 74 5729  73 174 5729  74 175 5729  174 175 5729  74 75 5730  74 175 5730  75 176 5730  175 176 5730  75 76 5731  75 176 5731  76 177 5731  176 177 5731  76 77 5732  76 177 5732  77 178 5732  177 178 5732  77 78 5733  77 178 5733  78 179 5733  178 179 5733  78 79 5734  78 179 5734  79 180 5734  179 180 5734  79 80 5735  79 180 5735  80 181 5735  180 181 5735  80 81 5736  80 181 5736  81 182 5736  181 182 5736  81 82 5737  81 182 5737  82 183 5737  182 183 5737  82 83 5738  82 183 5738  83 184 5738  183 184 5738  83 84 5739  83 184 5739  84 185 5739  184 185 5739  84 85 5740  84 185 5740  85 186 5740  185 186 5740  85 86 5741  85 186 5741  86 187 5741  186 187 5741  86 87 5742  86 187 5742  87 188 5742  187 188 5742  87 88 5743  87 188 5743  88 189 5743  188 189 5743  88 89 5744  88 189 5744  89 190 5744  189 190 5744  89 90 5745  89 190 5745  90 191 5745  190 191 5745  90 91 5746  90 191 5746  91 192 5746  191 192 5746  91 92 5747  91 192 5747  92 193 5747  192 193 5747  92 93 5748  92 193 5748  93 194 5748  193 194 5748  93 94 5749  93 194 5749  94 195 5749  194 195 5749  94 95 5750  94 195 5750  95 196 5750  195 196 5750  95 96 5751  95 196 5751  96 197 5751  196 197 5751  96 97 5752  96 197 5752  97 198 5752  197 198 5752  97 98 5753  97 198 5753  98 199 5753  198 199 5753  98 99 5754  98 199 5754  99 200 5754  199 200 5754  99 100 5755  99 200 5755  100 201 5755  200 201 5755  101 102 5756  101 202 5756  102 203 5756  202 203 5756  102 103 5757  102 203 5757  103 204 5757  203 204 5757  103 104 5758  103 204 5758  104 205 5758  204 205 5758  104 105 5759  104 205 5759  105 206 5759  205 206 5759  105 106 5760  105 206 5760  106 207 5760  206 207 5760  106 107 5761  106 207 5761  107 208 5761  207 208 5761  107 108 5762  107 208 5762  108 209 5762  208 209 5762  108 109 5763  108 209 5763  109 210 5763  209 210 5763  109 110 5764  109 210 5764  110 211 5764  210 211 5764  110 111 5765  110 211 5765  111 212 5765  211 212 5765  111 112 5766  111 212 5766  112 213 5766  212 213 5766  112 113 5767  112 213 5767  113 214 5767  213 214 5767  113 114 5768  113 214 5768  114 215 5768  214 215 5768  114 115 5769  114 215 5769  115 216 5769  215 216 5769  115 116 5770  115 216 5770  116 217 5770  216 217 5770  116 117 5771  116 217 5771  117 218 5771  217 218 5771  117 118 5772  117 218 5772  118 219 5772  218 219 5772  118 119 5773  118 219 5773  119 220 5773  219 220 5773  119 120 5774  119 220 5774  120 221 5774  220 221 5774  120 121 5775  120 221 5775  121 222 5775  221 222 5775  121 122 5776  121 222 5776  122 223 5776  222 223 5776  122 123 5777  122 223 5777  123 224 5777  223 224 5777  123 124 5778  123 224 5778  124 225 5778  224 225 5778  124 125 5779  124 225 5779  125 226 5779  225 226 5779  125 126 5780  125 226 5780  126 227 5780  226 227 5780  126 127 5781  126 227 5781  127 228 5781  227 228 5781  127 128 5782  127 228 5782  128 229 5782  228 229 5782  128 129 5783  128 229 5783  129 230 5783  229 230 5783  129 130 5784  129 230 5784  130 231 5784  230 231 5784  130 131 5785  130 231 5785  131 232 5785  231 232 5785  131 132 5786  131 232 5786  132 233 5786  232 233 5786  132 133 5787  132 233 5787  133 234 5787  233 234 5787  133 134 5788  133 234 5788  134 235 5788  234 235 5788  134 135 5789  134 235 5789  135 236 5789  235 236 5789  135 136 5790  135 236 5790  136 237 5790  236 237 5790  136 137 5791  136 237 5791  137 238 5791  237 238 5791  137 138 5792  137 238 5792  138 239 5792  238 239 5792  138 139 5793  138 239 5793  139 240 5793  239 240 5793  139 140 5794  139 240 5794  140 241 5794  240 241 5794  140 141 5795  140 241 5795  141 242 5795  241 242 5795  141 142 5796  141 242 5796  142 243 5796  242 243 5796  142 143 5797  142 243 5797  143 244 5797  243 244 5797  143 144 5798  143 244 5798  144 245 5798  244 245 5798  144 145 5799  144 245 5799  145 246 5799  245 246 5799  145 146 5800  145 246 5800  146 247 5800  246 247 5800  146 147 5801  146 247 5801  147 248 5801  247 248 5801  147 148 5802  147 248 5802  148 249 5802  248 249 5802  148 149 5803  148 249 5803  149 250 5803  249 250 5803  149 150 5804  149 250 5804  150 251 5804  250 251 5804  150 151 5805  150 251 5805  151 252 5805  251 252 5805  151 152 5806  151 252 5806  152 253 5806  252 253 5806  152 153 5807  152 253 5807  153 254 5807  253 254 5807  153 154 5808  153 254 5808  154 255 5808  254 255 5808  154 155 5809  154 255 5809  155 256 5809  255 256 5809  155 156 5810  155 256 5810  156 257 5810  256 257 5810  156 157 5811  156 257 5811  157 258 5811  257 258 5811  157 158 5812  157 258 5812  158 259 5812  258 259 5812  158 159 5813  158 259 5813  159 260 5813  259 260 5813  159 160 5814  159 260 5814  160 261 5814  260 261 5814  160 161 5815  160 261 5815  161 262 5815  261 262 5815  161 162 5816  161 262 5816  162 263 5816  262 263 5816  162 163 5817  162 263 5817  163 264 5817  263 264 5817  163 164 5818  163 264 5818  164 265 5818  264 265 5818  164 165 5819  164 265 5819  165 266 5819  265 266 5819  165 166 5820  165 266 5820  166 267 5820  266 267 5820  166 167 5821  166 267 5821  167 268 5821  267 268 5821  167 168 5822  167 268 5822  168 269 5822  268 269 5822  168 169 5823  168 269 5823  169 270 5823  269 270 5823  169 170 5824  169 270 5824  170 271 5824  270 271 5824  170 171 5825  170 271 5825  171 272 5825  271 272 5825  171 172 5826  171 272 5826  172 273 5826  272 273 5826  172 173 5827  172 273 5827  173 274 5827  273 274 5827  173 174 5828  173 274 5828  174 275 5828  274 275 5828  174 175 5829  174 275 5829  175 276 5829  275 276 5829  175 176 5830  175 276 5830  176 277 5830  276 277 5830  176 177 5831  176 277 5831  177 278 5831  277 278 5831  177 178 5832  177 278 5832  178 279 5832  278 279 5832  178 179 5833  178 279 5833  179 280 5833  279 280 5833  179 180 5834  179 280 5834  180 281 5834  280 281 5834  180 181 5835  180 281 5835  181 282 5835  281 282 5835  181 182 5836  181 282 5836  182 283 5836  282 283 5836  182 183 5837  182 283 5837  183 284 5837  283 284 5837  183 184 5838  183 284 5838  184 285 5838  284 285 5838  184 185 5839  184 285 5839  185 286 5839  285 286 5839  185 186 5840  185 286 5840  186 287 5840  286 287 5840  186 187 5841  186 287 5841  187 288 5841  287 288 5841  187 188 5842  187 288 5842  188 289 5842  288 289 5842  188 189 5843  188 289 5843  189 290 5843  289 290 5843  189 190 5844  189 290 5844  190 291 5844  290 291 5844  190 191 5845  190 291 5845  191 292 5845  291 292 5845  191 192 5846  191 292 5846  192 293 5846  292 293 5846  192 193 5847  192 293 5847  193 294 5847  293 294 5847  193 194 5848  193 294 5848  194 295 5848  294 295 5848  194 195 5849  194 295 5849  195 296 5849  295 296 5849  195 196 5850  195 296 5850  196 297 5850  296 297 5850  196 197 5851  196 297 5851  197 298 5851  297 298 5851  197 198 5852  197 298 5852  198 299 5852  298 299 5852  198 199 5853  198 299 5853  199 300 5853  299 300 5853  199 200 5854  199 300 5854  200 301 5854  300 301 5854  200 201 5855  200 301 5855  201 302 5855  301 302 5855  202 203 5856  202 303 5856  203 304 5856  303 304 5856  203 204 5857  203 304 5857  204 305 5857  304 305 5857  204 205 5858  204 305 5858  205 306 5858  305 306 5858  205 206 5859  205 306 5859  206 307 5859  306 307 5859  206 207 5860  206 307 5860  207 308 5860  307 308 5860  207 208 5861  207 308 5861  208 309 5861  308 309 5861  208 209 5862  208 309 5862  209 310 5862  309 310 5862  209 210 5863  209 310 5863  210 311 5863  310 311 5863  210 211 5864  210 311 5864  211 312 5864  311 312 5864  211 212 5865  211 312 5865  212 313 5865  312 313 5865  212 213 5866  212 313 5866  213 314 5866  313 314 5866  213 214 5867  213 314 5867  214 315 5867  314 315 5867  214 215 5868  214 315 5868  215 316 5868  315 316 5868  215 216 5869  215 316 5869  216 317 5869  316 317 5869  216 217 5870  216 317 5870  217 318 5870  317 318 5870  217 218 5871  217 318 5871  218 319 5871  318 319 5871  218 219 5872  218 319 5872  219 320 5872  319 320 5872  219 220 5873  219 320 5873  220 321 5873  320 321 5873  220 221 5874  220 321 5874  221 322 5874  321 322 5874  221 222 5875  221 322 5875  222 323 5875  322 323 5875  222 223 5876  222 323 5876  223 324 5876  323 324 5876  223 224 5877  223 324 5877  224 325 5877  324 325 5877  224 225 5878  224 325 5878  225 326 5878  325 326 5878  225 226 5879  225 326 5879  226 327 5879  326 327 5879  226 227 5880  226 327 5880  227 328 5880  327 328 5880  227 228 5881  227 328 5881  228 329 5881  328 329 5881  228 229 5882  228 329 5882  229 330 5882  329 330 5882  229 230 5883  229 330 5883  230 331 5883  330 331 5883  230 231 5884  230 331 5884  231 332 5884  331 332 5884  231 232 5885  231 332 5885  232 333 5885  332 333 5885  232 233 5886  232 333 5886  233 334 5886  333 334 5886  233 234 5887  233 334 5887  234 335 5887  334 335 5887  234 235 5888  234 335 5888  235 336 5888  335 336 5888  235 236 5889  235 336 5889  236 337 5889  336 337 5889  236 237 5890  236 337 5890  237 338 5890  337 338 5890  237 238 5891  237 338 5891  238 339 5891  338 339 5891  238 239 5892  238 339 5892  239 340 5892  339 340 5892  239 240 5893  239 340 5893  240 341 5893  340 341 5893  240 241 5894  240 341 5894  241 342 5894  341 342 5894  241 242 5895  241 342 5895  242 343 5895  342 343 5895  242 243 5896  242 343 5896  243 344 5896  343 344 5896  243 244 5897  243 344 5897  244 345 5897  344 345 5897  244 245 5898  244 345 5898  245 346 5898  345 346 5898  245 246 5899  245 346 5899  246 347 5899  346 347 5899  246 247 5900  246 347 5900  247 348 5900  347 348 5900  247 248 5901  247 348 5901  248 349 5901  348 349 5901  248 249 5902  248 349 5902  249 350 5902  349 350 5902  249 250 5903  249 350 5903  250 351 5903  350 351 5903  250 251 5904  250 351 5904  251 352 5904  351 352 5904  251 252 5905  251 352 5905  252 353 5905  352 353 5905  252 253 5906  252 353 5906  253 354 5906  353 354 5906  253 254 5907  253 354 5907  254 355 5907  354 355 5907  254 255 5908  254 355 5908  255 356 5908  355 356 5908  255 256 5909  255 356 5909  256 357 5909  356 357 5909  256 257 5910  256 357 5910  257 358 5910  357 358 5910  257 258 5911  257 358 5911  258 359 5911  358 359 5911  258 259 5912  258 359 5912  259 360 5912  359 360 5912  259 260 5913  259 360 5913  260 361 5913  360 361 5913  260 261 5914  260 361 5914  261 362 5914  361 362 5914  261 262 5915  261 362 5915  262 363 5915  362 363 5915  262 263 5916  262 363 5916  263 364 5916  363 364 5916  263 264 5917  263 364 5917  264 365 5917  364 365 5917  264 265 5918  264 365 5918  265 366 5918  365 366 5918  265 266 5919  265 366 5919  266 367 5919  366 367 5919  266 267 5920  266 367 5920  267 368 5920  367 368 5920  267 268 5921  267 368 5921  268 369 5921  368 369 5921  268 269 5922  268 369 5922  269 370 5922  369 370 5922  269 270 5923  269 370 5923  270 371 5923  370 371 5923  270 271 5924  270 371 5924  271 372 5924  371 372 5924  271 272 5925  271 372 5925  272 373 5925  372 373 5925  272 273 5926  272 373 5926  273 374 5926  373 374 5926  273 274 5927  273 374 5927  274 375 5927  374 375 5927  274 275 5928  274 375 5928  275 376 5928  375 376 5928  275 276 5929  275 376 5929  276 377 5929  376 377 5929  276 277 5930  276 377 5930  277 378 5930  377 378 5930  277 278 5931  277 378 5931  278 379 5931  378 379 5931  278 279 5932  278 379 5932  279 380 5932  379 380 5932  279 280 5933  279 380 5933  280 381 5933  380 381 5933  280 281 5934  280 381 5934  281 382 5934  381 382 5934  281 282 5935  281 382 5935  282 383 5935  382 383 5935  282 283 5936  282 383 5936  283 384 5936  383 384 5936  283 284 5937  283 384 5937  284 385 5937  384 385 5937  284 285 5938  284 385 5938  285 386 5938  385 386 5938  285 286 5939  285 386 5939  286 387 5939  386 387 5939  286 287 5940  286 387 5940  287 388 5940  387 388 5940  287 288 5941  287 388 5941  288 389 5941  388 389 5941  288 289 5942  288 389 5942  289 390 5942  389 390 5942  289 290 5943  289 390 5943  290 391 5943  390 391 5943  290 291 5944  290 391 5944  291 392 5944  391 392 5944  291 292 5945  291 392 5945  292 393 5945  392 393 5945  292 293 5946  292 393 5946  293 394 5946  393 394 5946  293 294 5947  293 394 5947  294 395 5947  394 395 5947  294 295 5948  294 395 5948  295 396 5948  395 396 5948  295 296 5949  295 396 5949  296 397 5949  396 397 5949  296 297 5950  296 397 5950  297 398 5950  397 398 5950  297 298 5951  297 398 5951  298 399 5951  398 399 5951  298 299 5952  298 399 5952  299 400 5952  399 400 5952  299 300 5953  299 400 5953  300 401 5953  400 401 5953  300 301 5954  300 401 5954  301 402 5954  401 402 5954  301 302 5955  301 402 5955  302 403 5955  402 403 5955  303 304 5956  303 404 5956  304 405 5956  404 405 5956  304 305 5957  304 405 5957  305 406 5957  405 406 5957  305 306 5958  305 406 5958  306 407 5958  406 407 5958  306 307 5959  306 407 5959  307 408 5959  407 408 5959  307 308 5960  307 408 5960  308 409 5960  408 409 5960  308 309 5961  308 409 5961  309 410 5961  409 410 5961  309 310 5962  309 410 5962  310 411 5962  410 411 5962  310 311 5963  310 411 5963  311 412 5963  411 412 5963  311 312 5964  311 412 5964  312 413 5964  412 413 5964  312 313 5965  312 413 5965  313 414 5965  413 414 5965  313 314 5966  313 414 5966  314 415 5966  414 415 5966  314 315 5967  314 415 5967  315 416 5967  415 416 5967  315 316 5968  315 416 5968  316 417 5968  416 417 5968  316 317 5969  316 417 5969  317 418 5969  417 418 5969  317 318 5970  317 418 5970  318 419 5970  418 419 5970  318 319 5971  318 419 5971  319 420 5971  419 420 5971  319 320 5972  319 420 5972  320 421 5972  420 421 5972  320 321 5973  320 421 5973  321 422 5973  421 422 5973  321 322 5974  321 422 5974  322 423 5974  422 423 5974  322 323 5975  322 423 5975  323 424 5975  423 424 5975  323 324 5976  323 424 5976  324 425 5976  424 425 5976  324 325 5977  324 425 5977  325 426 5977  425 426 5977  325 326 5978  325 426 5978  326 427 5978  426 427 5978  326 327 5979  326 427 5979  327 428 5979  427 428 5979  327 328 5980  327 428 5980  328 429 5980  428 429 5980  328 329 5981  328 429 5981  329 430 5981  429 430 5981  329 330 5982  329 430 5982  330 431 5982  430 431 5982  330 331 5983  330 431 5983  331 432 5983  431 432 5983  331 332 5984  331 432 5984  332 433 5984  432 433 5984  332 333 5985  332 433 5985  333 434 5985  433 434 5985  333 334 5986  333 434 5986  334 435 5986  434 435 5986  334 335 5987  334 435 5987  335 436 5987  435 436 5987  335 336 5988  335 436 5988  336 437 5988  436 437 5988  336 337 5989  336 437 5989  337 438 5989  437 438 5989  337 338 5990  337 438 5990  338 439 5990  438 439 5990  338 339 5991  338 439 5991  339 440 5991  439 440 5991  339 340 5992  339 440 5992  340 441 5992  440 441 5992  340 341 5993  340 441 5993  341 442 5993  441 442 5993  341 342 5994  341 442 5994  342 443 5994  442 443 5994  342 343 5995  342 443 5995  343 444 5995  443 444 5995  343 344 5996  343 444 5996  344 445 5996  444 445 5996  344 345 5997  344 445 5997  345 446 5997  445 446 5997  345 346 5998  345 446 5998  346 447 5998  446 447 5998  346 347 5999  346 447 5999  347 448 5999  447 448 5999  347 348 6000  347 448 6000  348 449 6000  448 449 6000  348 349 6001  348 449 6001  349 450 6001  449 450 6001  349 350 6002  349 450 6002  350 451 6002  450 451 6002  350 351 6003  350 451 6003  351 452 6003  451 452 6003  351 352 6004  351 452 6004  352 453 6004  452 453 6004  352 353 6005  352 453 6005  353 454 6005  453 454 6005  353 354 6006  353 454 6006  354 455 6006  454 455 6006  354 355 6007  354 455 6007  355 456 6007  455 456 6007  355 356 6008  355 456 6008  356 457 6008  456 457 6008  356 357 6009  356 457 6009  357 458 6009  457 458 6009  357 358 6010  357 458 6010  358 459 6010  458 459 6010  358 359 6011  358 459 6011  359 460 6011  459 460 6011  359 360 6012  359 460 6012  360 461 6012  460 461 6012  360 361 6013  360 461 6013  361 462 6013  461 462 6013  361 362 6014  361 462 6014  362 463 6014  462 463 6014  362 363 6015  362 463 6015  363 464 6015  463 464 6015  363 364 6016  363 464 6016  364 465 6016  464 465 6016  364 365 6017  364 465 6017  365 466 6017  465 466 6017  365 366 6018  365 466 6018  366 467 6018  466 467 6018  366 367 6019  366 467 6019  367 468 6019  467 468 6019  367 368 6020  367 468 6020  368 469 6020  468 469 6020  368 369 6021  368 469 6021  369 470 6021  469 470 6021  369 370 6022  369 470 6022  370 471 6022  470 471 6022  370 371 6023  370 471 6023  371 472 6023  471 472 6023  371 372 6024  371 472 6024  372 473 6024  472 473 6024  372 373 6025  372 473 6025  373 474 6025  473 474 6025  373 374 6026  373 474 6026  374 475 6026  474 475 6026  374 375 6027  374 475 6027  375 476 6027  475 476 6027  375 376 6028  375 476 6028  376 477 6028  476 477 6028  376 377 6029  376 477 6029  377 478 6029  477 478 6029  377 378 6030  377 478 6030  378 479 6030  478 479 6030  378 379 6031  378 479 6031  379 480 6031  479 480 6031  379 380 6032  379 480 6032  380 481 6032  480 481 6032  380 381 6033  380 481 6033  381 482 6033  481 482 6033  381 382 6034  381 482 6034  382 483 6034  482 483 6034  382 383 6035  382 483 6035  383 484 6035  483 484 6035  383 384 6036  383 484 6036  384 485 6036  484 485 6036  384 385 6037  384 485 6037  385 486 6037  485 486 6037  385 386 6038  385 486 6038  386 487 6038  486 487 6038  386 387 6039  386 487 6039  387 488 6039  487 488 6039  387 388 6040  387 488 6040  388 489 6040  488 489 6040  388 389 6041  388 489 6041  389 490 6041  489 490 6041  389 390 6042  389 490 6042  390 491 6042  490 491 6042  390 391 6043  390 491 6043  391 492 6043  491 492 6043  391 392 6044  391 492 6044  392 493 6044  492 493 6044  392 393 6045  392 493 6045  393 494 6045  493 494 6045  393 394 6046  393 494 6046  394 495 6046  494 495 6046  394 395 6047  394 495 6047  395 496 6047  495 496 6047  395 396 6048  395 496 6048  396 497 6048  496 497 6048  396 397 6049  396 497 6049  397 498 6049  497 498 6049  397 398 6050  397 498 6050  398 499 6050  498 499 6050  398 399 6051  398 499 6051  399 500 6051  499 500 6051  399 400 6052  399 500 6052  400 501 6052  500 501 6052  400 401 6053  400 501 6053  401 502 6053  501 502 6053  401 402 6054  401 502 6054  402 503 6054  502 503 6054  402 403 6055  402 503 6055  403 504 6055  503 504 6055  404 405 6056  404 505 6056  405 506 6056  505 506 6056  405 406 6057  405 506 6057  406 507 6057  506 507 6057  406 407 6058  406 507 6058  407 508 6058  507 508 6058  407 408 6059  407 508 6059  408 509 6059  508 509 6059  408 409 6060  408 509 6060  409 510 6060  509 510 6060  409 410 6061  409 510 6061  410 511 6061  510 511 6061  410 411 6062  410 511 6062  411 512 6062  511 512 6062  411 412 6063  411 512 6063  412 513 6063  512 513 6063  412 413 6064  412 513 6064  413 514 6064  513 514 6064  413 414 6065  413 514 6065  414 515 6065  514 515 6065  414 415 6066  414 515 6066  415 516 6066  515 516 6066  415 416 6067  415 516 6067  416 517 6067  516 517 6067  416 417 6068  416 517 6068  417 518 6068  517 518 6068  417 418 6069  417 518 6069  418 519 6069  518 519 6069  418 419 6070  418 519 6070  419 520 6070  519 520 6070  419 420 6071  419 520 6071  420 521 6071  520 521 6071  420 421 6072  420 521 6072  421 522 6072  521 522 6072  421 422 6073  421 522 6073  422 523 6073  522 523 6073  422 423 6074  422 523 6074  423 524 6074  523 524 6074  423 424 6075  423 524 6075  424 525 6075  524 525 6075  424 425 6076  424 525 6076  425 526 6076  525 526 6076  425 426 6077  425 526 6077  426 527 6077  526 527 6077  426 427 6078  426 527 6078  427 528 6078  527 528 6078  427 428 6079  427 528 6079  428 529 6079  528 529 6079  428 429 6080  428 529 6080  429 530 6080  529 530 6080  429 430 6081  429 530 6081  430 531 6081  530 531 6081  430 431 6082  430 531 6082  431 532 6082  531 532 6082  431 432 6083  431 532 6083  432 533 6083  532 533 6083  432 433 6084  432 533 6084  433 534 6084  533 534 6084  433 434 6085  433 534 6085  434 535 6085  534 535 6085  434 435 6086  434 535 6086  435 536 6086  535 536 6086  435 436 6087  435 536 6087  436 537 6087  536 537 6087  436 437 6088  436 537 6088  437 538 6088  537 538 6088  437 438 6089  437 538 6089  438 539 6089  538 539 6089  438 439 6090  438 539 6090  439 540 6090  539 540 6090  439 440 6091  439 540 6091  440 541 6091  540 541 6091  440 441 6092  440 541 6092  441 542 6092  541 542 6092  441 442 6093  441 542 6093  442 543 6093  542 543 6093  442 443 6094  442 543 6094  443 544 6094  543 544 6094  443 444 6095  443 544 6095  444 545 6095  544 545 6095  444 445 6096  444 545 6096  445 546 6096  545 546 6096  445 446 6097  445 546 6097  446 547 6097  546 547 6097  446 447 6098  446 547 6098  447 548 6098  547 548 6098  447 448 6099  447 548 6099  448 549 6099  548 549 6099  448 449 6100  448 549 6100  449 550 6100  549 550 6100  449 450 6101  449 550 6101  450 551 6101  550 551 6101  450 451 6102  450 551 6102  451 552 6102  551 552 6102  451 452 6103  451 552 6103  452 553 6103  552 553 6103  452 453 6104  452 553 6104  453 554 6104  553 554 6104  453 454 6105  453 554 6105  454 555 6105  554 555 6105  454 455 6106  454 555 6106  455 556 6106  555 556 6106  455 456 6107  455 556 6107  456 557 6107  556 557 6107  456 457 6108  456 557 6108  457 558 6108  557 558 6108  457 458 6109  457 558 6109  458 559 6109  558 559 6109  458 459 6110  458 559 6110  459 560 6110  559 560 6110  459 460 6111  459 560 6111  460 561 6111  560 561 6111  460 461 6112  460 561 6112  461 562 6112  561 562 6112  461 462 6113  461 562 6113  462 563 6113  562 563 6113  462 463 6114  462 563 6114  463 564 6114  563 564 6114  463 464 6115  463 564 6115  464 565 6115  564 565 6115  464 465 6116  464 565 6116  465 566 6116  565 566 6116  465 466 6117  465 566 6117  466 567 6117  566 567 6117  466 467 6118  466 567 6118  467 568 6118  567 568 6118  467 468 6119  467 568 6119  468 569 6119  568 569 6119  468 469 6120  468 569 6120  469 570 6120  569 570 6120  469 470 6121  469 570 6121  470 571 6121  570 571 6121  470 471 6122  470 571 6122  471 572 6122  571 572 6122  471 472 6123  471 572 6123  472 573 6123  572 573 6123  472 473 6124  472 573 6124  473 574 6124  573 574 6124  473 474 6125  473 574 6125  474 575 6125  574 575 6125  474 475 6126  474 575 6126  475 576 6126  575 576 6126  475 476 6127  475 576 6127  476 577 6127  576 577 6127  476 477 6128  476 577 6128  477 578 6128  577 578 6128  477 478 6129  477 578 6129  478 579 6129  578 579 6129  478 479 6130  478 579 6130  479 580 6130  579 580 6130  479 480 6131  479 580 6131  480 581 6131  580 581 6131  480 481 6132  480 581 6132  481 582 6132  581 582 6132  481 482 6133  481 582 6133  482 583 6133  582 583 6133  482 483 6134  482 583 6134  483 584 6134  583 584 6134  483 484 6135  483 584 6135  484 585 6135  584 585 6135  484 485 6136  484 585 6136  485 586 6136  585 586 6136  485 486 6137  485 586 6137  486 587 6137  586 587 6137  486 487 6138  486 587 6138  487 588 6138  587 588 6138  487 488 6139  487 588 6139  488 589 6139  588 589 6139  488 489 6140  488 589 6140  489 590 6140  589 590 6140  489 490 6141  489 590 6141  490 591 6141  590 591 6141  490 491 6142  490 591 6142  491 592 6142  591 592 6142  491 492 6143  491 592 6143  492 593 6143  592 593 6143  492 493 6144  492 593 6144  493 594 6144  593 594 6144  493 494 6145  493 594 6145  494 595 6145  594 595 6145  494 495 6146  494 595 6146  495 596 6146  595 596 6146  495 496 6147  495 596 6147  496 597 6147  596 597 6147  496 497 6148  496 597 6148  497 598 6148  597 598 6148  497 498 6149  497 598 6149  498 599 6149  598 599 6149  498 499 6150  498 599 6150  499 600 6150  599 600 6150  499 500 6151  499 600 6151  500 601 6151  600 601 6151  500 501 6152  500 601 6152  501 602 6152  601 602 6152  501 502 6153  501 602 6153  502 603 6153  602 603 6153  502 503 6154  502 603 6154  503 604 6154  603 604 6154  503 504 6155  503 604 6155  504 605 6155  604 605 6155  505 506 6156  505 606 6156  506 607 6156  606 607 6156  506 507 6157  506 607 6157  507 608 6157  607 608 6157  507 508 6158  507 608 6158  508 609 6158  608 609 6158  508 509 6159  508 609 6159  509 610 6159  609 610 6159  509 510 6160  509 610 6160  510 611 6160  610 611 6160  510 511 6161  510 611 6161  511 612 6161  611 612 6161  511 512 6162  511 612 6162  512 613 6162  612 613 6162  512 513 6163  512 613 6163  513 614 6163  613 614 6163  513 514 6164  513 614 6164  514 615 6164  614 615 6164  514 515 6165  514 615 6165  515 616 6165  615 616 6165  515 516 6166  515 616 6166  516 617 6166  616 617 6166  516 517 6167  516 617 6167  517 618 6167  617 618 6167  517 518 6168  517 618 6168  518 619 6168  618 619 6168  518 519 6169  518 619 6169  519 620 6169  619 620 6169  519 520 6170  519 620 6170  520 621 6170  620 621 6170  520 521 6171  520 621 6171  521 622 6171  621 622 6171  521 522 6172  521 622 6172  522 623 6172  622 623 6172  522 523 6173  522 623 6173  523 624 6173  623 624 6173  523 524 6174  523 624 6174  524 625 6174  624 625 6174  524 525 6175  524 625 6175  525 626 6175  625 626 6175  525 526 6176  525 626 6176  526 627 6176  626 627 6176  526 527 6177  526 627 6177  527 628 6177  627 628 6177  527 528 6178  527 628 6178  528 629 6178  628 629 6178  528 529 6179  528 629 6179  529 630 6179  629 630 6179  529 530 6180  529 630 6180  530 631 6180  630 631 6180  530 531 6181  530 631 6181  531 632 6181  631 632 6181  531 532 6182  531 632 6182  532 633 6182  632 633 6182  532 533 6183  532 633 6183  533 634 6183  633 634 6183  533 534 6184  533 634 6184  534 635 6184  634 635 6184  534 535 6185  534 635 6185  535 636 6185  635 636 6185  535 536 6186  535 636 6186  536 637 6186  636 637 6186  536 537 6187  536 637 6187  537 638 6187  637 638 6187  537 538 6188  537 638 6188  538 639 6188  638 639 6188  538 539 6189  538 639 6189  539 640 6189  639 640 6189  539 540 6190  539 640 6190  540 641 6190  640 641 6190  540 541 6191  540 641 6191  541 642 6191  641 642 6191  541 542 6192  541 642 6192  542 643 6192  642 643 6192  542 543 6193  542 643 6193  543 644 6193  643 644 6193  543 544 6194  543 644 6194  544 645 6194  644 645 6194  544 545 6195  544 645 6195  545 646 6195  645 646 6195  545 546 6196  545 646 6196  546 647 6196  646 647 6196  546 547 6197  546 647 6197  547 648 6197  647 648 6197  547 548 6198  547 648 6198  548 649 6198  648 649 6198  548 549 6199  548 649 6199  549 650 6199  649 650 6199  549 550 6200  549 650 6200  550 651 6200  650 651 6200  550 551 6201  550 651 6201  551 652 6201  651 652 6201  551 552 6202  551 652 6202  552 653 6202  652 653 6202  552 553 6203  552 653 6203  553 654 6203  653 654 6203  553 554 6204  553 654 6204  554 655 6204  654 655 6204  554 555 6205  554 655 6205  555 656 6205  655 656 6205  555 556 6206  555 656 6206  556 657 6206  656 657 6206  556 557 6207  556 657 6207  557 658 6207  657 658 6207  557 558 6208  557 658 6208  558 659 6208  658 659 6208  558 559 6209  558 659 6209  559 660 6209  659 660 6209  559 560 6210  559 660 6210  560 661 6210  660 661 6210  560 561 6211  560 661 6211  561 662 6211  661 662 6211  561 562 6212  561 662 6212  562 663 6212  662 663 6212  562 563 6213  562 663 6213  563 664 6213  663 664 6213  563 564 6214  563 664 6214  564 665 6214  664 665 6214  564 565 6215  564 665 6215  565 666 6215  665 666 6215  565 566 6216  565 666 6216  566 667 6216  666 667 6216  566 567 6217  566 667 6217  567 668 6217  667 668 6217  567 568 6218  567 668 6218  568 669 6218  668 669 6218  568 569 6219  568 669 6219  569 670 6219  669 670 6219  569 570 6220  569 670 6220  570 671 6220  670 671 6220  570 571 6221  570 671 6221  571 672 6221  671 672 6221  571 572 6222  571 672 6222  572 673 6222  672 673 6222  572 573 6223  572 673 6223  573 674 6223  673 674 6223  573 574 6224  573 674 6224  574 675 6224  674 675 6224  574 575 6225  574 675 6225  575 676 6225  675 676 6225  575 576 6226  575 676 6226  576 677 6226  676 677 6226  576 577 6227  576 677 6227  577 678 6227  677 678 6227  577 578 6228  577 678 6228  578 679 6228  678 679 6228  578 579 6229  578 679 6229  579 680 6229  679 680 6229  579 580 6230  579 680 6230  580 681 6230  680 681 6230  580 581 6231  580 681 6231  581 682 6231  681 682 6231  581 582 6232  581 682 6232  582 683 6232  682 683 6232  582 583 6233  582 683 6233  583 684 6233  683 684 6233  583 584 6234  583 684 6234  584 685 6234  684 685 6234  584 585 6235  584 685 6235  585 686 6235  685 686 6235  585 586 6236  585 686 6236  586 687 6236  686 687 6236  586 587 6237  586 687 6237  587 688 6237  687 688 6237  587 588 6238  587 688 6238  588 689 6238  688 689 6238  588 589 6239  588 689 6239  589 690 6239  689 690 6239  589 590 6240  589 690 6240  590 691 6240  690 691 6240  590 591 6241  590 691 6241  591 692 6241  691 692 6241  591 592 6242  591 692 6242  592 693 6242  692 693 6242  592 593 6243  592 693 6243  593 694 6243  693 694 6243  593 594 6244  593 694 6244  594 695 6244  694 695 6244  594 595 6245  594 695 6245  595 696 6245  695 696 6245  595 596 6246  595 696 6246  596 697 6246  696 697 6246  596 597 6247  596 697 6247  597 698 6247  697 698 6247  597 598 6248  597 698 6248  598 699 6248  698 699 6248  598 599 6249  598 699 6249  599 700 6249  699 700 6249  599 600 6250  599 700 6250  600 701 6250  700 701 6250  600 601 6251  600 701 6251  601 702 6251  701 702 6251  601 602 6252  601 702 6252  602 703 6252  702 703 6252  602 603 6253  602 703 6253  603 704 6253  703 704 6253  603 604 6254  603 704 6254  604 705 6254  704 705 6254  604 605 6255  604 705 6255  605 706 6255  705 706 6255  606 607 6256  606 707 6256  607 708 6256  707 708 6256  607 608 6257  607 708 6257  608 709 6257  708 709 6257  608 609 6258  608 709 6258  609 710 6258  709 710 6258  609 610 6259  609 710 6259  610 711 6259  710 711 6259  610 611 6260  610 711 6260  611 712 6260  711 712 6260  611 612 6261  611 712 6261  612 713 6261  712 713 6261  612 613 6262  612 713 6262  613 714 6262  713 714 6262  613 614 6263  613 714 6263  614 715 6263  714 715 6263  614 615 6264  614 715 6264  615 716 6264  715 716 6264  615 616 6265  615 716 6265  616 717 6265  716 717 6265  616 617 6266  616 717 6266  617 718 6266  717 718 6266  617 618 6267  617 718 6267  618 719 6267  718 719 6267  618 619 6268  618 719 6268  619 720 6268  719 720 6268  619 620 6269  619 720 6269  620 721 6269  720 721 6269  620 621 6270  620 721 6270  621 722 6270  721 722 6270  621 622 6271  621 722 6271  622 723 6271  722 723 6271  622 623 6272  622 723 6272  623 724 6272  723 724 6272  623 624 6273  623 724 6273  624 725 6273  724 725 6273  624 625 6274  624 725 6274  625 726 6274  725 726 6274  625 626 6275  625 726 6275  626 727 6275  726 727 6275  626 627 6276  626 727 6276  627 728 6276  727 728 6276  627 628 6277  627 728 6277  628 729 6277  728 729 6277  628 629 6278  628 729 6278  629 730 6278  729 730 6278  629 630 6279  629 730 6279  630 731 6279  730 731 6279  630 631 6280  630 731 6280  631 732 6280  731 732 6280  631 632 6281  631 732 6281  632 733 6281  732 733 6281  632 633 6282  632 733 6282  633 734 6282  733 734 6282  633 634 6283  633 734 6283  634 735 6283  734 735 6283  634 635 6284  634 735 6284  635 736 6284  735 736 6284  635 636 6285  635 736 6285  636 737 6285  736 737 6285  636 637 6286  636 737 6286  637 738 6286  737 738 6286  637 638 6287  637 738 6287  638 739 6287  738 739 6287  638 639 6288  638 739 6288  639 740 6288  739 740 6288  639 640 6289  639 740 6289  640 741 6289  740 741 6289  640 641 6290  640 741 6290  641 742 6290  741 742 6290  641 642 6291  641 742 6291  642 743 6291  742 743 6291  642 643 6292  642 743 6292  643 744 6292  743 744 6292  643 644 6293  643 744 6293  644 745 6293  744 745 6293  644 645 6294  644 745 6294  645 746 6294  745 746 6294  645 646 6295  645 746 6295  646 747 6295  746 747 6295  646 647 6296  646 747 6296  647 748 6296  747 748 6296  647 648 6297  647 748 6297  648 749 6297  748 749 6297  648 649 6298  648 749 6298  649 750 6298  749 750 6298  649 650 6299  649 750 6299  650 751 6299  750 751 6299  650 651 6300  650 751 6300  651 752 6300  751 752 6300  651 652 6301  651 752 6301  652 753 6301  752 753 6301  652 653 6302  652 753 6302  653 754 6302  753 754 6302  653 654 6303  653 754 6303  654 755 6303  754 755 6303  654 655 6304  654 755 6304  655 756 6304  755 756 6304  655 656 6305  655 756 6305  656 757 6305  756 757 6305  656 657 6306  656 757 6306  657 758 6306  757 758 6306  657 658 6307  657 758 6307  658 759 6307  758 759 6307  658 659 6308  658 759 6308  659 760 6308  759 760 6308  659 660 6309  659 760 6309  660 761 6309  760 761 6309  660 661 6310  660 761 6310  661 762 6310  761 762 6310  661 662 6311  661 762 6311  662 763 6311  762 763 6311  662 663 6312  662 763 6312  663 764 6312  763 764 6312  663 664 6313  663 764 6313  664 765 6313  764 765 6313  664 665 6314  664 765 6314  665 766 6314  765 766 6314  665 666 6315  665 766 6315  666 767 6315  766 767 6315  666 667 6316  666 767 6316  667 768 6316  767 768 6316  667 668 6317  667 768 6317  668 769 6317  768 769 6317  668 669 6318  668 769 6318  669 770 6318  769 770 6318  669 670 6319  669 770 6319  670 771 6319  770 771 6319  670 671 6320  670 771 6320  671 772 6320  771 772 6320  671 672 6321  671 772 6321  672 773 6321  772 773 6321  672 673 6322  672 773 6322  673 774 6322  773 774 6322  673 674 6323  673 774 6323  674 775 6323  774 775 6323  674 675 6324  674 775 6324  675 776 6324  775 776 6324  675 676 6325  675 776 6325  676 777 6325  776 777 6325  676 677 6326  676 777 6326  677 778 6326  777 778 6326  677 678 6327  677 778 6327  678 779 6327  778 779 6327  678 679 6328  678 779 6328  679 780 6328  779 780 6328  679 680 6329  679 780 6329  680 781 6329  780 781 6329  680 681 6330  680 781 6330  681 782 6330  781 782 6330  681 682 6331  681 782 6331  682 783 6331  782 783 6331  682 683 6332  682 783 6332  683 784 6332  783 784 6332  683 684 6333  683 784 6333  684 785 6333  784 785 6333  684 685 6334  684 785 6334  685 786 6334  785 786 6334  685 686 6335  685 786 6335  686 787 6335  786 787 6335  686 687 6336  686 787 6336  687 788 6336  787 788 6336  687 688 6337  687 788 6337  688 789 6337  788 789 6337  688 689 6338  688 789 6338  689 790 6338  789 790 6338  689 690 6339  689 790 6339  690 791 6339  790 791 6339  690 691 6340  690 791 6340  691 792 6340  791 792 6340  691 692 6341  691 792 6341  692 793 6341  792 793 6341  692 693 6342  692 793 6342  693 794 6342  793 794 6342  693 694 6343  693 794 6343  694 795 6343  794 795 6343  694 695 6344  694 795 6344  695 796 6344  795 796 6344  695 696 6345  695 796 6345  696 797 6345  796 797 6345  696 697 6346  696 797 6346  697 798 6346  797 798 6346  697 698 6347  697 798 6347  698 799 6347  798 799 6347  698 699 6348  698 799 6348  699 800 6348  799 800 6348  699 700 6349  699 800 6349  700 801 6349  800 801 6349  700 701 6350  700 801 6350  701 802 6350  801 802 6350  701 702 6351  701 802 6351  702 803 6351  802 803 6351  702 703 6352  702 803 6352  703 804 6352  803 804 6352  703 704 6353  703 804 6353  704 805 6353  804 805 6353  704 705 6354  704 805 6354  705 806 6354  805 806 6354  705 706 6355  705 806 6355  706 807 6355  806 807 6355  707 708 6356  707 808 6356  708 809 6356  808 809 6356  708 709 6357  708 809 6357  709 810 6357  809 810 6357  709 710 6358  709 810 6358  710 811 6358  810 811 6358  710 711 6359  710 811 6359  711 812 6359  811 812 6359  711 712 6360  711 812 6360  712 813 6360  812 813 6360  712 713 6361  712 813 6361  713 814 6361  813 814 6361  713 714 6362  713 814 6362  714 815 6362  814 815 6362  714 715 6363  714 815 6363  715 816 6363  815 816 6363  715 716 6364  715 816 6364  716 817 6364  816 817 6364  716 717 6365  716 817 6365  717 818 6365  817 818 6365  717 718 6366  717 818 6366  718 819 6366  818 819 6366  718 719 6367  718 819 6367  719 820 6367  819 820 6367  719 720 6368  719 820 6368  720 821 6368  820 821 6368  720 721 6369  720 821 6369  721 822 6369  821 822 6369  721 722 6370  721 822 6370  722 823 6370  822 823 6370  722 723 6371  722 823 6371  723 824 6371  823 824 6371  723 724 6372  723 824 6372  724 825 6372  824 825 6372  724 725 6373  724 825 6373  725 826 6373  825 826 6373  725 726 6374  725 826 6374  726 827 6374  826 827 6374  726 727 6375  726 827 6375  727 828 6375  827 828 6375  727 728 6376  727 828 6376  728 829 6376  828 829 6376  728 729 6377  728 829 6377  729 830 6377  829 830 6377  729 730 6378  729 830 6378  730 831 6378  830 831 6378  730 731 6379  730 831 6379  731 832 6379  831 832 6379  731 732 6380  731 832 6380  732 833 6380  832 833 6380  732 733 6381  732 833 6381  733 834 6381  833 834 6381  733 734 6382  733 834 6382  734 835 6382  834 835 6382  734 735 6383  734 835 6383  735 836 6383  835 836 6383  735 736 6384  735 836 6384  736 837 6384  836 837 6384  736 737 6385  736 837 6385  737 838 6385  837 838 6385  737 738 6386  737 838 6386  738 839 6386  838 839 6386  738 739 6387  738 839 6387  739 840 6387  839 840 6387  739 740 6388  739 840 6388  740 841 6388  840 841 6388  740 741 6389  740 841 6389  741 842 6389  841 842 6389  741 742 6390  741 842 6390  742 843 6390  842 843 6390  742 743 6391  742 843 6391  743 844 6391  843 844 6391  743 744 6392  743 844 6392  744 845 6392  844 845 6392  744 745 6393  744 845 6393  745 846 6393  845 846 6393  745 746 6394  745 846 6394  746 847 6394  846 847 6394  746 747 6395  746 847 6395  747 848 6395  847 848 6395  747 748 6396  747 848 6396  748 849 6396  848 849 6396  748 749 6397  748 849 6397  749 850 6397  849 850 6397  749 750 6398  749 850 6398  750 851 6398  850 851 6398  750 751 6399  750 851 6399  751 852 6399  851 852 6399  751 752 6400  751 852 6400  752 853 6400  852 853 6400  752 753 6401  752 853 6401  753 854 6401  853 854 6401  753 754 6402  753 854 6402  754 855 6402  854 855 6402  754 755 6403  754 855 6403  755 856 6403  855 856 6403  755 756 6404  755 856 6404  756 857 6404  856 857 6404  756 757 6405  756 857 6405  757 858 6405  857 858 6405  757 758 6406  757 858 6406  758 859 6406  858 859 6406  758 759 6407  758 859 6407  759 860 6407  859 860 6407  759 760 6408  759 860 6408  760 861 6408  860 861 6408  760 761 6409  760 861 6409  761 862 6409  861 862 6409  761 762 6410  761 862 6410  762 863 6410  862 863 6410  762 763 6411  762 863 6411  763 864 6411  863 864 6411  763 764 6412  763 864 6412  764 865 6412  864 865 6412  764 765 6413  764 865 6413  765 866 6413  865 866 6413  765 766 6414  765 866 6414  766 867 6414  866 867 6414  766 767 6415  766 867 6415  767 868 6415  867 868 6415  767 768 6416  767 868 6416  768 869 6416  868 869 6416  768 769 6417  768 869 6417  769 870 6417  869 870 6417  769 770 6418  769 870 6418  770 871 6418  870 871 6418  770 771 6419  770 871 6419  771 872 6419  871 872 6419  771 772 6420  771 872 6420  772 873 6420  872 873 6420  772 773 6421  772 873 6421  773 874 6421  873 874 6421  773 774 6422  773 874 6422  774 875 6422  874 875 6422  774 775 6423  774 875 6423  775 876 6423  875 876 6423  775 776 6424  775 876 6424  776 877 6424  876 877 6424  776 777 6425  776 877 6425  777 878 6425  877 878 6425  777 778 6426  777 878 6426  778 879 6426  878 879 6426  778 779 6427  778 879 6427  779 880 6427  879 880 6427  779 780 6428  779 880 6428  780 881 6428  880 881 6428  780 781 6429  780 881 6429  781 882 6429  881 882 6429  781 782 6430  781 882 6430  782 883 6430  882 883 6430  782 783 6431  782 883 6431  783 884 6431  883 884 6431  783 784 6432  783 884 6432  784 885 6432  884 885 6432  784 785 6433  784 885 6433  785 886 6433  885 886 6433  785 786 6434  785 886 6434  786 887 6434  886 887 6434  786 787 6435  786 887 6435  787 888 6435  887 888 6435  787 788 6436  787 888 6436  788 889 6436  888 889 6436  788 789 6437  788 889 6437  789 890 6437  889 890 6437  789 790 6438  789 890 6438  790 891 6438  890 891 6438  790 791 6439  790 891 6439  791 892 6439  891 892 6439  791 792 6440  791 892 6440  792 893 6440  892 893 6440  792 793 6441  792 893 6441  793 894 6441  893 894 6441  793 794 6442  793 894 6442  794 895 6442  894 895 6442  794 795 6443  794 895 6443  795 896 6443  895 896 6443  795 796 6444  795 896 6444  796 897 6444  896 897 6444  796 797 6445  796 897 6445  797 898 6445  897 898 6445  797 798 6446  797 898 6446  798 899 6446  898 899 6446  798 799 6447  798 899 6447  799 900 6447  899 900 6447  799 800 6448  799 900 6448  800 901 6448  900 901 6448  800 801 6449  800 901 6449  801 902 6449  901 902 6449  801 802 6450  801 902 6450  802 903 6450  902 903 6450  802 803 6451  802 903 6451  803 904 6451  903 904 6451  803 804 6452  803 904 6452  804 905 6452  904 905 6452  804 805 6453  804 905 6453  805 906 6453  905 906 6453  805 806 6454  805 906 6454  806 907 6454  906 907 6454  806 807 6455  806 907 6455  807 908 6455  907 908 6455  808 809 6456  808 909 6456  809 910 6456  909 910 6456  809 810 6457  809 910 6457  810 911 6457  910 911 6457  810 811 6458  810 911 6458  811 912 6458  911 912 6458  811 812 6459  811 912 6459  812 913 6459  912 913 6459  812 813 6460  812 913 6460  813 914 6460  913 914 6460  813 814 6461  813 914 6461  814 915 6461  914 915 6461  814 815 6462  814 915 6462  815 916 6462  915 916 6462  815 816 6463  815 916 6463  816 917 6463  916 917 6463  816 817 6464  816 917 6464  817 918 6464  917 918 6464  817 818 6465  817 918 6465  818 919 6465  918 919 6465  818 819 6466  818 919 6466  819 920 6466  919 920 6466  819 820 6467  819 920 6467  820 921 6467  920 921 6467  820 821 6468  820 921 6468  821 922 6468  921 922 6468  821 822 6469  821 922 6469  822 923 6469  922 923 6469  822 823 6470  822 923 6470  823 924 6470  923 924 6470  823 824 6471  823 924 6471  824 925 6471  924 925 6471  824 825 6472  824 925 6472  825 926 6472  925 926 6472  825 826 6473  825 926 6473  826 927 6473  926 927 6473  826 827 6474  826 927 6474  827 928 6474  927 928 6474  827 828 6475  827 928 6475  828 929 6475  928 929 6475  828 829 6476  828 929 6476  829 930 6476  929 930 6476  829 830 6477  829 930 6477  830 931 6477  930 931 6477  830 831 6478  830 931 6478  831 932 6478  931 932 6478  831 832 6479  831 932 6479  832 933 6479  932 933 6479  832 833 6480  832 933 6480  833 934 6480  933 934 6480  833 834 6481  833 934 6481  834 935 6481  934 935 6481  834 835 6482  834 935 6482  835 936 6482  935 936 6482  835 836 6483  835 936 6483  836 937 6483  936 937 6483  836 837 6484  836 937 6484  837 938 6484  937 938 6484  837 838 6485  837 938 6485  838 939 6485  938 939 6485  838 839 6486  838 939 6486  839 940 6486  939 940 6486  839 840 6487  839 940 6487  840 941 6487  940 941 6487  840 841 6488  840 941 6488  841 942 6488  941 942 6488  841 842 6489  841 942 6489  842 943 6489  942 943 6489  842 843 6490  842 943 6490  843 944 6490  943 944 6490  843 844 6491  843 944 6491  844 945 6491  944 945 6491  844 845 6492  844 945 6492  845 946 6492  945 946 6492  845 846 6493  845 946 6493  846 947 6493  946 947 6493  846 847 6494  846 947 6494  847 948 6494  947 948 6494  847 848 6495  847 948 6495  848 949 6495  948 949 6495  848 849 6496  848 949 6496  849 950 6496  949 950 6496  849 850 6497  849 950 6497  850 951 6497  950 951 6497  850 851 6498  850 951 6498  851 952 6498  951 952 6498  851 852 6499  851 952 6499  852 953 6499  952 953 6499  852 853 6500  852 953 6500  853 954 6500  953 954 6500  853 854 6501  853 954 6501  854 955 6501  954 955 6501  854 855 6502  854 955 6502  855 956 6502  955 956 6502  855 856 6503  855 956 6503  856 957 6503  956 957 6503  856 857 6504  856 957 6504  857 958 6504  957 958 6504  857 858 6505  857 958 6505  858 959 6505  958 959 6505  858 859 6506  858 959 6506  859 960 6506  959 960 6506  859 860 6507  859 960 6507  860 961 6507  960 961 6507  860 861 6508  860 961 6508  861 962 6508  961 962 6508  861 862 6509  861 962 6509  862 963 6509  962 963 6509  862 863 6510  862 963 6510  863 964 6510  963 964 6510  863 864 6511  863 964 6511  864 965 6511  964 965 6511  864 865 6512  864 965 6512  865 966 6512  965 966 6512  865 866 6513  865 966 6513  866 967 6513  966 967 6513  866 867 6514  866 967 6514  867 968 6514  967 968 6514  867 868 6515  867 968 6515  868 969 6515  968 969 6515  868 869 6516  868 969 6516  869 970 6516  969 970 6516  869 870 6517  869 970 6517  870 971 6517  970 971 6517  870 871 6518  870 971 6518  871 972 6518  971 972 6518  871 872 6519  871 972 6519  872 973 6519  972 973 6519  872 873 6520  872 973 6520  873 974 6520  973 974 6520  873 874 6521  873 974 6521  874 975 6521  974 975 6521  874 875 6522  874 975 6522  875 976 6522  975 976 6522  875 876 6523  875 976 6523  876 977 6523  976 977 6523  876 877 6524  876 977 6524  877 978 6524  977 978 6524  877 878 6525  877 978 6525  878 979 6525  978 979 6525  878 879 6526  878 979 6526  879 980 6526  979 980 6526  879 880 6527  879 980 6527  880 981 6527  980 981 6527  880 881 6528  880 981 6528  881 982 6528  981 982 6528  881 882 6529  881 982 6529  882 983 6529  982 983 6529  882 883 6530  882 983 6530  883 984 6530  983 984 6530  883 884 6531  883 984 6531  884 985 6531  984 985 6531  884 885 6532  884 985 6532  885 986 6532  985 986 6532  885 886 6533  885 986 6533  886 987 6533  986 987 6533  886 887 6534  886 987 6534  887 988 6534  987 988 6534  887 888 6535  887 988 6535  888 989 6535  988 989 6535  888 889 6536  888 989 6536  889 990 6536  989 990 6536  889 890 6537  889 990 6537  890 991 6537  990 991 6537  890 891 6538  890 991 6538  891 992 6538  991 992 6538  891 892 6539  891 992 6539  892 993 6539  992 993 6539  892 893 6540  892 993 6540  893 994 6540  993 994 6540  893 894 6541  893 994 6541  894 995 6541  994 995 6541  894 895 6542  894 995 6542  895 996 6542  995 996 6542  895 896 6543  895 996 6543  896 997 6543  996 997 6543  896 897 6544  896 997 6544  897 998 6544  997 998 6544  897 898 6545  897 998 6545  898 999 6545  998 999 6545  898 899 6546  898 999 6546  899 1000 6546  999 1000 6546  899 900 6547  899 1000 6547  900 1001 6547  1000 1001 6547  900 901 6548  900 1001 6548  901 1002 6548  1001 1002 6548  901 902 6549  901 1002 6549  902 1003 6549  1002 1003 6549  902 903 6550  902 1003 6550  903 1004 6550  1003 1004 6550  903 904 6551  903 1004 6551  904 1005 6551  1004 1005 6551  904 905 6552  904 1005 6552  905 1006 6552  1005 1006 6552  905 906 6553  905 1006 6553  906 1007 6553  1006 1007 6553  906 907 6554  906 1007 6554  907 1008 6554  1007 1008 6554  907 908 6555  907 1008 6555  908 1009 6555  1008 1009 6555  909 910 6556  909 1010 6556  910 1011 6556  1010 1011 6556  910 911 6557  910 1011 6557  911 1012 6557  1011 1012 6557  911 912 6558  911 1012 6558  912 1013 6558  1012 1013 6558  912 913 6559  912 1013 6559  913 1014 6559  1013 1014 6559  913 914 6560  913 1014 6560  914 1015 6560  1014 1015 6560  914 915 6561  914 1015 6561  915 1016 6561  1015 1016 6561  915 916 6562  915 1016 6562  916 1017 6562  1016 1017 6562  916 917 6563  916 1017 6563  917 1018 6563  1017 1018 6563  917 918 6564  917 1018 6564  918 1019 6564  1018 1019 6564  918 919 6565  918 1019 6565  919 1020 6565  1019 1020 6565  919 920 6566  919 1020 6566  920 1021 6566  1020 1021 6566  920 921 6567  920 1021 6567  921 1022 6567  1021 1022 6567  921 922 6568  921 1022 6568  922 1023 6568  1022 1023 6568  922 923 6569  922 1023 6569  923 1024 6569  1023 1024 6569  923 924 6570  923 1024 6570  924 1025 6570  1024 1025 6570  924 925 6571  924 1025 6571  925 1026 6571  1025 1026 6571  925 926 6572  925 1026 6572  926 1027 6572  1026 1027 6572  926 927 6573  926 1027 6573  927 1028 6573  1027 1028 6573  927 928 6574  927 1028 6574  928 1029 6574  1028 1029 6574  928 929 6575  928 1029 6575  929 1030 6575  1029 1030 6575  929 930 6576  929 1030 6576  930 1031 6576  1030 1031 6576  930 931 6577  930 1031 6577  931 1032 6577  1031 1032 6577  931 932 6578  931 1032 6578  932 1033 6578  1032 1033 6578  932 933 6579  932 1033 6579  933 1034 6579  1033 1034 6579  933 934 6580  933 1034 6580  934 1035 6580  1034 1035 6580  934 935 6581  934 1035 6581  935 1036 6581  1035 1036 6581  935 936 6582  935 1036 6582  936 1037 6582  1036 1037 6582  936 937 6583  936 1037 6583  937 1038 6583  1037 1038 6583  937 938 6584  937 1038 6584  938 1039 6584  1038 1039 6584  938 939 6585  938 1039 6585  939 1040 6585  1039 1040 6585  939 940 6586  939 1040 6586  940 1041 6586  1040 1041 6586  940 941 6587  940 1041 6587  941 1042 6587  1041 1042 6587  941 942 6588  941 1042 6588  942 1043 6588  1042 1043 6588  942 943 6589  942 1043 6589  943 1044 6589  1043 1044 6589  943 944 6590  943 1044 6590  944 1045 6590  1044 1045 6590  944 945 6591  944 1045 6591  945 1046 6591  1045 1046 6591  945 946 6592  945 1046 6592  946 1047 6592  1046 1047 6592  946 947 6593  946 1047 6593  947 1048 6593  1047 1048 6593  947 948 6594  947 1048 6594  948 1049 6594  1048 1049 6594  948 949 6595  948 1049 6595  949 1050 6595  1049 1050 6595  949 950 6596  949 1050 6596  950 1051 6596  1050 1051 6596  950 951 6597  950 1051 6597  951 1052 6597  1051 1052 6597  951 952 6598  951 1052 6598  952 1053 6598  1052 1053 6598  952 953 6599  952 1053 6599  953 1054 6599  1053 1054 6599  953 954 6600  953 1054 6600  954 1055 6600  1054 1055 6600  954 955 6601  954 1055 6601  955 1056 6601  1055 1056 6601  955 956 6602  955 1056 6602  956 1057 6602  1056 1057 6602  956 957 6603  956 1057 6603  957 1058 6603  1057 1058 6603  957 958 6604  957 1058 6604  958 1059 6604  1058 1059 6604  958 959 6605  958 1059 6605  959 1060 6605  1059 1060 6605  959 960 6606  959 1060 6606  960 1061 6606  1060 1061 6606  960 961 6607  960 1061 6607  961 1062 6607  1061 1062 6607  961 962 6608  961 1062 6608  962 1063 6608  1062 1063 6608  962 963 6609  962 1063 6609  963 1064 6609  1063 1064 6609  963 964 6610  963 1064 6610  964 1065 6610  1064 1065 6610  964 965 6611  964 1065 6611  965 1066 6611  1065 1066 6611  965 966 6612  965 1066 6612  966 1067 6612  1066 1067 6612  966 967 6613  966 1067 6613  967 1068 6613  1067 1068 6613  967 968 6614  967 1068 6614  968 1069 6614  1068 1069 6614  968 969 6615  968 1069 6615  969 1070 6615  1069 1070 6615  969 970 6616  969 1070 6616  970 1071 6616  1070 1071 6616  970 971 6617  970 1071 6617  971 1072 6617  1071 1072 6617  971 972 6618  971 1072 6618  972 1073 6618  1072 1073 6618  972 973 6619  972 1073 6619  973 1074 6619  1073 1074 6619  973 974 6620  973 1074 6620  974 1075 6620  1074 1075 6620  974 975 6621  974 1075 6621  975 1076 6621  1075 1076 6621  975 976 6622  975 1076 6622  976 1077 6622  1076 1077 6622  976 977 6623  976 1077 6623  977 1078 6623  1077 1078 6623  977 978 6624  977 1078 6624  978 1079 6624  1078 1079 6624  978 979 6625  978 1079 6625  979 1080 6625  1079 1080 6625  979 980 6626  979 1080 6626  980 1081 6626  1080 1081 6626  980 981 6627  980 1081 6627  981 1082 6627  1081 1082 6627  981 982 6628  981 1082 6628  982 1083 6628  1082 1083 6628  982 983 6629  982 1083 6629  983 1084 6629  1083 1084 6629  983 984 6630  983 1084 6630  984 1085 6630  1084 1085 6630  984 985 6631  984 1085 6631  985 1086 6631  1085 1086 6631  985 986 6632  985 1086 6632  986 1087 6632  1086 1087 6632  986 987 6633  986 1087 6633  987 1088 6633  1087 1088 6633  987 988 6634  987 1088 6634  988 1089 6634  1088 1089 6634  988 989 6635  988 1089 6635  989 1090 6635  1089 1090 6635  989 990 6636  989 1090 6636  990 1091 6636  1090 1091 6636  990 991 6637  990 1091 6637  991 1092 6637  1091 1092 6637  991 992 6638  991 1092 6638  992 1093 6638  1092 1093 6638  992 993 6639  992 1093 6639  993 1094 6639  1093 1094 6639  993 994 6640  993 1094 6640  994 1095 6640  1094 1095 6640  994 995 6641  994 1095 6641  995 1096 6641  1095 1096 6641  995 996 6642  995 1096 6642  996 1097 6642  1096 1097 6642  996 997 6643  996 1097 6643  997 1098 6643  1097 1098 6643  997 998 6644  997 1098 6644  998 1099 6644  1098 1099 6644  998 999 6645  998 1099 6645  999 1100 6645  1099 1100 6645  999 1000 6646  999 1100 6646  1000 1101 6646  1100 1101 6646  1000 1001 6647  1000 1101 6647  1001 1102 6647  1101 1102 6647  1001 1002 6648  1001 1102 6648  1002 1103 6648  1102 1103 6648  1002 1003 6649  1002 1103 6649  1003 1104 6649  1103 1104 6649  1003 1004 6650  1003 1104 6650  1004 1105 6650  1104 1105 6650  1004 1005 6651  1004 1105 6651  1005 1106 6651  1105 1106 6651  1005 1006 6652  1005 1106 6652  1006 1107 6652  1106 1107 6652  1006 1007 6653  1006 1107 6653  1007 1108 6653  1107 1108 6653  1007 1008 6654  1007 1108 6654  1008 1109 6654  1108 1109 6654  1008 1009 6655  1008 1109 6655  1009 1110 6655  1109 1110 6655  1010 1011 6656  1010 1111 6656  1011 1112 6656  1111 1112 6656  1011 1012 6657  1011 1112 6657  1012 1113 6657  1112 1113 6657  1012 1013 6658  1012 1113 6658  1013 1114 6658  1113 1114 6658  1013 1014 6659  1013 1114 6659  1014 1115 6659  1114 1115 6659  1014 1015 6660  1014 1115 6660  1015 1116 6660  1115 1116 6660  1015 1016 6661  1015 1116 6661  1016 1117 6661  1116 1117 6661  1016 1017 6662  1016 1117 6662  1017 1118 6662  1117 1118 6662  1017 1018 6663  1017 1118 6663  1018 1119 6663  1118 1119 6663  1018 1019 6664  1018 1119 6664  1019 1120 6664  1119 1120 6664  1019 1020 6665  1019 1120 6665  1020 1121 6665  1120 1121 6665  1020 1021 6666  1020 1121 6666  1021 1122 6666  1121 1122 6666  1021 1022 6667  1021 1122 6667  1022 1123 6667  1122 1123 6667  1022 1023 6668  1022 1123 6668  1023 1124 6668  1123 1124 6668  1023 1024 6669  1023 1124 6669  1024 1125 6669  1124 1125 6669  1024 1025 6670  1024 1125 6670  1025 1126 6670  1125 1126 6670  1025 1026 6671  1025 1126 6671  1026 1127 6671  1126 1127 6671  1026 1027 6672  1026 1127 6672  1027 1128 6672  1127 1128 6672  1027 1028 6673  1027 1128 6673  1028 1129 6673  1128 1129 6673  1028 1029 6674  1028 1129 6674  1029 1130 6674  1129 1130 6674  1029 1030 6675  1029 1130 6675  1030 1131 6675  1130 1131 6675  1030 1031 6676  1030 1131 6676  1031 1132 6676  1131 1132 6676  1031 1032 6677  1031 1132 6677  1032 1133 6677  1132 1133 6677  1032 1033 6678  1032 1133 6678  1033 1134 6678  1133 1134 6678  1033 1034 6679  1033 1134 6679  1034 1135 6679  1134 1135 6679  1034 1035 6680  1034 1135 6680  1035 1136 6680  1135 1136 6680  1035 1036 6681  1035 1136 6681  1036 1137 6681  1136 1137 6681  1036 1037 6682  1036 1137 6682  1037 1138 6682  1137 1138 6682  1037 1038 6683  1037 1138 6683  1038 1139 6683  1138 1139 6683  1038 1039 6684  1038 1139 6684  1039 1140 6684  1139 1140 6684  1039 1040 6685  1039 1140 6685  1040 1141 6685  1140 1141 6685  1040 1041 6686  1040 1141 6686  1041 1142 6686  1141 1142 6686  1041 1042 6687  1041 1142 6687  1042 1143 6687  1142 1143 6687  1042 1043 6688  1042 1143 6688  1043 1144 6688  1143 1144 6688  1043 1044 6689  1043 1144 6689  1044 1145 6689  1144 1145 6689  1044 1045 6690  1044 1145 6690  1045 1146 6690  1145 1146 6690  1045 1046 6691  1045 1146 6691  1046 1147 6691  1146 1147 6691  1046 1047 6692  1046 1147 6692  1047 1148 6692  1147 1148 6692  1047 1048 6693  1047 1148 6693  1048 1149 6693  1148 1149 6693  1048 1049 6694  1048 1149 6694  1049 1150 6694  1149 1150 6694  1049 1050 6695  1049 1150 6695  1050 1151 6695  1150 1151 6695  1050 1051 6696  1050 1151 6696  1051 1152 6696  1151 1152 6696  1051 1052 6697  1051 1152 6697  1052 1153 6697  1152 1153 6697  1052 1053 6698  1052 1153 6698  1053 1154 6698  1153 1154 6698  1053 1054 6699  1053 1154 6699  1054 1155 6699  1154 1155 6699  1054 1055 6700  1054 1155 6700  1055 1156 6700  1155 1156 6700  1055 1056 6701  1055 1156 6701  1056 1157 6701  1156 1157 6701  1056 1057 6702  1056 1157 6702  1057 1158 6702  1157 1158 6702  1057 1058 6703  1057 1158 6703  1058 1159 6703  1158 1159 6703  1058 1059 6704  1058 1159 6704  1059 1160 6704  1159 1160 6704  1059 1060 6705  1059 1160 6705  1060 1161 6705  1160 1161 6705  1060 1061 6706  1060 1161 6706  1061 1162 6706  1161 1162 6706  1061 1062 6707  1061 1162 6707  1062 1163 6707  1162 1163 6707  1062 1063 6708  1062 1163 6708  1063 1164 6708  1163 1164 6708  1063 1064 6709  1063 1164 6709  1064 1165 6709  1164 1165 6709  1064 1065 6710  1064 1165 6710  1065 1166 6710  1165 1166 6710  1065 1066 6711  1065 1166 6711  1066 1167 6711  1166 1167 6711  1066 1067 6712  1066 1167 6712  1067 1168 6712  1167 1168 6712  1067 1068 6713  1067 1168 6713  1068 1169 6713  1168 1169 6713  1068 1069 6714  1068 1169 6714  1069 1170 6714  1169 1170 6714  1069 1070 6715  1069 1170 6715  1070 1171 6715  1170 1171 6715  1070 1071 6716  1070 1171 6716  1071 1172 6716  1171 1172 6716  1071 1072 6717  1071 1172 6717  1072 1173 6717  1172 1173 6717  1072 1073 6718  1072 1173 6718  1073 1174 6718  1173 1174 6718  1073 1074 6719  1073 1174 6719  1074 1175 6719  1174 1175 6719  1074 1075 6720  1074 1175 6720  1075 1176 6720  1175 1176 6720  1075 1076 6721  1075 1176 6721  1076 1177 6721  1176 1177 6721  1076 1077 6722  1076 1177 6722  1077 1178 6722  1177 1178 6722  1077 1078 6723  1077 1178 6723  1078 1179 6723  1178 1179 6723  1078 1079 6724  1078 1179 6724  1079 1180 6724  1179 1180 6724  1079 1080 6725  1079 1180 6725  1080 1181 6725  1180 1181 6725  1080 1081 6726  1080 1181 6726  1081 1182 6726  1181 1182 6726  1081 1082 6727  1081 1182 6727  1082 1183 6727  1182 1183 6727  1082 1083 6728  1082 1183 6728  1083 1184 6728  1183 1184 6728  1083 1084 6729  1083 1184 6729  1084 1185 6729  1184 1185 6729  1084 1085 6730  1084 1185 6730  1085 1186 6730  1185 1186 6730  1085 1086 6731  1085 1186 6731  1086 1187 6731  1186 1187 6731  1086 1087 6732  1086 1187 6732  1087 1188 6732  1187 1188 6732  1087 1088 6733  1087 1188 6733  1088 1189 6733  1188 1189 6733  1088 1089 6734  1088 1189 6734  1089 1190 6734  1189 1190 6734  1089 1090 6735  1089 1190 6735  1090 1191 6735  1190 1191 6735  1090 1091 6736  1090 1191 6736  1091 1192 6736  1191 1192 6736  1091 1092 6737  1091 1192 6737  1092 1193 6737  1192 1193 6737  1092 1093 6738  1092 1193 6738  1093 1194 6738  1193 1194 6738  1093 1094 6739  1093 1194 6739  1094 1195 6739  1194 1195 6739  1094 1095 6740  1094 1195 6740  1095 1196 6740  1195 1196 6740  1095 1096 6741  1095 1196 6741  1096 1197 6741  1196 1197 6741  1096 1097 6742  1096 1197 6742  1097 1198 6742  1197 1198 6742  1097 1098 6743  1097 1198 6743  1098 1199 6743  1198 1199 6743  1098 1099 6744  1098 1199 6744  1099 1200 6744  1199 1200 6744  1099 1100 6745  1099 1200 6745  1100 1201 6745  1200 1201 6745  1100 1101 6746  1100 1201 6746  1101 1202 6746  1201 1202 6746  1101 1102 6747  1101 1202 6747  1102 1203 6747  1202 1203 6747  1102 1103 6748  1102 1203 6748  1103 1204 6748  1203 1204 6748  1103 1104 6749  1103 1204 6749  1104 1205 6749  1204 1205 6749  1104 1105 6750  1104 1205 6750  1105 1206 6750  1205 1206 6750  1105 1106 6751  1105 1206 6751  1106 1207 6751  1206 1207 6751  1106 1107 6752  1106 1207 6752  1107 1208 6752  1207 1208 6752  1107 1108 6753  1107 1208 6753  1108 1209 6753  1208 1209 6753  1108 1109 6754  1108 1209 6754  1109 1210 6754  1209 1210 6754  1109 1110 6755  1109 1210 6755  1110 1211 6755  1210 1211 6755  1111 1112 6756  1111 1212 6756  1112 1213 6756  1212 1213 6756  1112 1113 6757  1112 1213 6757  1113 1214 6757  1213 1214 6757  1113 1114 6758  1113 1214 6758  1114 1215 6758  1214 1215 6758  1114 1115 6759  1114 1215 6759  1115 1216 6759  1215 1216 6759  1115 1116 6760  1115 1216 6760  1116 1217 6760  1216 1217 6760  1116 1117 6761  1116 1217 6761  1117 1218 6761  1217 1218 6761  1117 1118 6762  1117 1218 6762  1118 1219 6762  1218 1219 6762  1118 1119 6763  1118 1219 6763  1119 1220 6763  1219 1220 6763  1119 1120 6764  1119 1220 6764  1120 1221 6764  1220 1221 6764  1120 1121 6765  1120 1221 6765  1121 1222 6765  1221 1222 6765  1121 1122 6766  1121 1222 6766  1122 1223 6766  1222 1223 6766  1122 1123 6767  1122 1223 6767  1123 1224 6767  1223 1224 6767  1123 1124 6768  1123 1224 6768  1124 1225 6768  1224 1225 6768  1124 1125 6769  1124 1225 6769  1125 1226 6769  1225 1226 6769  1125 1126 6770  1125 1226 6770  1126 1227 6770  1226 1227 6770  1126 1127 6771  1126 1227 6771  1127 1228 6771  1227 1228 6771  1127 1128 6772  1127 1228 6772  1128 1229 6772  1228 1229 6772  1128 1129 6773  1128 1229 6773  1129 1230 6773  1229 1230 6773  1129 1130 6774  1129 1230 6774  1130 1231 6774  1230 1231 6774  1130 1131 6775  1130 1231 6775  1131 1232 6775  1231 1232 6775  1131 1132 6776  1131 1232 6776  1132 1233 6776  1232 1233 6776  1132 1133 6777  1132 1233 6777  1133 1234 6777  1233 1234 6777  1133 1134 6778  1133 1234 6778  1134 1235 6778  1234 1235 6778  1134 1135 6779  1134 1235 6779  1135 1236 6779  1235 1236 6779  1135 1136 6780  1135 1236 6780  1136 1237 6780  1236 1237 6780  1136 1137 6781  1136 1237 6781  1137 1238 6781  1237 1238 6781  1137 1138 6782  1137 1238 6782  1138 1239 6782  1238 1239 6782  1138 1139 6783  1138 1239 6783  1139 1240 6783  1239 1240 6783  1139 1140 6784  1139 1240 6784  1140 1241 6784  1240 1241 6784  1140 1141 6785  1140 1241 6785  1141 1242 6785  1241 1242 6785  1141 1142 6786  1141 1242 6786  1142 1243 6786  1242 1243 6786  1142 1143 6787  1142 1243 6787  1143 1244 6787  1243 1244 6787  1143 1144 6788  1143 1244 6788  1144 1245 6788  1244 1245 6788  1144 1145 6789  1144 1245 6789  1145 1246 6789  1245 1246 6789  1145 1146 6790  1145 1246 6790  1146 1247 6790  1246 1247 6790  1146 1147 6791  1146 1247 6791  1147 1248 6791  1247 1248 6791  1147 1148 6792  1147 1248 6792  1148 1249 6792  1248 1249 6792  1148 1149 6793  1148 1249 6793  1149 1250 6793  1249 1250 6793  1149 1150 6794  1149 1250 6794  1150 1251 6794  1250 1251 6794  1150 1151 6795  1150 1251 6795  1151 1252 6795  1251 1252 6795  1151 1152 6796  1151 1252 6796  1152 1253 6796  1252 1253 6796  1152 1153 6797  1152 1253 6797  1153 1254 6797  1253 1254 6797  1153 1154 6798  1153 1254 6798  1154 1255 6798  1254 1255 6798  1154 1155 6799  1154 1255 6799  1155 1256 6799  1255 1256 6799  1155 1156 6800  1155 1256 6800  1156 1257 6800  1256 1257 6800  1156 1157 6801  1156 1257 6801  1157 1258 6801  1257 1258 6801  1157 1158 6802  1157 1258 6802  1158 1259 6802  1258 1259 6802  1158 1159 6803  1158 1259 6803  1159 1260 6803  1259 1260 6803  1159 1160 6804  1159 1260 6804  1160 1261 6804  1260 1261 6804  1160 1161 6805  1160 1261 6805  1161 1262 6805  1261 1262 6805  1161 1162 6806  1161 1262 6806  1162 1263 6806  1262 1263 6806  1162 1163 6807  1162 1263 6807  1163 1264 6807  1263 1264 6807  1163 1164 6808  1163 1264 6808  1164 1265 6808  1264 1265 6808  1164 1165 6809  1164 1265 6809  1165 1266 6809  1265 1266 6809  1165 1166 6810  1165 1266 6810  1166 1267 6810  1266 1267 6810  1166 1167 6811  1166 1267 6811  1167 1268 6811  1267 1268 6811  1167 1168 6812  1167 1268 6812  1168 1269 6812  1268 1269 6812  1168 1169 6813  1168 1269 6813  1169 1270 6813  1269 1270 6813  1169 1170 6814  1169 1270 6814  1170 1271 6814  1270 1271 6814  1170 1171 6815  1170 1271 6815  1171 1272 6815  1271 1272 6815  1171 1172 6816  1171 1272 6816  1172 1273 6816  1272 1273 6816  1172 1173 6817  1172 1273 6817  1173 1274 6817  1273 1274 6817  1173 1174 6818  1173 1274 6818  1174 1275 6818  1274 1275 6818  1174 1175 6819  1174 1275 6819  1175 1276 6819  1275 1276 6819  1175 1176 6820  1175 1276 6820  1176 1277 6820  1276 1277 6820  1176 1177 6821  1176 1277 6821  1177 1278 6821  1277 1278 6821  1177 1178 6822  1177 1278 6822  1178 1279 6822  1278 1279 6822  1178 1179 6823  1178 1279 6823  1179 1280 6823  1279 1280 6823  1179 1180 6824  1179 1280 6824  1180 1281 6824  1280 1281 6824  1180 1181 6825  1180 1281 6825  1181 1282 6825  1281 1282 6825  1181 1182 6826  1181 1282 6826  1182 1283 6826  1282 1283 6826  1182 1183 6827  1182 1283 6827  1183 1284 6827  1283 1284 6827  1183 1184 6828  1183 1284 6828  1184 1285 6828  1284 1285 6828  1184 1185 6829  1184 1285 6829  1185 1286 6829  1285 1286 6829  1185 1186 6830  1185 1286 6830  1186 1287 6830  1286 1287 6830  1186 1187 6831  1186 1287 6831  1187 1288 6831  1287 1288 6831  1187 1188 6832  1187 1288 6832  1188 1289 6832  1288 1289 6832  1188 1189 6833  1188 1289 6833  1189 1290 6833  1289 1290 6833  1189 1190 6834  1189 1290 6834  1190 1291 6834  1290 1291 6834  1190 1191 6835  1190 1291 6835  1191 1292 6835  1291 1292 6835  1191 1192 6836  1191 1292 6836  1192 1293 6836  1292 1293 6836  1192 1193 6837  1192 1293 6837  1193 1294 6837  1293 1294 6837  1193 1194 6838  1193 1294 6838  1194 1295 6838  1294 1295 6838  1194 1195 6839  1194 1295 6839  1195 1296 6839  1295 1296 6839  1195 1196 6840  1195 1296 6840  1196 1297 6840  1296 1297 6840  1196 1197 6841  1196 1297 6841  1197 1298 6841  1297 1298 6841  1197 1198 6842  1197 1298 6842  1198 1299 6842  1298 1299 6842  1198 1199 6843  1198 1299 6843  1199 1300 6843  1299 1300 6843  1199 1200 6844  1199 1300 6844  1200 1301 6844  1300 1301 6844  1200 1201 6845  1200 1301 6845  1201 1302 6845  1301 1302 6845  1201 1202 6846  1201 1302 6846  1202 1303 6846  1302 1303 6846  1202 1203 6847  1202 1303 6847  1203 1304 6847  1303 1304 6847  1203 1204 6848  1203 1304 6848  1204 1305 6848  1304 1305 6848  1204 1205 6849  1204 1305 6849  1205 1306 6849  1305 1306 6849  1205 1206 6850  1205 1306 6850  1206 1307 6850  1306 1307 6850  1206 1207 6851  1206 1307 6851  1207 1308 6851  1307 1308 6851  1207 1208 6852  1207 1308 6852  1208 1309 6852  1308 1309 6852  1208 1209 6853  1208 1309 6853  1209 1310 6853  1309 1310 6853  1209 1210 6854  1209 1310 6854  1210 1311 6854  1310 1311 6854  1210 1211 6855  1210 1311 6855  1211 1312 6855  1311 1312 6855  1212 1213 6856  1212 1313 6856  1213 1314 6856  1313 1314 6856  1213 1214 6857  1213 1314 6857  1214 1315 6857  1314 1315 6857  1214 1215 6858  1214 1315 6858  1215 1316 6858  1315 1316 6858  1215 1216 6859  1215 1316 6859  1216 1317 6859  1316 1317 6859  1216 1217 6860  1216 1317 6860  1217 1318 6860  1317 1318 6860  1217 1218 6861  1217 1318 6861  1218 1319 6861  1318 1319 6861  1218 1219 6862  1218 1319 6862  1219 1320 6862  1319 1320 6862  1219 1220 6863  1219 1320 6863  1220 1321 6863  1320 1321 6863  1220 1221 6864  1220 1321 6864  1221 1322 6864  1321 1322 6864  1221 1222 6865  1221 1322 6865  1222 1323 6865  1322 1323 6865  1222 1223 6866  1222 1323 6866  1223 1324 6866  1323 1324 6866  1223 1224 6867  1223 1324 6867  1224 1325 6867  1324 1325 6867  1224 1225 6868  1224 1325 6868  1225 1326 6868  1325 1326 6868  1225 1226 6869  1225 1326 6869  1226 1327 6869  1326 1327 6869  1226 1227 6870  1226 1327 6870  1227 1328 6870  1327 1328 6870  1227 1228 6871  1227 1328 6871  1228 1329 6871  1328 1329 6871  1228 1229 6872  1228 1329 6872  1229 1330 6872  1329 1330 6872  1229 1230 6873  1229 1330 6873  1230 1331 6873  1330 1331 6873  1230 1231 6874  1230 1331 6874  1231 1332 6874  1331 1332 6874  1231 1232 6875  1231 1332 6875  1232 1333 6875  1332 1333 6875  1232 1233 6876  1232 1333 6876  1233 1334 6876  1333 1334 6876  1233 1234 6877  1233 1334 6877  1234 1335 6877  1334 1335 6877  1234 1235 6878  1234 1335 6878  1235 1336 6878  1335 1336 6878  1235 1236 6879  1235 1336 6879  1236 1337 6879  1336 1337 6879  1236 1237 6880  1236 1337 6880  1237 1338 6880  1337 1338 6880  1237 1238 6881  1237 1338 6881  1238 1339 6881  1338 1339 6881  1238 1239 6882  1238 1339 6882  1239 1340 6882  1339 1340 6882  1239 1240 6883  1239 1340 6883  1240 1341 6883  1340 1341 6883  1240 1241 6884  1240 1341 6884  1241 1342 6884  1341 1342 6884  1241 1242 6885  1241 1342 6885  1242 1343 6885  1342 1343 6885  1242 1243 6886  1242 1343 6886  1243 1344 6886  1343 1344 6886  1243 1244 6887  1243 1344 6887  1244 1345 6887  1344 1345 6887  1244 1245 6888  1244 1345 6888  1245 1346 6888  1345 1346 6888  1245 1246 6889  1245 1346 6889  1246 1347 6889  1346 1347 6889  1246 1247 6890  1246 1347 6890  1247 1348 6890  1347 1348 6890  1247 1248 6891  1247 1348 6891  1248 1349 6891  1348 1349 6891  1248 1249 6892  1248 1349 6892  1249 1350 6892  1349 1350 6892  1249 1250 6893  1249 1350 6893  1250 1351 6893  1350 1351 6893  1250 1251 6894  1250 1351 6894  1251 1352 6894  1351 1352 6894  1251 1252 6895  1251 1352 6895  1252 1353 6895  1352 1353 6895  1252 1253 6896  1252 1353 6896  1253 1354 6896  1353 1354 6896  1253 1254 6897  1253 1354 6897  1254 1355 6897  1354 1355 6897  1254 1255 6898  1254 1355 6898  1255 1356 6898  1355 1356 6898  1255 1256 6899  1255 1356 6899  1256 1357 6899  1356 1357 6899  1256 1257 6900  1256 1357 6900  1257 1358 6900  1357 1358 6900  1257 1258 6901  1257 1358 6901  1258 1359 6901  1358 1359 6901  1258 1259 6902  1258 1359 6902  1259 1360 6902  1359 1360 6902  1259 1260 6903  1259 1360 6903  1260 1361 6903  1360 1361 6903  1260 1261 6904  1260 1361 6904  1261 1362 6904  1361 1362 6904  1261 1262 6905  1261 1362 6905  1262 1363 6905  1362 1363 6905  1262 1263 6906  1262 1363 6906  1263 1364 6906  1363 1364 6906  1263 1264 6907  1263 1364 6907  1264 1365 6907  1364 1365 6907  1264 1265 6908  1264 1365 6908  1265 1366 6908  1365 1366 6908  1265 1266 6909  1265 1366 6909  1266 1367 6909  1366 1367 6909  1266 1267 6910  1266 1367 6910  1267 1368 6910  1367 1368 6910  1267 1268 6911  1267 1368 6911  1268 1369 6911  1368 1369 6911  1268 1269 6912  1268 1369 6912  1269 1370 6912  1369 1370 6912  1269 1270 6913  1269 1370 6913  1270 1371 6913  1370 1371 6913  1270 1271 6914  1270 1371 6914  1271 1372 6914  1371 1372 6914  1271 1272 6915  1271 1372 6915  1272 1373 6915  1372 1373 6915  1272 1273 6916  1272 1373 6916  1273 1374 6916  1373 1374 6916  1273 1274 6917  1273 1374 6917  1274 1375 6917  1374 1375 6917  1274 1275 6918  1274 1375 6918  1275 1376 6918  1375 1376 6918  1275 1276 6919  1275 1376 6919  1276 1377 6919  1376 1377 6919  1276 1277 6920  1276 1377 6920  1277 1378 6920  1377 1378 6920  1277 1278 6921  1277 1378 6921  1278 1379 6921  1378 1379 6921  1278 1279 6922  1278 1379 6922  1279 1380 6922  1379 1380 6922  1279 1280 6923  1279 1380 6923  1280 1381 6923  1380 1381 6923  1280 1281 6924  1280 1381 6924  1281 1382 6924  1381 1382 6924  1281 1282 6925  1281 1382 6925  1282 1383 6925  1382 1383 6925  1282 1283 6926  1282 1383 6926  1283 1384 6926  1383 1384 6926  1283 1284 6927  1283 1384 6927  1284 1385 6927  1384 1385 6927  1284 1285 6928  1284 1385 6928  1285 1386 6928  1385 1386 6928  1285 1286 6929  1285 1386 6929  1286 1387 6929  1386 1387 6929  1286 1287 6930  1286 1387 6930  1287 1388 6930  1387 1388 6930  1287 1288 6931  1287 1388 6931  1288 1389 6931  1388 1389 6931  1288 1289 6932  1288 1389 6932  1289 1390 6932  1389 1390 6932  1289 1290 6933  1289 1390 6933  1290 1391 6933  1390 1391 6933  1290 1291 6934  1290 1391 6934  1291 1392 6934  1391 1392 6934  1291 1292 6935  1291 1392 6935  1292 1393 6935  1392 1393 6935  1292 1293 6936  1292 1393 6936  1293 1394 6936  1393 1394 6936  1293 1294 6937  1293 1394 6937  1294 1395 6937  1394 1395 6937  1294 1295 6938  1294 1395 6938  1295 1396 6938  1395 1396 6938  1295 1296 6939  1295 1396 6939  1296 1397 6939  1396 1397 6939  1296 1297 6940  1296 1397 6940  1297 1398 6940  1397 1398 6940  1297 1298 6941  1297 1398 6941  1298 1399 6941  1398 1399 6941  1298 1299 6942  1298 1399 6942  1299 1400 6942  1399 1400 6942  1299 1300 6943  1299 1400 6943  1300 1401 6943  1400 1401 6943  1300 1301 6944  1300 1401 6944  1301 1402 6944  1401 1402 6944  1301 1302 6945  1301 1402 6945  1302 1403 6945  1402 1403 6945  1302 1303 6946  1302 1403 6946  1303 1404 6946  1403 1404 6946  1303 1304 6947  1303 1404 6947  1304 1405 6947  1404 1405 6947  1304 1305 6948  1304 1405 6948  1305 1406 6948  1405 1406 6948  1305 1306 6949  1305 1406 6949  1306 1407 6949  1406 1407 6949  1306 1307 6950  1306 1407 6950  1307 1408 6950  1407 1408 6950  1307 1308 6951  1307 1408 6951  1308 1409 6951  1408 1409 6951  1308 1309 6952  1308 1409 6952  1309 1410 6952  1409 1410 6952  1309 1310 6953  1309 1410 6953  1310 1411 6953  1410 1411 6953  1310 1311 6954  1310 1411 6954  1311 1412 6954  1411 1412 6954  1311 1312 6955  1311 1412 6955  1312 1413 6955  1412 1413 6955  1313 1314 6956  1313 1414 6956  1314 1415 6956  1414 1415 6956  1314 1315 6957  1314 1415 6957  1315 1416 6957  1415 1416 6957  1315 1316 6958  1315 1416 6958  1316 1417 6958  1416 1417 6958  1316 1317 6959  1316 1417 6959  1317 1418 6959  1417 1418 6959  1317 1318 6960  1317 1418 6960  1318 1419 6960  1418 1419 6960  1318 1319 6961  1318 1419 6961  1319 1420 6961  1419 1420 6961  1319 1320 6962  1319 1420 6962  1320 1421 6962  1420 1421 6962  1320 1321 6963  1320 1421 6963  1321 1422 6963  1421 1422 6963  1321 1322 6964  1321 1422 6964  1322 1423 6964  1422 1423 6964  1322 1323 6965  1322 1423 6965  1323 1424 6965  1423 1424 6965  1323 1324 6966  1323 1424 6966  1324 1425 6966  1424 1425 6966  1324 1325 6967  1324 1425 6967  1325 1426 6967  1425 1426 6967  1325 1326 6968  1325 1426 6968  1326 1427 6968  1426 1427 6968  1326 1327 6969  1326 1427 6969  1327 1428 6969  1427 1428 6969  1327 1328 6970  1327 1428 6970  1328 1429 6970  1428 1429 6970  1328 1329 6971  1328 1429 6971  1329 1430 6971  1429 1430 6971  1329 1330 6972  1329 1430 6972  1330 1431 6972  1430 1431 6972  1330 1331 6973  1330 1431 6973  1331 1432 6973  1431 1432 6973  1331 1332 6974  1331 1432 6974  1332 1433 6974  1432 1433 6974  1332 1333 6975  1332 1433 6975  1333 1434 6975  1433 1434 6975  1333 1334 6976  1333 1434 6976  1334 1435 6976  1434 1435 6976  1334 1335 6977  1334 1435 6977  1335 1436 6977  1435 1436 6977  1335 1336 6978  1335 1436 6978  1336 1437 6978  1436 1437 6978  1336 1337 6979  1336 1437 6979  1337 1438 6979  1437 1438 6979  1337 1338 6980  1337 1438 6980  1338 1439 6980  1438 1439 6980  1338 1339 6981  1338 1439 6981  1339 1440 6981  1439 1440 6981  1339 1340 6982  1339 1440 6982  1340 1441 6982  1440 1441 6982  1340 1341 6983  1340 1441 6983  1341 1442 6983  1441 1442 6983  1341 1342 6984  1341 1442 6984  1342 1443 6984  1442 1443 6984  1342 1343 6985  1342 1443 6985  1343 1444 6985  1443 1444 6985  1343 1344 6986  1343 1444 6986  1344 1445 6986  1444 1445 6986  1344 1345 6987  1344 1445 6987  1345 1446 6987  1445 1446 6987  1345 1346 6988  1345 1446 6988  1346 1447 6988  1446 1447 6988  1346 1347 6989  1346 1447 6989  1347 1448 6989  1447 1448 6989  1347 1348 6990  1347 1448 6990  1348 1449 6990  1448 1449 6990  1348 1349 6991  1348 1449 6991  1349 1450 6991  1449 1450 6991  1349 1350 6992  1349 1450 6992  1350 1451 6992  1450 1451 6992  1350 1351 6993  1350 1451 6993  1351 1452 6993  1451 1452 6993  1351 1352 6994  1351 1452 6994  1352 1453 6994  1452 1453 6994  1352 1353 6995  1352 1453 6995  1353 1454 6995  1453 1454 6995  1353 1354 6996  1353 1454 6996  1354 1455 6996  1454 1455 6996  1354 1355 6997  1354 1455 6997  1355 1456 6997  1455 1456 6997  1355 1356 6998  1355 1456 6998  1356 1457 6998  1456 1457 6998  1356 1357 6999  1356 1457 6999  1357 1458 6999  1457 1458 6999  1357 1358 7000  1357 1458 7000  1358 1459 7000  1458 1459 7000  1358 1359 7001  1358 1459 7001  1359 1460 7001  1459 1460 7001  1359 1360 7002  1359 1460 7002  1360 1461 7002  1460 1461 7002  1360 1361 7003  1360 1461 7003  1361 1462 7003  1461 1462 7003  1361 1362 7004  1361 1462 7004  1362 1463 7004  1462 1463 7004  1362 1363 7005  1362 1463 7005  1363 1464 7005  1463 1464 7005  1363 1364 7006  1363 1464 7006  1364 1465 7006  1464 1465 7006  1364 1365 7007  1364 1465 7007  1365 1466 7007  1465 1466 7007  1365 1366 7008  1365 1466 7008  1366 1467 7008  1466 1467 7008  1366 1367 7009  1366 1467 7009  1367 1468 7009  1467 1468 7009  1367 1368 7010  1367 1468 7010  1368 1469 7010  1468 1469 7010  1368 1369 7011  1368 1469 7011  1369 1470 7011  1469 1470 7011  1369 1370 7012  1369 1470 7012  1370 1471 7012  1470 1471 7012  1370 1371 7013  1370 1471 7013  1371 1472 7013  1471 1472 7013  1371 1372 7014  1371 1472 7014  1372 1473 7014  1472 1473 7014  1372 1373 7015  1372 1473 7015  1373 1474 7015  1473 1474 7015  1373 1374 7016  1373 1474 7016  1374 1475 7016  1474 1475 7016  1374 1375 7017  1374 1475 7017  1375 1476 7017  1475 1476 7017  1375 1376 7018  1375 1476 7018  1376 1477 7018  1476 1477 7018  1376 1377 7019  1376 1477 7019  1377 1478 7019  1477 1478 7019  1377 1378 7020  1377 1478 7020  1378 1479 7020  1478 1479 7020  1378 1379 7021  1378 1479 7021  1379 1480 7021  1479 1480 7021  1379 1380 7022  1379 1480 7022  1380 1481 7022  1480 1481 7022  1380 1381 7023  1380 1481 7023  1381 1482 7023  1481 1482 7023  1381 1382 7024  1381 1482 7024  1382 1483 7024  1482 1483 7024  1382 1383 7025  1382 1483 7025  1383 1484 7025  1483 1484 7025  1383 1384 7026  1383 1484 7026  1384 1485 7026  1484 1485 7026  1384 1385 7027  1384 1485 7027  1385 1486 7027  1485 1486 7027  1385 1386 7028  1385 1486 7028  1386 1487 7028  1486 1487 7028  1386 1387 7029  1386 1487 7029  1387 1488 7029  1487 1488 7029  1387 1388 7030  1387 1488 7030  1388 1489 7030  1488 1489 7030  1388 1389 7031  1388 1489 7031  1389 1490 7031  1489 1490 7031  1389 1390 7032  1389 1490 7032  1390 1491 7032  1490 1491 7032  1390 1391 7033  1390 1491 7033  1391 1492 7033  1491 1492 7033  1391 1392 7034  1391 1492 7034  1392 1493 7034  1492 1493 7034  1392 1393 7035  1392 1493 7035  1393 1494 7035  1493 1494 7035  1393 1394 7036  1393 1494 7036  1394 1495 7036  1494 1495 7036  1394 1395 7037  1394 1495 7037  1395 1496 7037  1495 1496 7037  1395 1396 7038  1395 1496 7038  1396 1497 7038  1496 1497 7038  1396 1397 7039  1396 1497 7039  1397 1498 7039  1497 1498 7039  1397 1398 7040  1397 1498 7040  1398 1499 7040  1498 1499 7040  1398 1399 7041  1398 1499 7041  1399 1500 7041  1499 1500 7041  1399 1400 7042  1399 1500 7042  1400 1501 7042  1500 1501 7042  1400 1401 7043  1400 1501 7043  1401 1502 7043  1501 1502 7043  1401 1402 7044  1401 1502 7044  1402 1503 7044  1502 1503 7044  1402 1403 7045  1402 1503 7045  1403 1504 7045  1503 1504 7045  1403 1404 7046  1403 1504 7046  1404 1505 7046  1504 1505 7046  1404 1405 7047  1404 1505 7047  1405 1506 7047  1505 1506 7047  1405 1406 7048  1405 1506 7048  1406 1507 7048  1506 1507 7048  1406 1407 7049  1406 1507 7049  1407 1508 7049  1507 1508 7049  1407 1408 7050  1407 1508 7050  1408 1509 7050  1508 1509 7050  1408 1409 7051  1408 1509 7051  1409 1510 7051  1509 1510 7051  1409 1410 7052  1409 1510 7052  1410 1511 7052  1510 1511 7052  1410 1411 7053  1410 1511 7053  1411 1512 7053  1511 1512 7053  1411 1412 7054  1411 1512 7054  1412 1513 7054  1512 1513 7054  1412 1413 7055  1412 1513 7055  1413 1514 7055  1513 1514 7055  1414 1415 7056  1414 1515 7056  1415 1516 7056  1515 1516 7056  1415 1416 7057  1415 1516 7057  1416 1517 7057  1516 1517 7057  1416 1417 7058  1416 1517 7058  1417 1518 7058  1517 1518 7058  1417 1418 7059  1417 1518 7059  1418 1519 7059  1518 1519 7059  1418 1419 7060  1418 1519 7060  1419 1520 7060  1519 1520 7060  1419 1420 7061  1419 1520 7061  1420 1521 7061  1520 1521 7061  1420 1421 7062  1420 1521 7062  1421 1522 7062  1521 1522 7062  1421 1422 7063  1421 1522 7063  1422 1523 7063  1522 1523 7063  1422 1423 7064  1422 1523 7064  1423 1524 7064  1523 1524 7064  1423 1424 7065  1423 1524 7065  1424 1525 7065  1524 1525 7065  1424 1425 7066  1424 1525 7066  1425 1526 7066  1525 1526 7066  1425 1426 7067  1425 1526 7067  1426 1527 7067  1526 1527 7067  1426 1427 7068  1426 1527 7068  1427 1528 7068  1527 1528 7068  1427 1428 7069  1427 1528 7069  1428 1529 7069  1528 1529 7069  1428 1429 7070  1428 1529 7070  1429 1530 7070  1529 1530 7070  1429 1430 7071  1429 1530 7071  1430 1531 7071  1530 1531 7071  1430 1431 7072  1430 1531 7072  1431 1532 7072  1531 1532 7072  1431 1432 7073  1431 1532 7073  1432 1533 7073  1532 1533 7073  1432 1433 7074  1432 1533 7074  1433 1534 7074  1533 1534 7074  1433 1434 7075  1433 1534 7075  1434 1535 7075  1534 1535 7075  1434 1435 7076  1434 1535 7076  1435 1536 7076  1535 1536 7076  1435 1436 7077  1435 1536 7077  1436 1537 7077  1536 1537 7077  1436 1437 7078  1436 1537 7078  1437 1538 7078  1537 1538 7078  1437 1438 7079  1437 1538 7079  1438 1539 7079  1538 1539 7079  1438 1439 7080  1438 1539 7080  1439 1540 7080  1539 1540 7080  1439 1440 7081  1439 1540 7081  1440 1541 7081  1540 1541 7081  1440 1441 7082  1440 1541 7082  1441 1542 7082  1541 1542 7082  1441 1442 7083  1441 1542 7083  1442 1543 7083  1542 1543 7083  1442 1443 7084  1442 1543 7084  1443 1544 7084  1543 1544 7084  1443 1444 7085  1443 1544 7085  1444 1545 7085  1544 1545 7085  1444 1445 7086  1444 1545 7086  1445 1546 7086  1545 1546 7086  1445 1446 7087  1445 1546 7087  1446 1547 7087  1546 1547 7087  1446 1447 7088  1446 1547 7088  1447 1548 7088  1547 1548 7088  1447 1448 7089  1447 1548 7089  1448 1549 7089  1548 1549 7089  1448 1449 7090  1448 1549 7090  1449 1550 7090  1549 1550 7090  1449 1450 7091  1449 1550 7091  1450 1551 7091  1550 1551 7091  1450 1451 7092  1450 1551 7092  1451 1552 7092  1551 1552 7092  1451 1452 7093  1451 1552 7093  1452 1553 7093  1552 1553 7093  1452 1453 7094  1452 1553 7094  1453 1554 7094  1553 1554 7094  1453 1454 7095  1453 1554 7095  1454 1555 7095  1554 1555 7095  1454 1455 7096  1454 1555 7096  1455 1556 7096  1555 1556 7096  1455 1456 7097  1455 1556 7097  1456 1557 7097  1556 1557 7097  1456 1457 7098  1456 1557 7098  1457 1558 7098  1557 1558 7098  1457 1458 7099  1457 1558 7099  1458 1559 7099  1558 1559 7099  1458 1459 7100  1458 1559 7100  1459 1560 7100  1559 1560 7100  1459 1460 7101  1459 1560 7101  1460 1561 7101  1560 1561 7101  1460 1461 7102  1460 1561 7102  1461 1562 7102  1561 1562 7102  1461 1462 7103  1461 1562 7103  1462 1563 7103  1562 1563 7103  1462 1463 7104  1462 1563 7104  1463 1564 7104  1563 1564 7104  1463 1464 7105  1463 1564 7105  1464 1565 7105  1564 1565 7105  1464 1465 7106  1464 1565 7106  1465 1566 7106  1565 1566 7106  1465 1466 7107  1465 1566 7107  1466 1567 7107  1566 1567 7107  1466 1467 7108  1466 1567 7108  1467 1568 7108  1567 1568 7108  1467 1468 7109  1467 1568 7109  1468 1569 7109  1568 1569 7109  1468 1469 7110  1468 1569 7110  1469 1570 7110  1569 1570 7110  1469 1470 7111  1469 1570 7111  1470 1571 7111  1570 1571 7111  1470 1471 7112  1470 1571 7112  1471 1572 7112  1571 1572 7112  1471 1472 7113  1471 1572 7113  1472 1573 7113  1572 1573 7113  1472 1473 7114  1472 1573 7114  1473 1574 7114  1573 1574 7114  1473 1474 7115  1473 1574 7115  1474 1575 7115  1574 1575 7115  1474 1475 7116  1474 1575 7116  1475 1576 7116  1575 1576 7116  1475 1476 7117  1475 1576 7117  1476 1577 7117  1576 1577 7117  1476 1477 7118  1476 1577 7118  1477 1578 7118  1577 1578 7118  1477 1478 7119  1477 1578 7119  1478 1579 7119  1578 1579 7119  1478 1479 7120  1478 1579 7120  1479 1580 7120  1579 1580 7120  1479 1480 7121  1479 1580 7121  1480 1581 7121  1580 1581 7121  1480 1481 7122  1480 1581 7122  1481 1582 7122  1581 1582 7122  1481 1482 7123  1481 1582 7123  1482 1583 7123  1582 1583 7123  1482 1483 7124  1482 1583 7124  1483 1584 7124  1583 1584 7124  1483 1484 7125  1483 1584 7125  1484 1585 7125  1584 1585 7125  1484 1485 7126  1484 1585 7126  1485 1586 7126  1585 1586 7126  1485 1486 7127  1485 1586 7127  1486 1587 7127  1586 1587 7127  1486 1487 7128  1486 1587 7128  1487 1588 7128  1587 1588 7128  1487 1488 7129  1487 1588 7129  1488 1589 7129  1588 1589 7129  1488 1489 7130  1488 1589 7130  1489 1590 7130  1589 1590 7130  1489 1490 7131  1489 1590 7131  1490 1591 7131  1590 1591 7131  1490 1491 7132  1490 1591 7132  1491 1592 7132  1591 1592 7132  1491 1492 7133  1491 1592 7133  1492 1593 7133  1592 1593 7133  1492 1493 7134  1492 1593 7134  1493 1594 7134  1593 1594 7134  1493 1494 7135  1493 1594 7135  1494 1595 7135  1594 1595 7135  1494 1495 7136  1494 1595 7136  1495 1596 7136  1595 1596 7136  1495 1496 7137  1495 1596 7137  1496 1597 7137  1596 1597 7137  1496 1497 7138  1496 1597 7138  1497 1598 7138  1597 1598 7138  1497 1498 7139  1497 1598 7139  1498 1599 7139  1598 1599 7139  1498 1499 7140  1498 1599 7140  1499 1600 7140  1599 1600 7140  1499 1500 7141  1499 1600 7141  1500 1601 7141  1600 1601 7141  1500 1501 7142  1500 1601 7142  1501 1602 7142  1601 1602 7142  1501 1502 7143  1501 1602 7143  1502 1603 7143  1602 1603 7143  1502 1503 7144  1502 1603 7144  1503 1604 7144  1603 1604 7144  1503 1504 7145  1503 1604 7145  1504 1605 7145  1604 1605 7145  1504 1505 7146  1504 1605 7146  1505 1606 7146  1605 1606 7146  1505 1506 7147  1505 1606 7147  1506 1607 7147  1606 1607 7147  1506 1507 7148  1506 1607 7148  1507 1608 7148  1607 1608 7148  1507 1508 7149  1507 1608 7149  1508 1609 7149  1608 1609 7149  1508 1509 7150  1508 1609 7150  1509 1610 7150  1609 1610 7150  1509 1510 7151  1509 1610 7151  1510 1611 7151  1610 1611 7151  1510 1511 7152  1510 1611 7152  1511 1612 7152  1611 1612 7152  1511 1512 7153  1511 1612 7153  1512 1613 7153  1612 1613 7153  1512 1513 7154  1512 1613 7154  1513 1614 7154  1613 1614 7154  1513 1514 7155  1513 1614 7155  1514 1615 7155  1614 1615 7155  1515 1516 7156  1515 1616 7156  1516 1617 7156  1616 1617 7156  1516 1517 7157  1516 1617 7157  1517 1618 7157  1617 1618 7157  1517 1518 7158  1517 1618 7158  1518 1619 7158  1618 1619 7158  1518 1519 7159  1518 1619 7159  1519 1620 7159  1619 1620 7159  1519 1520 7160  1519 1620 7160  1520 1621 7160  1620 1621 7160  1520 1521 7161  1520 1621 7161  1521 1622 7161  1621 1622 7161  1521 1522 7162  1521 1622 7162  1522 1623 7162  1622 1623 7162  1522 1523 7163  1522 1623 7163  1523 1624 7163  1623 1624 7163  1523 1524 7164  1523 1624 7164  1524 1625 7164  1624 1625 7164  1524 1525 7165  1524 1625 7165  1525 1626 7165  1625 1626 7165  1525 1526 7166  1525 1626 7166  1526 1627 7166  1626 1627 7166  1526 1527 7167  1526 1627 7167  1527 1628 7167  1627 1628 7167  1527 1528 7168  1527 1628 7168  1528 1629 7168  1628 1629 7168  1528 1529 7169  1528 1629 7169  1529 1630 7169  1629 1630 7169  1529 1530 7170  1529 1630 7170  1530 1631 7170  1630 1631 7170  1530 1531 7171  1530 1631 7171  1531 1632 7171  1631 1632 7171  1531 1532 7172  1531 1632 7172  1532 1633 7172  1632 1633 7172  1532 1533 7173  1532 1633 7173  1533 1634 7173  1633 1634 7173  1533 1534 7174  1533 1634 7174  1534 1635 7174  1634 1635 7174  1534 1535 7175  1534 1635 7175  1535 1636 7175  1635 1636 7175  1535 1536 7176  1535 1636 7176  1536 1637 7176  1636 1637 7176  1536 1537 7177  1536 1637 7177  1537 1638 7177  1637 1638 7177  1537 1538 7178  1537 1638 7178  1538 1639 7178  1638 1639 7178  1538 1539 7179  1538 1639 7179  1539 1640 7179  1639 1640 7179  1539 1540 7180  1539 1640 7180  1540 1641 7180  1640 1641 7180  1540 1541 7181  1540 1641 7181  1541 1642 7181  1641 1642 7181  1541 1542 7182  1541 1642 7182  1542 1643 7182  1642 1643 7182  1542 1543 7183  1542 1643 7183  1543 1644 7183  1643 1644 7183  1543 1544 7184  1543 1644 7184  1544 1645 7184  1644 1645 7184  1544 1545 7185  1544 1645 7185  1545 1646 7185  1645 1646 7185  1545 1546 7186  1545 1646 7186  1546 1647 7186  1646 1647 7186  1546 1547 7187  1546 1647 7187  1547 1648 7187  1647 1648 7187  1547 1548 7188  1547 1648 7188  1548 1649 7188  1648 1649 7188  1548 1549 7189  1548 1649 7189  1549 1650 7189  1649 1650 7189  1549 1550 7190  1549 1650 7190  1550 1651 7190  1650 1651 7190  1550 1551 7191  1550 1651 7191  1551 1652 7191  1651 1652 7191  1551 1552 7192  1551 1652 7192  1552 1653 7192  1652 1653 7192  1552 1553 7193  1552 1653 7193  1553 1654 7193  1653 1654 7193  1553 1554 7194  1553 1654 7194  1554 1655 7194  1654 1655 7194  1554 1555 7195  1554 1655 7195  1555 1656 7195  1655 1656 7195  1555 1556 7196  1555 1656 7196  1556 1657 7196  1656 1657 7196  1556 1557 7197  1556 1657 7197  1557 1658 7197  1657 1658 7197  1557 1558 7198  1557 1658 7198  1558 1659 7198  1658 1659 7198  1558 1559 7199  1558 1659 7199  1559 1660 7199  1659 1660 7199  1559 1560 7200  1559 1660 7200  1560 1661 7200  1660 1661 7200  1560 1561 7201  1560 1661 7201  1561 1662 7201  1661 1662 7201  1561 1562 7202  1561 1662 7202  1562 1663 7202  1662 1663 7202  1562 1563 7203  1562 1663 7203  1563 1664 7203  1663 1664 7203  1563 1564 7204  1563 1664 7204  1564 1665 7204  1664 1665 7204  1564 1565 7205  1564 1665 7205  1565 1666 7205  1665 1666 7205  1565 1566 7206  1565 1666 7206  1566 1667 7206  1666 1667 7206  1566 1567 7207  1566 1667 7207  1567 1668 7207  1667 1668 7207  1567 1568 7208  1567 1668 7208  1568 1669 7208  1668 1669 7208  1568 1569 7209  1568 1669 7209  1569 1670 7209  1669 1670 7209  1569 1570 7210  1569 1670 7210  1570 1671 7210  1670 1671 7210  1570 1571 7211  1570 1671 7211  1571 1672 7211  1671 1672 7211  1571 1572 7212  1571 1672 7212  1572 1673 7212  1672 1673 7212  1572 1573 7213  1572 1673 7213  1573 1674 7213  1673 1674 7213  1573 1574 7214  1573 1674 7214  1574 1675 7214  1674 1675 7214  1574 1575 7215  1574 1675 7215  1575 1676 7215  1675 1676 7215  1575 1576 7216  1575 1676 7216  1576 1677 7216  1676 1677 7216  1576 1577 7217  1576 1677 7217  1577 1678 7217  1677 1678 7217  1577 1578 7218  1577 1678 7218  1578 1679 7218  1678 1679 7218  1578 1579 7219  1578 1679 7219  1579 1680 7219  1679 1680 7219  1579 1580 7220  1579 1680 7220  1580 1681 7220  1680 1681 7220  1580 1581 7221  1580 1681 7221  1581 1682 7221  1681 1682 7221  1581 1582 7222  1581 1682 7222  1582 1683 7222  1682 1683 7222  1582 1583 7223  1582 1683 7223  1583 1684 7223  1683 1684 7223  1583 1584 7224  1583 1684 7224  1584 1685 7224  1684 1685 7224  1584 1585 7225  1584 1685 7225  1585 1686 7225  1685 1686 7225  1585 1586 7226  1585 1686 7226  1586 1687 7226  1686 1687 7226  1586 1587 7227  1586 1687 7227  1587 1688 7227  1687 1688 7227  1587 1588 7228  1587 1688 7228  1588 1689 7228  1688 1689 7228  1588 1589 7229  1588 1689 7229  1589 1690 7229  1689 1690 7229  1589 1590 7230  1589 1690 7230  1590 1691 7230  1690 1691 7230  1590 1591 7231  1590 1691 7231  1591 1692 7231  1691 1692 7231  1591 1592 7232  1591 1692 7232  1592 1693 7232  1692 1693 7232  1592 1593 7233  1592 1693 7233  1593 1694 7233  1693 1694 7233  1593 1594 7234  1593 1694 7234  1594 1695 7234  1694 1695 7234  1594 1595 7235  1594 1695 7235  1595 1696 7235  1695 1696 7235  1595 1596 7236  1595 1696 7236  1596 1697 7236  1696 1697 7236  1596 1597 7237  1596 1697 7237  1597 1698 7237  1697 1698 7237  1597 1598 7238  1597 1698 7238  1598 1699 7238  1698 1699 7238  1598 1599 7239  1598 1699 7239  1599 1700 7239  1699 1700 7239  1599 1600 7240  1599 1700 7240  1600 1701 7240  1700 1701 7240  1600 1601 7241  1600 1701 7241  1601 1702 7241  1701 1702 7241  1601 1602 7242  1601 1702 7242  1602 1703 7242  1702 1703 7242  1602 1603 7243  1602 1703 7243  1603 1704 7243  1703 1704 7243  1603 1604 7244  1603 1704 7244  1604 1705 7244  1704 1705 7244  1604 1605 7245  1604 1705 7245  1605 1706 7245  1705 1706 7245  1605 1606 7246  1605 1706 7246  1606 1707 7246  1706 1707 7246  1606 1607 7247  1606 1707 7247  1607 1708 7247  1707 1708 7247  1607 1608 7248  1607 1708 7248  1608 1709 7248  1708 1709 7248  1608 1609 7249  1608 1709 7249  1609 1710 7249  1709 1710 7249  1609 1610 7250  1609 1710 7250  1610 1711 7250  1710 1711 7250  1610 1611 7251  1610 1711 7251  1611 1712 7251  1711 1712 7251  1611 1612 7252  1611 1712 7252  1612 1713 7252  1712 1713 7252  1612 1613 7253  1612 1713 7253  1613 1714 7253  1713 1714 7253  1613 1614 7254  1613 1714 7254  1614 1715 7254  1714 1715 7254  1614 1615 7255  1614 1715 7255  1615 1716 7255  1715 1716 7255  1616 1617 7256  1616 1717 7256  1617 1718 7256  1717 1718 7256  1617 1618 7257  1617 1718 7257  1618 1719 7257  1718 1719 7257  1618 1619 7258  1618 1719 7258  1619 1720 7258  1719 1720 7258  1619 1620 7259  1619 1720 7259  1620 1721 7259  1720 1721 7259  1620 1621 7260  1620 1721 7260  1621 1722 7260  1721 1722 7260  1621 1622 7261  1621 1722 7261  1622 1723 7261  1722 1723 7261  1622 1623 7262  1622 1723 7262  1623 1724 7262  1723 1724 7262  1623 1624 7263  1623 1724 7263  1624 1725 7263  1724 1725 7263  1624 1625 7264  1624 1725 7264  1625 1726 7264  1725 1726 7264  1625 1626 7265  1625 1726 7265  1626 1727 7265  1726 1727 7265  1626 1627 7266  1626 1727 7266  1627 1728 7266  1727 1728 7266  1627 1628 7267  1627 1728 7267  1628 1729 7267  1728 1729 7267  1628 1629 7268  1628 1729 7268  1629 1730 7268  1729 1730 7268  1629 1630 7269  1629 1730 7269  1630 1731 7269  1730 1731 7269  1630 1631 7270  1630 1731 7270  1631 1732 7270  1731 1732 7270  1631 1632 7271  1631 1732 7271  1632 1733 7271  1732 1733 7271  1632 1633 7272  1632 1733 7272  1633 1734 7272  1733 1734 7272  1633 1634 7273  1633 1734 7273  1634 1735 7273  1734 1735 7273  1634 1635 7274  1634 1735 7274  1635 1736 7274  1735 1736 7274  1635 1636 7275  1635 1736 7275  1636 1737 7275  1736 1737 7275  1636 1637 7276  1636 1737 7276  1637 1738 7276  1737 1738 7276  1637 1638 7277  1637 1738 7277  1638 1739 7277  1738 1739 7277  1638 1639 7278  1638 1739 7278  1639 1740 7278  1739 1740 7278  1639 1640 7279  1639 1740 7279  1640 1741 7279  1740 1741 7279  1640 1641 7280  1640 1741 7280  1641 1742 7280  1741 1742 7280  1641 1642 7281  1641 1742 7281  1642 1743 7281  1742 1743 7281  1642 1643 7282  1642 1743 7282  1643 1744 7282  1743 1744 7282  1643 1644 7283  1643 1744 7283  1644 1745 7283  1744 1745 7283  1644 1645 7284  1644 1745 7284  1645 1746 7284  1745 1746 7284  1645 1646 7285  1645 1746 7285  1646 1747 7285  1746 1747 7285  1646 1647 7286  1646 1747 7286  1647 1748 7286  1747 1748 7286  1647 1648 7287  1647 1748 7287  1648 1749 7287  1748 1749 7287  1648 1649 7288  1648 1749 7288  1649 1750 7288  1749 1750 7288  1649 1650 7289  1649 1750 7289  1650 1751 7289  1750 1751 7289  1650 1651 7290  1650 1751 7290  1651 1752 7290  1751 1752 7290  1651 1652 7291  1651 1752 7291  1652 1753 7291  1752 1753 7291  1652 1653 7292  1652 1753 7292  1653 1754 7292  1753 1754 7292  1653 1654 7293  1653 1754 7293  1654 1755 7293  1754 1755 7293  1654 1655 7294  1654 1755 7294  1655 1756 7294  1755 1756 7294  1655 1656 7295  1655 1756 7295  1656 1757 7295  1756 1757 7295  1656 1657 7296  1656 1757 7296  1657 1758 7296  1757 1758 7296  1657 1658 7297  1657 1758 7297  1658 1759 7297  1758 1759 7297  1658 1659 7298  1658 1759 7298  1659 1760 7298  1759 1760 7298  1659 1660 7299  1659 1760 7299  1660 1761 7299  1760 1761 7299  1660 1661 7300  1660 1761 7300  1661 1762 7300  1761 1762 7300  1661 1662 7301  1661 1762 7301  1662 1763 7301  1762 1763 7301  1662 1663 7302  1662 1763 7302  1663 1764 7302  1763 1764 7302  1663 1664 7303  1663 1764 7303  1664 1765 7303  1764 1765 7303  1664 1665 7304  1664 1765 7304  1665 1766 7304  1765 1766 7304  1665 1666 7305  1665 1766 7305  1666 1767 7305  1766 1767 7305  1666 1667 7306  1666 1767 7306  1667 1768 7306  1767 1768 7306  1667 1668 7307  1667 1768 7307  1668 1769 7307  1768 1769 7307  1668 1669 7308  1668 1769 7308  1669 1770 7308  1769 1770 7308  1669 1670 7309  1669 1770 7309  1670 1771 7309  1770 1771 7309  1670 1671 7310  1670 1771 7310  1671 1772 7310  1771 1772 7310  1671 1672 7311  1671 1772 7311  1672 1773 7311  1772 1773 7311  1672 1673 7312  1672 1773 7312  1673 1774 7312  1773 1774 7312  1673 1674 7313  1673 1774 7313  1674 1775 7313  1774 1775 7313  1674 1675 7314  1674 1775 7314  1675 1776 7314  1775 1776 7314  1675 1676 7315  1675 1776 7315  1676 1777 7315  1776 1777 7315  1676 1677 7316  1676 1777 7316  1677 1778 7316  1777 1778 7316  1677 1678 7317  1677 1778 7317  1678 1779 7317  1778 1779 7317  1678 1679 7318  1678 1779 7318  1679 1780 7318  1779 1780 7318  1679 1680 7319  1679 1780 7319  1680 1781 7319  1780 1781 7319  1680 1681 7320  1680 1781 7320  1681 1782 7320  1781 1782 7320  1681 1682 7321  1681 1782 7321  1682 1783 7321  1782 1783 7321  1682 1683 7322  1682 1783 7322  1683 1784 7322  1783 1784 7322  1683 1684 7323  1683 1784 7323  1684 1785 7323  1784 1785 7323  1684 1685 7324  1684 1785 7324  1685 1786 7324  1785 1786 7324  1685 1686 7325  1685 1786 7325  1686 1787 7325  1786 1787 7325  1686 1687 7326  1686 1787 7326  1687 1788 7326  1787 1788 7326  1687 1688 7327  1687 1788 7327  1688 1789 7327  1788 1789 7327  1688 1689 7328  1688 1789 7328  1689 1790 7328  1789 1790 7328  1689 1690 7329  1689 1790 7329  1690 1791 7329  1790 1791 7329  1690 1691 7330  1690 1791 7330  1691 1792 7330  1791 1792 7330  1691 1692 7331  1691 1792 7331  1692 1793 7331  1792 1793 7331  1692 1693 7332  1692 1793 7332  1693 1794 7332  1793 1794 7332  1693 1694 7333  1693 1794 7333  1694 1795 7333  1794 1795 7333  1694 1695 7334  1694 1795 7334  1695 1796 7334  1795 1796 7334  1695 1696 7335  1695 1796 7335  1696 1797 7335  1796 1797 7335  1696 1697 7336  1696 1797 7336  1697 1798 7336  1797 1798 7336  1697 1698 7337  1697 1798 7337  1698 1799 7337  1798 1799 7337  1698 1699 7338  1698 1799 7338  1699 1800 7338  1799 1800 7338  1699 1700 7339  1699 1800 7339  1700 1801 7339  1800 1801 7339  1700 1701 7340  1700 1801 7340  1701 1802 7340  1801 1802 7340  1701 1702 7341  1701 1802 7341  1702 1803 7341  1802 1803 7341  1702 1703 7342  1702 1803 7342  1703 1804 7342  1803 1804 7342  1703 1704 7343  1703 1804 7343  1704 1805 7343  1804 1805 7343  1704 1705 7344  1704 1805 7344  1705 1806 7344  1805 1806 7344  1705 1706 7345  1705 1806 7345  1706 1807 7345  1806 1807 7345  1706 1707 7346  1706 1807 7346  1707 1808 7346  1807 1808 7346  1707 1708 7347  1707 1808 7347  1708 1809 7347  1808 1809 7347  1708 1709 7348  1708 1809 7348  1709 1810 7348  1809 1810 7348  1709 1710 7349  1709 1810 7349  1710 1811 7349  1810 1811 7349  1710 1711 7350  1710 1811 7350  1711 1812 7350  1811 1812 7350  1711 1712 7351  1711 1812 7351  1712 1813 7351  1812 1813 7351  1712 1713 7352  1712 1813 7352  1713 1814 7352  1813 1814 7352  1713 1714 7353  1713 1814 7353  1714 1815 7353  1814 1815 7353  1714 1715 7354  1714 1815 7354  1715 1816 7354  1815 1816 7354  1715 1716 7355  1715 1816 7355  1716 1817 7355  1816 1817 7355  1717 1718 7356  1717 1818 7356  1718 1819 7356  1818 1819 7356  1718 1719 7357  1718 1819 7357  1719 1820 7357  1819 1820 7357  1719 1720 7358  1719 1820 7358  1720 1821 7358  1820 1821 7358  1720 1721 7359  1720 1821 7359  1721 1822 7359  1821 1822 7359  1721 1722 7360  1721 1822 7360  1722 1823 7360  1822 1823 7360  1722 1723 7361  1722 1823 7361  1723 1824 7361  1823 1824 7361  1723 1724 7362  1723 1824 7362  1724 1825 7362  1824 1825 7362  1724 1725 7363  1724 1825 7363  1725 1826 7363  1825 1826 7363  1725 1726 7364  1725 1826 7364  1726 1827 7364  1826 1827 7364  1726 1727 7365  1726 1827 7365  1727 1828 7365  1827 1828 7365  1727 1728 7366  1727 1828 7366  1728 1829 7366  1828 1829 7366  1728 1729 7367  1728 1829 7367  1729 1830 7367  1829 1830 7367  1729 1730 7368  1729 1830 7368  1730 1831 7368  1830 1831 7368  1730 1731 7369  1730 1831 7369  1731 1832 7369  1831 1832 7369  1731 1732 7370  1731 1832 7370  1732 1833 7370  1832 1833 7370  1732 1733 7371  1732 1833 7371  1733 1834 7371  1833 1834 7371  1733 1734 7372  1733 1834 7372  1734 1835 7372  1834 1835 7372  1734 1735 7373  1734 1835 7373  1735 1836 7373  1835 1836 7373  1735 1736 7374  1735 1836 7374  1736 1837 7374  1836 1837 7374  1736 1737 7375  1736 1837 7375  1737 1838 7375  1837 1838 7375  1737 1738 7376  1737 1838 7376  1738 1839 7376  1838 1839 7376  1738 1739 7377  1738 1839 7377  1739 1840 7377  1839 1840 7377  1739 1740 7378  1739 1840 7378  1740 1841 7378  1840 1841 7378  1740 1741 7379  1740 1841 7379  1741 1842 7379  1841 1842 7379  1741 1742 7380  1741 1842 7380  1742 1843 7380  1842 1843 7380  1742 1743 7381  1742 1843 7381  1743 1844 7381  1843 1844 7381  1743 1744 7382  1743 1844 7382  1744 1845 7382  1844 1845 7382  1744 1745 7383  1744 1845 7383  1745 1846 7383  1845 1846 7383  1745 1746 7384  1745 1846 7384  1746 1847 7384  1846 1847 7384  1746 1747 7385  1746 1847 7385  1747 1848 7385  1847 1848 7385  1747 1748 7386  1747 1848 7386  1748 1849 7386  1848 1849 7386  1748 1749 7387  1748 1849 7387  1749 1850 7387  1849 1850 7387  1749 1750 7388  1749 1850 7388  1750 1851 7388  1850 1851 7388  1750 1751 7389  1750 1851 7389  1751 1852 7389  1851 1852 7389  1751 1752 7390  1751 1852 7390  1752 1853 7390  1852 1853 7390  1752 1753 7391  1752 1853 7391  1753 1854 7391  1853 1854 7391  1753 1754 7392  1753 1854 7392  1754 1855 7392  1854 1855 7392  1754 1755 7393  1754 1855 7393  1755 1856 7393  1855 1856 7393  1755 1756 7394  1755 1856 7394  1756 1857 7394  1856 1857 7394  1756 1757 7395  1756 1857 7395  1757 1858 7395  1857 1858 7395  1757 1758 7396  1757 1858 7396  1758 1859 7396  1858 1859 7396  1758 1759 7397  1758 1859 7397  1759 1860 7397  1859 1860 7397  1759 1760 7398  1759 1860 7398  1760 1861 7398  1860 1861 7398  1760 1761 7399  1760 1861 7399  1761 1862 7399  1861 1862 7399  1761 1762 7400  1761 1862 7400  1762 1863 7400  1862 1863 7400  1762 1763 7401  1762 1863 7401  1763 1864 7401  1863 1864 7401  1763 1764 7402  1763 1864 7402  1764 1865 7402  1864 1865 7402  1764 1765 7403  1764 1865 7403  1765 1866 7403  1865 1866 7403  1765 1766 7404  1765 1866 7404  1766 1867 7404  1866 1867 7404  1766 1767 7405  1766 1867 7405  1767 1868 7405  1867 1868 7405  1767 1768 7406  1767 1868 7406  1768 1869 7406  1868 1869 7406  1768 1769 7407  1768 1869 7407  1769 1870 7407  1869 1870 7407  1769 1770 7408  1769 1870 7408  1770 1871 7408  1870 1871 7408  1770 1771 7409  1770 1871 7409  1771 1872 7409  1871 1872 7409  1771 1772 7410  1771 1872 7410  1772 1873 7410  1872 1873 7410  1772 1773 7411  1772 1873 7411  1773 1874 7411  1873 1874 7411  1773 1774 7412  1773 1874 7412  1774 1875 7412  1874 1875 7412  1774 1775 7413  1774 1875 7413  1775 1876 7413  1875 1876 7413  1775 1776 7414  1775 1876 7414  1776 1877 7414  1876 1877 7414  1776 1777 7415  1776 1877 7415  1777 1878 7415  1877 1878 7415  1777 1778 7416  1777 1878 7416  1778 1879 7416  1878 1879 7416  1778 1779 7417  1778 1879 7417  1779 1880 7417  1879 1880 7417  1779 1780 7418  1779 1880 7418  1780 1881 7418  1880 1881 7418  1780 1781 7419  1780 1881 7419  1781 1882 7419  1881 1882 7419  1781 1782 7420  1781 1882 7420  1782 1883 7420  1882 1883 7420  1782 1783 7421  1782 1883 7421  1783 1884 7421  1883 1884 7421  1783 1784 7422  1783 1884 7422  1784 1885 7422  1884 1885 7422  1784 1785 7423  1784 1885 7423  1785 1886 7423  1885 1886 7423  1785 1786 7424  1785 1886 7424  1786 1887 7424  1886 1887 7424  1786 1787 7425  1786 1887 7425  1787 1888 7425  1887 1888 7425  1787 1788 7426  1787 1888 7426  1788 1889 7426  1888 1889 7426  1788 1789 7427  1788 1889 7427  1789 1890 7427  1889 1890 7427  1789 1790 7428  1789 1890 7428  1790 1891 7428  1890 1891 7428  1790 1791 7429  1790 1891 7429  1791 1892 7429  1891 1892 7429  1791 1792 7430  1791 1892 7430  1792 1893 7430  1892 1893 7430  1792 1793 7431  1792 1893 7431  1793 1894 7431  1893 1894 7431  1793 1794 7432  1793 1894 7432  1794 1895 7432  1894 1895 7432  1794 1795 7433  1794 1895 7433  1795 1896 7433  1895 1896 7433  1795 1796 7434  1795 1896 7434  1796 1897 7434  1896 1897 7434  1796 1797 7435  1796 1897 7435  1797 1898 7435  1897 1898 7435  1797 1798 7436  1797 1898 7436  1798 1899 7436  1898 1899 7436  1798 1799 7437  1798 1899 7437  1799 1900 7437  1899 1900 7437  1799 1800 7438  1799 1900 7438  1800 1901 7438  1900 1901 7438  1800 1801 7439  1800 1901 7439  1801 1902 7439  1901 1902 7439  1801 1802 7440  1801 1902 7440  1802 1903 7440  1902 1903 7440  1802 1803 7441  1802 1903 7441  1803 1904 7441  1903 1904 7441  1803 1804 7442  1803 1904 7442  1804 1905 7442  1904 1905 7442  1804 1805 7443  1804 1905 7443  1805 1906 7443  1905 1906 7443  1805 1806 7444  1805 1906 7444  1806 1907 7444  1906 1907 7444  1806 1807 7445  1806 1907 7445  1807 1908 7445  1907 1908 7445  1807 1808 7446  1807 1908 7446  1808 1909 7446  1908 1909 7446  1808 1809 7447  1808 1909 7447  1809 1910 7447  1909 1910 7447  1809 1810 7448  1809 1910 7448  1810 1911 7448  1910 1911 7448  1810 1811 7449  1810 1911 7449  1811 1912 7449  1911 1912 7449  1811 1812 7450  1811 1912 7450  1812 1913 7450  1912 1913 7450  1812 1813 7451  1812 1913 7451  1813 1914 7451  1913 1914 7451  1813 1814 7452  1813 1914 7452  1814 1915 7452  1914 1915 7452  1814 1815 7453  1814 1915 7453  1815 1916 7453  1915 1916 7453  1815 1816 7454  1815 1916 7454  1816 1917 7454  1916 1917 7454  1816 1817 7455  1816 1917 7455  1817 1918 7455  1917 1918 7455  1818 1819 7456  1818 1919 7456  1819 1920 7456  1919 1920 7456  1819 1820 7457  1819 1920 7457  1820 1921 7457  1920 1921 7457  1820 1821 7458  1820 1921 7458  1821 1922 7458  1921 1922 7458  1821 1822 7459  1821 1922 7459  1822 1923 7459  1922 1923 7459  1822 1823 7460  1822 1923 7460  1823 1924 7460  1923 1924 7460  1823 1824 7461  1823 1924 7461  1824 1925 7461  1924 1925 7461  1824 1825 7462  1824 1925 7462  1825 1926 7462  1925 1926 7462  1825 1826 7463  1825 1926 7463  1826 1927 7463  1926 1927 7463  1826 1827 7464  1826 1927 7464  1827 1928 7464  1927 1928 7464  1827 1828 7465  1827 1928 7465  1828 1929 7465  1928 1929 7465  1828 1829 7466  1828 1929 7466  1829 1930 7466  1929 1930 7466  1829 1830 7467  1829 1930 7467  1830 1931 7467  1930 1931 7467  1830 1831 7468  1830 1931 7468  1831 1932 7468  1931 1932 7468  1831 1832 7469  1831 1932 7469  1832 1933 7469  1932 1933 7469  1832 1833 7470  1832 1933 7470  1833 1934 7470  1933 1934 7470  1833 1834 7471  1833 1934 7471  1834 1935 7471  1934 1935 7471  1834 1835 7472  1834 1935 7472  1835 1936 7472  1935 1936 7472  1835 1836 7473  1835 1936 7473  1836 1937 7473  1936 1937 7473  1836 1837 7474  1836 1937 7474  1837 1938 7474  1937 1938 7474  1837 1838 7475  1837 1938 7475  1838 1939 7475  1938 1939 7475  1838 1839 7476  1838 1939 7476  1839 1940 7476  1939 1940 7476  1839 1840 7477  1839 1940 7477  1840 1941 7477  1940 1941 7477  1840 1841 7478  1840 1941 7478  1841 1942 7478  1941 1942 7478  1841 1842 7479  1841 1942 7479  1842 1943 7479  1942 1943 7479  1842 1843 7480  1842 1943 7480  1843 1944 7480  1943 1944 7480  1843 1844 7481  1843 1944 7481  1844 1945 7481  1944 1945 7481  1844 1845 7482  1844 1945 7482  1845 1946 7482  1945 1946 7482  1845 1846 7483  1845 1946 7483  1846 1947 7483  1946 1947 7483  1846 1847 7484  1846 1947 7484  1847 1948 7484  1947 1948 7484  1847 1848 7485  1847 1948 7485  1848 1949 7485  1948 1949 7485  1848 1849 7486  1848 1949 7486  1849 1950 7486  1949 1950 7486  1849 1850 7487  1849 1950 7487  1850 1951 7487  1950 1951 7487  1850 1851 7488  1850 1951 7488  1851 1952 7488  1951 1952 7488  1851 1852 7489  1851 1952 7489  1852 1953 7489  1952 1953 7489  1852 1853 7490  1852 1953 7490  1853 1954 7490  1953 1954 7490  1853 1854 7491  1853 1954 7491  1854 1955 7491  1954 1955 7491  1854 1855 7492  1854 1955 7492  1855 1956 7492  1955 1956 7492  1855 1856 7493  1855 1956 7493  1856 1957 7493  1956 1957 7493  1856 1857 7494  1856 1957 7494  1857 1958 7494  1957 1958 7494  1857 1858 7495  1857 1958 7495  1858 1959 7495  1958 1959 7495  1858 1859 7496  1858 1959 7496  1859 1960 7496  1959 1960 7496  1859 1860 7497  1859 1960 7497  1860 1961 7497  1960 1961 7497  1860 1861 7498  1860 1961 7498  1861 1962 7498  1961 1962 7498  1861 1862 7499  1861 1962 7499  1862 1963 7499  1962 1963 7499  1862 1863 7500  1862 1963 7500  1863 1964 7500  1963 1964 7500  1863 1864 7501  1863 1964 7501  1864 1965 7501  1964 1965 7501  1864 1865 7502  1864 1965 7502  1865 1966 7502  1965 1966 7502  1865 1866 7503  1865 1966 7503  1866 1967 7503  1966 1967 7503  1866 1867 7504  1866 1967 7504  1867 1968 7504  1967 1968 7504  1867 1868 7505  1867 1968 7505  1868 1969 7505  1968 1969 7505  1868 1869 7506  1868 1969 7506  1869 1970 7506  1969 1970 7506  1869 1870 7507  1869 1970 7507  1870 1971 7507  1970 1971 7507  1870 1871 7508  1870 1971 7508  1871 1972 7508  1971 1972 7508  1871 1872 7509  1871 1972 7509  1872 1973 7509  1972 1973 7509  1872 1873 7510  1872 1973 7510  1873 1974 7510  1973 1974 7510  1873 1874 7511  1873 1974 7511  1874 1975 7511  1974 1975 7511  1874 1875 7512  1874 1975 7512  1875 1976 7512  1975 1976 7512  1875 1876 7513  1875 1976 7513  1876 1977 7513  1976 1977 7513  1876 1877 7514  1876 1977 7514  1877 1978 7514  1977 1978 7514  1877 1878 7515  1877 1978 7515  1878 1979 7515  1978 1979 7515  1878 1879 7516  1878 1979 7516  1879 1980 7516  1979 1980 7516  1879 1880 7517  1879 1980 7517  1880 1981 7517  1980 1981 7517  1880 1881 7518  1880 1981 7518  1881 1982 7518  1981 1982 7518  1881 1882 7519  1881 1982 7519  1882 1983 7519  1982 1983 7519  1882 1883 7520  1882 1983 7520  1883 1984 7520  1983 1984 7520  1883 1884 7521  1883 1984 7521  1884 1985 7521  1984 1985 7521  1884 1885 7522  1884 1985 7522  1885 1986 7522  1985 1986 7522  1885 1886 7523  1885 1986 7523  1886 1987 7523  1986 1987 7523  1886 1887 7524  1886 1987 7524  1887 1988 7524  1987 1988 7524  1887 1888 7525  1887 1988 7525  1888 1989 7525  1988 1989 7525  1888 1889 7526  1888 1989 7526  1889 1990 7526  1989 1990 7526  1889 1890 7527  1889 1990 7527  1890 1991 7527  1990 1991 7527  1890 1891 7528  1890 1991 7528  1891 1992 7528  1991 1992 7528  1891 1892 7529  1891 1992 7529  1892 1993 7529  1992 1993 7529  1892 1893 7530  1892 1993 7530  1893 1994 7530  1993 1994 7530  1893 1894 7531  1893 1994 7531  1894 1995 7531  1994 1995 7531  1894 1895 7532  1894 1995 7532  1895 1996 7532  1995 1996 7532  1895 1896 7533  1895 1996 7533  1896 1997 7533  1996 1997 7533  1896 1897 7534  1896 1997 7534  1897 1998 7534  1997 1998 7534  1897 1898 7535  1897 1998 7535  1898 1999 7535  1998 1999 7535  1898 1899 7536  1898 1999 7536  1899 2000 7536  1999 2000 7536  1899 1900 7537  1899 2000 7537  1900 2001 7537  2000 2001 7537  1900 1901 7538  1900 2001 7538  1901 2002 7538  2001 2002 7538  1901 1902 7539  1901 2002 7539  1902 2003 7539  2002 2003 7539  1902 1903 7540  1902 2003 7540  1903 2004 7540  2003 2004 7540  1903 1904 7541  1903 2004 7541  1904 2005 7541  2004 2005 7541  1904 1905 7542  1904 2005 7542  1905 2006 7542  2005 2006 7542  1905 1906 7543  1905 2006 7543  1906 2007 7543  2006 2007 7543  1906 1907 7544  1906 2007 7544  1907 2008 7544  2007 2008 7544  1907 1908 7545  1907 2008 7545  1908 2009 7545  2008 2009 7545  1908 1909 7546  1908 2009 7546  1909 2010 7546  2009 2010 7546  1909 1910 7547  1909 2010 7547  1910 2011 7547  2010 2011 7547  1910 1911 7548  1910 2011 7548  1911 2012 7548  2011 2012 7548  1911 1912 7549  1911 2012 7549  1912 2013 7549  2012 2013 7549  1912 1913 7550  1912 2013 7550  1913 2014 7550  2013 2014 7550  1913 1914 7551  1913 2014 7551  1914 2015 7551  2014 2015 7551  1914 1915 7552  1914 2015 7552  1915 2016 7552  2015 2016 7552  1915 1916 7553  1915 2016 7553  1916 2017 7553  2016 2017 7553  1916 1917 7554  1916 2017 7554  1917 2018 7554  2017 2018 7554  1917 1918 7555  1917 2018 7555  1918 2019 7555  2018 2019 7555  1919 1920 7556  1919 2020 7556  1920 2021 7556  2020 2021 7556  1920 1921 7557  1920 2021 7557  1921 2022 7557  2021 2022 7557  1921 1922 7558  1921 2022 7558  1922 2023 7558  2022 2023 7558  1922 1923 7559  1922 2023 7559  1923 2024 7559  2023 2024 7559  1923 1924 7560  1923 2024 7560  1924 2025 7560  2024 2025 7560  1924 1925 7561  1924 2025 7561  1925 2026 7561  2025 2026 7561  1925 1926 7562  1925 2026 7562  1926 2027 7562  2026 2027 7562  1926 1927 7563  1926 2027 7563  1927 2028 7563  2027 2028 7563  1927 1928 7564  1927 2028 7564  1928 2029 7564  2028 2029 7564  1928 1929 7565  1928 2029 7565  1929 2030 7565  2029 2030 7565  1929 1930 7566  1929 2030 7566  1930 2031 7566  2030 2031 7566  1930 1931 7567  1930 2031 7567  1931 2032 7567  2031 2032 7567  1931 1932 7568  1931 2032 7568  1932 2033 7568  2032 2033 7568  1932 1933 7569  1932 2033 7569  1933 2034 7569  2033 2034 7569  1933 1934 7570  1933 2034 7570  1934 2035 7570  2034 2035 7570  1934 1935 7571  1934 2035 7571  1935 2036 7571  2035 2036 7571  1935 1936 7572  1935 2036 7572  1936 2037 7572  2036 2037 7572  1936 1937 7573  1936 2037 7573  1937 2038 7573  2037 2038 7573  1937 1938 7574  1937 2038 7574  1938 2039 7574  2038 2039 7574  1938 1939 7575  1938 2039 7575  1939 2040 7575  2039 2040 7575  1939 1940 7576  1939 2040 7576  1940 2041 7576  2040 2041 7576  1940 1941 7577  1940 2041 7577  1941 2042 7577  2041 2042 7577  1941 1942 7578  1941 2042 7578  1942 2043 7578  2042 2043 7578  1942 1943 7579  1942 2043 7579  1943 2044 7579  2043 2044 7579  1943 1944 7580  1943 2044 7580  1944 2045 7580  2044 2045 7580  1944 1945 7581  1944 2045 7581  1945 2046 7581  2045 2046 7581  1945 1946 7582  1945 2046 7582  1946 2047 7582  2046 2047 7582  1946 1947 7583  1946 2047 7583  1947 2048 7583  2047 2048 7583  1947 1948 7584  1947 2048 7584  1948 2049 7584  2048 2049 7584  1948 1949 7585  1948 2049 7585  1949 2050 7585  2049 2050 7585  1949 1950 7586  1949 2050 7586  1950 2051 7586  2050 2051 7586  1950 1951 7587  1950 2051 7587  1951 2052 7587  2051 2052 7587  1951 1952 7588  1951 2052 7588  1952 2053 7588  2052 2053 7588  1952 1953 7589  1952 2053 7589  1953 2054 7589  2053 2054 7589  1953 1954 7590  1953 2054 7590  1954 2055 7590  2054 2055 7590  1954 1955 7591  1954 2055 7591  1955 2056 7591  2055 2056 7591  1955 1956 7592  1955 2056 7592  1956 2057 7592  2056 2057 7592  1956 1957 7593  1956 2057 7593  1957 2058 7593  2057 2058 7593  1957 1958 7594  1957 2058 7594  1958 2059 7594  2058 2059 7594  1958 1959 7595  1958 2059 7595  1959 2060 7595  2059 2060 7595  1959 1960 7596  1959 2060 7596  1960 2061 7596  2060 2061 7596  1960 1961 7597  1960 2061 7597  1961 2062 7597  2061 2062 7597  1961 1962 7598  1961 2062 7598  1962 2063 7598  2062 2063 7598  1962 1963 7599  1962 2063 7599  1963 2064 7599  2063 2064 7599  1963 1964 7600  1963 2064 7600  1964 2065 7600  2064 2065 7600  1964 1965 7601  1964 2065 7601  1965 2066 7601  2065 2066 7601  1965 1966 7602  1965 2066 7602  1966 2067 7602  2066 2067 7602  1966 1967 7603  1966 2067 7603  1967 2068 7603  2067 2068 7603  1967 1968 7604  1967 2068 7604  1968 2069 7604  2068 2069 7604  1968 1969 7605  1968 2069 7605  1969 2070 7605  2069 2070 7605  1969 1970 7606  1969 2070 7606  1970 2071 7606  2070 2071 7606  1970 1971 7607  1970 2071 7607  1971 2072 7607  2071 2072 7607  1971 1972 7608  1971 2072 7608  1972 2073 7608  2072 2073 7608  1972 1973 7609  1972 2073 7609  1973 2074 7609  2073 2074 7609  1973 1974 7610  1973 2074 7610  1974 2075 7610  2074 2075 7610  1974 1975 7611  1974 2075 7611  1975 2076 7611  2075 2076 7611  1975 1976 7612  1975 2076 7612  1976 2077 7612  2076 2077 7612  1976 1977 7613  1976 2077 7613  1977 2078 7613  2077 2078 7613  1977 1978 7614  1977 2078 7614  1978 2079 7614  2078 2079 7614  1978 1979 7615  1978 2079 7615  1979 2080 7615  2079 2080 7615  1979 1980 7616  1979 2080 7616  1980 2081 7616  2080 2081 7616  1980 1981 7617  1980 2081 7617  1981 2082 7617  2081 2082 7617  1981 1982 7618  1981 2082 7618  1982 2083 7618  2082 2083 7618  1982 1983 7619  1982 2083 7619  1983 2084 7619  2083 2084 7619  1983 1984 7620  1983 2084 7620  1984 2085 7620  2084 2085 7620  1984 1985 7621  1984 2085 7621  1985 2086 7621  2085 2086 7621  1985 1986 7622  1985 2086 7622  1986 2087 7622  2086 2087 7622  1986 1987 7623  1986 2087 7623  1987 2088 7623  2087 2088 7623  1987 1988 7624  1987 2088 7624  1988 2089 7624  2088 2089 7624  1988 1989 7625  1988 2089 7625  1989 2090 7625  2089 2090 7625  1989 1990 7626  1989 2090 7626  1990 2091 7626  2090 2091 7626  1990 1991 7627  1990 2091 7627  1991 2092 7627  2091 2092 7627  1991 1992 7628  1991 2092 7628  1992 2093 7628  2092 2093 7628  1992 1993 7629  1992 2093 7629  1993 2094 7629  2093 2094 7629  1993 1994 7630  1993 2094 7630  1994 2095 7630  2094 2095 7630  1994 1995 7631  1994 2095 7631  1995 2096 7631  2095 2096 7631  1995 1996 7632  1995 2096 7632  1996 2097 7632  2096 2097 7632  1996 1997 7633  1996 2097 7633  1997 2098 7633  2097 2098 7633  1997 1998 7634  1997 2098 7634  1998 2099 7634  2098 2099 7634  1998 1999 7635  1998 2099 7635  1999 2100 7635  2099 2100 7635  1999 2000 7636  1999 2100 7636  2000 2101 7636  2100 2101 7636  2000 2001 7637  2000 2101 7637  2001 2102 7637  2101 2102 7637  2001 2002 7638  2001 2102 7638  2002 2103 7638  2102 2103 7638  2002 2003 7639  2002 2103 7639  2003 2104 7639  2103 2104 7639  2003 2004 7640  2003 2104 7640  2004 2105 7640  2104 2105 7640  2004 2005 7641  2004 2105 7641  2005 2106 7641  2105 2106 7641  2005 2006 7642  2005 2106 7642  2006 2107 7642  2106 2107 7642  2006 2007 7643  2006 2107 7643  2007 2108 7643  2107 2108 7643  2007 2008 7644  2007 2108 7644  2008 2109 7644  2108 2109 7644  2008 2009 7645  2008 2109 7645  2009 2110 7645  2109 2110 7645  2009 2010 7646  2009 2110 7646  2010 2111 7646  2110 2111 7646  2010 2011 7647  2010 2111 7647  2011 2112 7647  2111 2112 7647  2011 2012 7648  2011 2112 7648  2012 2113 7648  2112 2113 7648  2012 2013 7649  2012 2113 7649  2013 2114 7649  2113 2114 7649  2013 2014 7650  2013 2114 7650  2014 2115 7650  2114 2115 7650  2014 2015 7651  2014 2115 7651  2015 2116 7651  2115 2116 7651  2015 2016 7652  2015 2116 7652  2016 2117 7652  2116 2117 7652  2016 2017 7653  2016 2117 7653  2017 2118 7653  2117 2118 7653  2017 2018 7654  2017 2118 7654  2018 2119 7654  2118 2119 7654  2018 2019 7655  2018 2119 7655  2019 2120 7655  2119 2120 7655  2020 2021 7656  2020 2121 7656  2021 2122 7656  2121 2122 7656  2021 2022 7657  2021 2122 7657  2022 2123 7657  2122 2123 7657  2022 2023 7658  2022 2123 7658  2023 2124 7658  2123 2124 7658  2023 2024 7659  2023 2124 7659  2024 2125 7659  2124 2125 7659  2024 2025 7660  2024 2125 7660  2025 2126 7660  2125 2126 7660  2025 2026 7661  2025 2126 7661  2026 2127 7661  2126 2127 7661  2026 2027 7662  2026 2127 7662  2027 2128 7662  2127 2128 7662  2027 2028 7663  2027 2128 7663  2028 2129 7663  2128 2129 7663  2028 2029 7664  2028 2129 7664  2029 2130 7664  2129 2130 7664  2029 2030 7665  2029 2130 7665  2030 2131 7665  2130 2131 7665  2030 2031 7666  2030 2131 7666  2031 2132 7666  2131 2132 7666  2031 2032 7667  2031 2132 7667  2032 2133 7667  2132 2133 7667  2032 2033 7668  2032 2133 7668  2033 2134 7668  2133 2134 7668  2033 2034 7669  2033 2134 7669  2034 2135 7669  2134 2135 7669  2034 2035 7670  2034 2135 7670  2035 2136 7670  2135 2136 7670  2035 2036 7671  2035 2136 7671  2036 2137 7671  2136 2137 7671  2036 2037 7672  2036 2137 7672  2037 2138 7672  2137 2138 7672  2037 2038 7673  2037 2138 7673  2038 2139 7673  2138 2139 7673  2038 2039 7674  2038 2139 7674  2039 2140 7674  2139 2140 7674  2039 2040 7675  2039 2140 7675  2040 2141 7675  2140 2141 7675  2040 2041 7676  2040 2141 7676  2041 2142 7676  2141 2142 7676  2041 2042 7677  2041 2142 7677  2042 2143 7677  2142 2143 7677  2042 2043 7678  2042 2143 7678  2043 2144 7678  2143 2144 7678  2043 2044 7679  2043 2144 7679  2044 2145 7679  2144 2145 7679  2044 2045 7680  2044 2145 7680  2045 2146 7680  2145 2146 7680  2045 2046 7681  2045 2146 7681  2046 2147 7681  2146 2147 7681  2046 2047 7682  2046 2147 7682  2047 2148 7682  2147 2148 7682  2047 2048 7683  2047 2148 7683  2048 2149 7683  2148 2149 7683  2048 2049 7684  2048 2149 7684  2049 2150 7684  2149 2150 7684  2049 2050 7685  2049 2150 7685  2050 2151 7685  2150 2151 7685  2050 2051 7686  2050 2151 7686  2051 2152 7686  2151 2152 7686  2051 2052 7687  2051 2152 7687  2052 2153 7687  2152 2153 7687  2052 2053 7688  2052 2153 7688  2053 2154 7688  2153 2154 7688  2053 2054 7689  2053 2154 7689  2054 2155 7689  2154 2155 7689  2054 2055 7690  2054 2155 7690  2055 2156 7690  2155 2156 7690  2055 2056 7691  2055 2156 7691  2056 2157 7691  2156 2157 7691  2056 2057 7692  2056 2157 7692  2057 2158 7692  2157 2158 7692  2057 2058 7693  2057 2158 7693  2058 2159 7693  2158 2159 7693  2058 2059 7694  2058 2159 7694  2059 2160 7694  2159 2160 7694  2059 2060 7695  2059 2160 7695  2060 2161 7695  2160 2161 7695  2060 2061 7696  2060 2161 7696  2061 2162 7696  2161 2162 7696  2061 2062 7697  2061 2162 7697  2062 2163 7697  2162 2163 7697  2062 2063 7698  2062 2163 7698  2063 2164 7698  2163 2164 7698  2063 2064 7699  2063 2164 7699  2064 2165 7699  2164 2165 7699  2064 2065 7700  2064 2165 7700  2065 2166 7700  2165 2166 7700  2065 2066 7701  2065 2166 7701  2066 2167 7701  2166 2167 7701  2066 2067 7702  2066 2167 7702  2067 2168 7702  2167 2168 7702  2067 2068 7703  2067 2168 7703  2068 2169 7703  2168 2169 7703  2068 2069 7704  2068 2169 7704  2069 2170 7704  2169 2170 7704  2069 2070 7705  2069 2170 7705  2070 2171 7705  2170 2171 7705  2070 2071 7706  2070 2171 7706  2071 2172 7706  2171 2172 7706  2071 2072 7707  2071 2172 7707  2072 2173 7707  2172 2173 7707  2072 2073 7708  2072 2173 7708  2073 2174 7708  2173 2174 7708  2073 2074 7709  2073 2174 7709  2074 2175 7709  2174 2175 7709  2074 2075 7710  2074 2175 7710  2075 2176 7710  2175 2176 7710  2075 2076 7711  2075 2176 7711  2076 2177 7711  2176 2177 7711  2076 2077 7712  2076 2177 7712  2077 2178 7712  2177 2178 7712  2077 2078 7713  2077 2178 7713  2078 2179 7713  2178 2179 7713  2078 2079 7714  2078 2179 7714  2079 2180 7714  2179 2180 7714  2079 2080 7715  2079 2180 7715  2080 2181 7715  2180 2181 7715  2080 2081 7716  2080 2181 7716  2081 2182 7716  2181 2182 7716  2081 2082 7717  2081 2182 7717  2082 2183 7717  2182 2183 7717  2082 2083 7718  2082 2183 7718  2083 2184 7718  2183 2184 7718  2083 2084 7719  2083 2184 7719  2084 2185 7719  2184 2185 7719  2084 2085 7720  2084 2185 7720  2085 2186 7720  2185 2186 7720  2085 2086 7721  2085 2186 7721  2086 2187 7721  2186 2187 7721  2086 2087 7722  2086 2187 7722  2087 2188 7722  2187 2188 7722  2087 2088 7723  2087 2188 7723  2088 2189 7723  2188 2189 7723  2088 2089 7724  2088 2189 7724  2089 2190 7724  2189 2190 7724  2089 2090 7725  2089 2190 7725  2090 2191 7725  2190 2191 7725  2090 2091 7726  2090 2191 7726  2091 2192 7726  2191 2192 7726  2091 2092 7727  2091 2192 7727  2092 2193 7727  2192 2193 7727  2092 2093 7728  2092 2193 7728  2093 2194 7728  2193 2194 7728  2093 2094 7729  2093 2194 7729  2094 2195 7729  2194 2195 7729  2094 2095 7730  2094 2195 7730  2095 2196 7730  2195 2196 7730  2095 2096 7731  2095 2196 7731  2096 2197 7731  2196 2197 7731  2096 2097 7732  2096 2197 7732  2097 2198 7732  2197 2198 7732  2097 2098 7733  2097 2198 7733  2098 2199 7733  2198 2199 7733  2098 2099 7734  2098 2199 7734  2099 2200 7734  2199 2200 7734  2099 2100 7735  2099 2200 7735  2100 2201 7735  2200 2201 7735  2100 2101 7736  2100 2201 7736  2101 2202 7736  2201 2202 7736  2101 2102 7737  2101 2202 7737  2102 2203 7737  2202 2203 7737  2102 2103 7738  2102 2203 7738  2103 2204 7738  2203 2204 7738  2103 2104 7739  2103 2204 7739  2104 2205 7739  2204 2205 7739  2104 2105 7740  2104 2205 7740  2105 2206 7740  2205 2206 7740  2105 2106 7741  2105 2206 7741  2106 2207 7741  2206 2207 7741  2106 2107 7742  2106 2207 7742  2107 2208 7742  2207 2208 7742  2107 2108 7743  2107 2208 7743  2108 2209 7743  2208 2209 7743  2108 2109 7744  2108 2209 7744  2109 2210 7744  2209 2210 7744  2109 2110 7745  2109 2210 7745  2110 2211 7745  2210 2211 7745  2110 2111 7746  2110 2211 7746  2111 2212 7746  2211 2212 7746  2111 2112 7747  2111 2212 7747  2112 2213 7747  2212 2213 7747  2112 2113 7748  2112 2213 7748  2113 2214 7748  2213 2214 7748  2113 2114 7749  2113 2214 7749  2114 2215 7749  2214 2215 7749  2114 2115 7750  2114 2215 7750  2115 2216 7750  2215 2216 7750  2115 2116 7751  2115 2216 7751  2116 2217 7751  2216 2217 7751  2116 2117 7752  2116 2217 7752  2117 2218 7752  2217 2218 7752  2117 2118 7753  2117 2218 7753  2118 2219 7753  2218 2219 7753  2118 2119 7754  2118 2219 7754  2119 2220 7754  2219 2220 7754  2119 2120 7755  2119 2220 7755  2120 2221 7755  2220 2221 7755  2121 2122 7756  2121 2222 7756  2122 2223 7756  2222 2223 7756  2122 2123 7757  2122 2223 7757  2123 2224 7757  2223 2224 7757  2123 2124 7758  2123 2224 7758  2124 2225 7758  2224 2225 7758  2124 2125 7759  2124 2225 7759  2125 2226 7759  2225 2226 7759  2125 2126 7760  2125 2226 7760  2126 2227 7760  2226 2227 7760  2126 2127 7761  2126 2227 7761  2127 2228 7761  2227 2228 7761  2127 2128 7762  2127 2228 7762  2128 2229 7762  2228 2229 7762  2128 2129 7763  2128 2229 7763  2129 2230 7763  2229 2230 7763  2129 2130 7764  2129 2230 7764  2130 2231 7764  2230 2231 7764  2130 2131 7765  2130 2231 7765  2131 2232 7765  2231 2232 7765  2131 2132 7766  2131 2232 7766  2132 2233 7766  2232 2233 7766  2132 2133 7767  2132 2233 7767  2133 2234 7767  2233 2234 7767  2133 2134 7768  2133 2234 7768  2134 2235 7768  2234 2235 7768  2134 2135 7769  2134 2235 7769  2135 2236 7769  2235 2236 7769  2135 2136 7770  2135 2236 7770  2136 2237 7770  2236 2237 7770  2136 2137 7771  2136 2237 7771  2137 2238 7771  2237 2238 7771  2137 2138 7772  2137 2238 7772  2138 2239 7772  2238 2239 7772  2138 2139 7773  2138 2239 7773  2139 2240 7773  2239 2240 7773  2139 2140 7774  2139 2240 7774  2140 2241 7774  2240 2241 7774  2140 2141 7775  2140 2241 7775  2141 2242 7775  2241 2242 7775  2141 2142 7776  2141 2242 7776  2142 2243 7776  2242 2243 7776  2142 2143 7777  2142 2243 7777  2143 2244 7777  2243 2244 7777  2143 2144 7778  2143 2244 7778  2144 2245 7778  2244 2245 7778  2144 2145 7779  2144 2245 7779  2145 2246 7779  2245 2246 7779  2145 2146 7780  2145 2246 7780  2146 2247 7780  2246 2247 7780  2146 2147 7781  2146 2247 7781  2147 2248 7781  2247 2248 7781  2147 2148 7782  2147 2248 7782  2148 2249 7782  2248 2249 7782  2148 2149 7783  2148 2249 7783  2149 2250 7783  2249 2250 7783  2149 2150 7784  2149 2250 7784  2150 2251 7784  2250 2251 7784  2150 2151 7785  2150 2251 7785  2151 2252 7785  2251 2252 7785  2151 2152 7786  2151 2252 7786  2152 2253 7786  2252 2253 7786  2152 2153 7787  2152 2253 7787  2153 2254 7787  2253 2254 7787  2153 2154 7788  2153 2254 7788  2154 2255 7788  2254 2255 7788  2154 2155 7789  2154 2255 7789  2155 2256 7789  2255 2256 7789  2155 2156 7790  2155 2256 7790  2156 2257 7790  2256 2257 7790  2156 2157 7791  2156 2257 7791  2157 2258 7791  2257 2258 7791  2157 2158 7792  2157 2258 7792  2158 2259 7792  2258 2259 7792  2158 2159 7793  2158 2259 7793  2159 2260 7793  2259 2260 7793  2159 2160 7794  2159 2260 7794  2160 2261 7794  2260 2261 7794  2160 2161 7795  2160 2261 7795  2161 2262 7795  2261 2262 7795  2161 2162 7796  2161 2262 7796  2162 2263 7796  2262 2263 7796  2162 2163 7797  2162 2263 7797  2163 2264 7797  2263 2264 7797  2163 2164 7798  2163 2264 7798  2164 2265 7798  2264 2265 7798  2164 2165 7799  2164 2265 7799  2165 2266 7799  2265 2266 7799  2165 2166 7800  2165 2266 7800  2166 2267 7800  2266 2267 7800  2166 2167 7801  2166 2267 7801  2167 2268 7801  2267 2268 7801  2167 2168 7802  2167 2268 7802  2168 2269 7802  2268 2269 7802  2168 2169 7803  2168 2269 7803  2169 2270 7803  2269 2270 7803  2169 2170 7804  2169 2270 7804  2170 2271 7804  2270 2271 7804  2170 2171 7805  2170 2271 7805  2171 2272 7805  2271 2272 7805  2171 2172 7806  2171 2272 7806  2172 2273 7806  2272 2273 7806  2172 2173 7807  2172 2273 7807  2173 2274 7807  2273 2274 7807  2173 2174 7808  2173 2274 7808  2174 2275 7808  2274 2275 7808  2174 2175 7809  2174 2275 7809  2175 2276 7809  2275 2276 7809  2175 2176 7810  2175 2276 7810  2176 2277 7810  2276 2277 7810  2176 2177 7811  2176 2277 7811  2177 2278 7811  2277 2278 7811  2177 2178 7812  2177 2278 7812  2178 2279 7812  2278 2279 7812  2178 2179 7813  2178 2279 7813  2179 2280 7813  2279 2280 7813  2179 2180 7814  2179 2280 7814  2180 2281 7814  2280 2281 7814  2180 2181 7815  2180 2281 7815  2181 2282 7815  2281 2282 7815  2181 2182 7816  2181 2282 7816  2182 2283 7816  2282 2283 7816  2182 2183 7817  2182 2283 7817  2183 2284 7817  2283 2284 7817  2183 2184 7818  2183 2284 7818  2184 2285 7818  2284 2285 7818  2184 2185 7819  2184 2285 7819  2185 2286 7819  2285 2286 7819  2185 2186 7820  2185 2286 7820  2186 2287 7820  2286 2287 7820  2186 2187 7821  2186 2287 7821  2187 2288 7821  2287 2288 7821  2187 2188 7822  2187 2288 7822  2188 2289 7822  2288 2289 7822  2188 2189 7823  2188 2289 7823  2189 2290 7823  2289 2290 7823  2189 2190 7824  2189 2290 7824  2190 2291 7824  2290 2291 7824  2190 2191 7825  2190 2291 7825  2191 2292 7825  2291 2292 7825  2191 2192 7826  2191 2292 7826  2192 2293 7826  2292 2293 7826  2192 2193 7827  2192 2293 7827  2193 2294 7827  2293 2294 7827  2193 2194 7828  2193 2294 7828  2194 2295 7828  2294 2295 7828  2194 2195 7829  2194 2295 7829  2195 2296 7829  2295 2296 7829  2195 2196 7830  2195 2296 7830  2196 2297 7830  2296 2297 7830  2196 2197 7831  2196 2297 7831  2197 2298 7831  2297 2298 7831  2197 2198 7832  2197 2298 7832  2198 2299 7832  2298 2299 7832  2198 2199 7833  2198 2299 7833  2199 2300 7833  2299 2300 7833  2199 2200 7834  2199 2300 7834  2200 2301 7834  2300 2301 7834  2200 2201 7835  2200 2301 7835  2201 2302 7835  2301 2302 7835  2201 2202 7836  2201 2302 7836  2202 2303 7836  2302 2303 7836  2202 2203 7837  2202 2303 7837  2203 2304 7837  2303 2304 7837  2203 2204 7838  2203 2304 7838  2204 2305 7838  2304 2305 7838  2204 2205 7839  2204 2305 7839  2205 2306 7839  2305 2306 7839  2205 2206 7840  2205 2306 7840  2206 2307 7840  2306 2307 7840  2206 2207 7841  2206 2307 7841  2207 2308 7841  2307 2308 7841  2207 2208 7842  2207 2308 7842  2208 2309 7842  2308 2309 7842  2208 2209 7843  2208 2309 7843  2209 2310 7843  2309 2310 7843  2209 2210 7844  2209 2310 7844  2210 2311 7844  2310 2311 7844  2210 2211 7845  2210 2311 7845  2211 2312 7845  2311 2312 7845  2211 2212 7846  2211 2312 7846  2212 2313 7846  2312 2313 7846  2212 2213 7847  2212 2313 7847  2213 2314 7847  2313 2314 7847  2213 2214 7848  2213 2314 7848  2214 2315 7848  2314 2315 7848  2214 2215 7849  2214 2315 7849  2215 2316 7849  2315 2316 7849  2215 2216 7850  2215 2316 7850  2216 2317 7850  2316 2317 7850  2216 2217 7851  2216 2317 7851  2217 2318 7851  2317 2318 7851  2217 2218 7852  2217 2318 7852  2218 2319 7852  2318 2319 7852  2218 2219 7853  2218 2319 7853  2219 2320 7853  2319 2320 7853  2219 2220 7854  2219 2320 7854  2220 2321 7854  2320 2321 7854  2220 2221 7855  2220 2321 7855  2221 2322 7855  2321 2322 7855  2222 2223 7856  2222 2323 7856  2223 2324 7856  2323 2324 7856  2223 2224 7857  2223 2324 7857  2224 2325 7857  2324 2325 7857  2224 2225 7858  2224 2325 7858  2225 2326 7858  2325 2326 7858  2225 2226 7859  2225 2326 7859  2226 2327 7859  2326 2327 7859  2226 2227 7860  2226 2327 7860  2227 2328 7860  2327 2328 7860  2227 2228 7861  2227 2328 7861  2228 2329 7861  2328 2329 7861  2228 2229 7862  2228 2329 7862  2229 2330 7862  2329 2330 7862  2229 2230 7863  2229 2330 7863  2230 2331 7863  2330 2331 7863  2230 2231 7864  2230 2331 7864  2231 2332 7864  2331 2332 7864  2231 2232 7865  2231 2332 7865  2232 2333 7865  2332 2333 7865  2232 2233 7866  2232 2333 7866  2233 2334 7866  2333 2334 7866  2233 2234 7867  2233 2334 7867  2234 2335 7867  2334 2335 7867  2234 2235 7868  2234 2335 7868  2235 2336 7868  2335 2336 7868  2235 2236 7869  2235 2336 7869  2236 2337 7869  2336 2337 7869  2236 2237 7870  2236 2337 7870  2237 2338 7870  2337 2338 7870  2237 2238 7871  2237 2338 7871  2238 2339 7871  2338 2339 7871  2238 2239 7872  2238 2339 7872  2239 2340 7872  2339 2340 7872  2239 2240 7873  2239 2340 7873  2240 2341 7873  2340 2341 7873  2240 2241 7874  2240 2341 7874  2241 2342 7874  2341 2342 7874  2241 2242 7875  2241 2342 7875  2242 2343 7875  2342 2343 7875  2242 2243 7876  2242 2343 7876  2243 2344 7876  2343 2344 7876  2243 2244 7877  2243 2344 7877  2244 2345 7877  2344 2345 7877  2244 2245 7878  2244 2345 7878  2245 2346 7878  2345 2346 7878  2245 2246 7879  2245 2346 7879  2246 2347 7879  2346 2347 7879  2246 2247 7880  2246 2347 7880  2247 2348 7880  2347 2348 7880  2247 2248 7881  2247 2348 7881  2248 2349 7881  2348 2349 7881  2248 2249 7882  2248 2349 7882  2249 2350 7882  2349 2350 7882  2249 2250 7883  2249 2350 7883  2250 2351 7883  2350 2351 7883  2250 2251 7884  2250 2351 7884  2251 2352 7884  2351 2352 7884  2251 2252 7885  2251 2352 7885  2252 2353 7885  2352 2353 7885  2252 2253 7886  2252 2353 7886  2253 2354 7886  2353 2354 7886  2253 2254 7887  2253 2354 7887  2254 2355 7887  2354 2355 7887  2254 2255 7888  2254 2355 7888  2255 2356 7888  2355 2356 7888  2255 2256 7889  2255 2356 7889  2256 2357 7889  2356 2357 7889  2256 2257 7890  2256 2357 7890  2257 2358 7890  2357 2358 7890  2257 2258 7891  2257 2358 7891  2258 2359 7891  2358 2359 7891  2258 2259 7892  2258 2359 7892  2259 2360 7892  2359 2360 7892  2259 2260 7893  2259 2360 7893  2260 2361 7893  2360 2361 7893  2260 2261 7894  2260 2361 7894  2261 2362 7894  2361 2362 7894  2261 2262 7895  2261 2362 7895  2262 2363 7895  2362 2363 7895  2262 2263 7896  2262 2363 7896  2263 2364 7896  2363 2364 7896  2263 2264 7897  2263 2364 7897  2264 2365 7897  2364 2365 7897  2264 2265 7898  2264 2365 7898  2265 2366 7898  2365 2366 7898  2265 2266 7899  2265 2366 7899  2266 2367 7899  2366 2367 7899  2266 2267 7900  2266 2367 7900  2267 2368 7900  2367 2368 7900  2267 2268 7901  2267 2368 7901  2268 2369 7901  2368 2369 7901  2268 2269 7902  2268 2369 7902  2269 2370 7902  2369 2370 7902  2269 2270 7903  2269 2370 7903  2270 2371 7903  2370 2371 7903  2270 2271 7904  2270 2371 7904  2271 2372 7904  2371 2372 7904  2271 2272 7905  2271 2372 7905  2272 2373 7905  2372 2373 7905  2272 2273 7906  2272 2373 7906  2273 2374 7906  2373 2374 7906  2273 2274 7907  2273 2374 7907  2274 2375 7907  2374 2375 7907  2274 2275 7908  2274 2375 7908  2275 2376 7908  2375 2376 7908  2275 2276 7909  2275 2376 7909  2276 2377 7909  2376 2377 7909  2276 2277 7910  2276 2377 7910  2277 2378 7910  2377 2378 7910  2277 2278 7911  2277 2378 7911  2278 2379 7911  2378 2379 7911  2278 2279 7912  2278 2379 7912  2279 2380 7912  2379 2380 7912  2279 2280 7913  2279 2380 7913  2280 2381 7913  2380 2381 7913  2280 2281 7914  2280 2381 7914  2281 2382 7914  2381 2382 7914  2281 2282 7915  2281 2382 7915  2282 2383 7915  2382 2383 7915  2282 2283 7916  2282 2383 7916  2283 2384 7916  2383 2384 7916  2283 2284 7917  2283 2384 7917  2284 2385 7917  2384 2385 7917  2284 2285 7918  2284 2385 7918  2285 2386 7918  2385 2386 7918  2285 2286 7919  2285 2386 7919  2286 2387 7919  2386 2387 7919  2286 2287 7920  2286 2387 7920  2287 2388 7920  2387 2388 7920  2287 2288 7921  2287 2388 7921  2288 2389 7921  2388 2389 7921  2288 2289 7922  2288 2389 7922  2289 2390 7922  2389 2390 7922  2289 2290 7923  2289 2390 7923  2290 2391 7923  2390 2391 7923  2290 2291 7924  2290 2391 7924  2291 2392 7924  2391 2392 7924  2291 2292 7925  2291 2392 7925  2292 2393 7925  2392 2393 7925  2292 2293 7926  2292 2393 7926  2293 2394 7926  2393 2394 7926  2293 2294 7927  2293 2394 7927  2294 2395 7927  2394 2395 7927  2294 2295 7928  2294 2395 7928  2295 2396 7928  2395 2396 7928  2295 2296 7929  2295 2396 7929  2296 2397 7929  2396 2397 7929  2296 2297 7930  2296 2397 7930  2297 2398 7930  2397 2398 7930  2297 2298 7931  2297 2398 7931  2298 2399 7931  2398 2399 7931  2298 2299 7932  2298 2399 7932  2299 2400 7932  2399 2400 7932  2299 2300 7933  2299 2400 7933  2300 2401 7933  2400 2401 7933  2300 2301 7934  2300 2401 7934  2301 2402 7934  2401 2402 7934  2301 2302 7935  2301 2402 7935  2302 2403 7935  2402 2403 7935  2302 2303 7936  2302 2403 7936  2303 2404 7936  2403 2404 7936  2303 2304 7937  2303 2404 7937  2304 2405 7937  2404 2405 7937  2304 2305 7938  2304 2405 7938  2305 2406 7938  2405 2406 7938  2305 2306 7939  2305 2406 7939  2306 2407 7939  2406 2407 7939  2306 2307 7940  2306 2407 7940  2307 2408 7940  2407 2408 7940  2307 2308 7941  2307 2408 7941  2308 2409 7941  2408 2409 7941  2308 2309 7942  2308 2409 7942  2309 2410 7942  2409 2410 7942  2309 2310 7943  2309 2410 7943  2310 2411 7943  2410 2411 7943  2310 2311 7944  2310 2411 7944  2311 2412 7944  2411 2412 7944  2311 2312 7945  2311 2412 7945  2312 2413 7945  2412 2413 7945  2312 2313 7946  2312 2413 7946  2313 2414 7946  2413 2414 7946  2313 2314 7947  2313 2414 7947  2314 2415 7947  2414 2415 7947  2314 2315 7948  2314 2415 7948  2315 2416 7948  2415 2416 7948  2315 2316 7949  2315 2416 7949  2316 2417 7949  2416 2417 7949  2316 2317 7950  2316 2417 7950  2317 2418 7950  2417 2418 7950  2317 2318 7951  2317 2418 7951  2318 2419 7951  2418 2419 7951  2318 2319 7952  2318 2419 7952  2319 2420 7952  2419 2420 7952  2319 2320 7953  2319 2420 7953  2320 2421 7953  2420 2421 7953  2320 2321 7954  2320 2421 7954  2321 2422 7954  2421 2422 7954  2321 2322 7955  2321 2422 7955  2322 2423 7955  2422 2423 7955  2323 2324 7956  2323 2424 7956  2324 2425 7956  2424 2425 7956  2324 2325 7957  2324 2425 7957  2325 2426 7957  2425 2426 7957  2325 2326 7958  2325 2426 7958  2326 2427 7958  2426 2427 7958  2326 2327 7959  2326 2427 7959  2327 2428 7959  2427 2428 7959  2327 2328 7960  2327 2428 7960  2328 2429 7960  2428 2429 7960  2328 2329 7961  2328 2429 7961  2329 2430 7961  2429 2430 7961  2329 2330 7962  2329 2430 7962  2330 2431 7962  2430 2431 7962  2330 2331 7963  2330 2431 7963  2331 2432 7963  2431 2432 7963  2331 2332 7964  2331 2432 7964  2332 2433 7964  2432 2433 7964  2332 2333 7965  2332 2433 7965  2333 2434 7965  2433 2434 7965  2333 2334 7966  2333 2434 7966  2334 2435 7966  2434 2435 7966  2334 2335 7967  2334 2435 7967  2335 2436 7967  2435 2436 7967  2335 2336 7968  2335 2436 7968  2336 2437 7968  2436 2437 7968  2336 2337 7969  2336 2437 7969  2337 2438 7969  2437 2438 7969  2337 2338 7970  2337 2438 7970  2338 2439 7970  2438 2439 7970  2338 2339 7971  2338 2439 7971  2339 2440 7971  2439 2440 7971  2339 2340 7972  2339 2440 7972  2340 2441 7972  2440 2441 7972  2340 2341 7973  2340 2441 7973  2341 2442 7973  2441 2442 7973  2341 2342 7974  2341 2442 7974  2342 2443 7974  2442 2443 7974  2342 2343 7975  2342 2443 7975  2343 2444 7975  2443 2444 7975  2343 2344 7976  2343 2444 7976  2344 2445 7976  2444 2445 7976  2344 2345 7977  2344 2445 7977  2345 2446 7977  2445 2446 7977  2345 2346 7978  2345 2446 7978  2346 2447 7978  2446 2447 7978  2346 2347 7979  2346 2447 7979  2347 2448 7979  2447 2448 7979  2347 2348 7980  2347 2448 7980  2348 2449 7980  2448 2449 7980  2348 2349 7981  2348 2449 7981  2349 2450 7981  2449 2450 7981  2349 2350 7982  2349 2450 7982  2350 2451 7982  2450 2451 7982  2350 2351 7983  2350 2451 7983  2351 2452 7983  2451 2452 7983  2351 2352 7984  2351 2452 7984  2352 2453 7984  2452 2453 7984  2352 2353 7985  2352 2453 7985  2353 2454 7985  2453 2454 7985  2353 2354 7986  2353 2454 7986  2354 2455 7986  2454 2455 7986  2354 2355 7987  2354 2455 7987  2355 2456 7987  2455 2456 7987  2355 2356 7988  2355 2456 7988  2356 2457 7988  2456 2457 7988  2356 2357 7989  2356 2457 7989  2357 2458 7989  2457 2458 7989  2357 2358 7990  2357 2458 7990  2358 2459 7990  2458 2459 7990  2358 2359 7991  2358 2459 7991  2359 2460 7991  2459 2460 7991  2359 2360 7992  2359 2460 7992  2360 2461 7992  2460 2461 7992  2360 2361 7993  2360 2461 7993  2361 2462 7993  2461 2462 7993  2361 2362 7994  2361 2462 7994  2362 2463 7994  2462 2463 7994  2362 2363 7995  2362 2463 7995  2363 2464 7995  2463 2464 7995  2363 2364 7996  2363 2464 7996  2364 2465 7996  2464 2465 7996  2364 2365 7997  2364 2465 7997  2365 2466 7997  2465 2466 7997  2365 2366 7998  2365 2466 7998  2366 2467 7998  2466 2467 7998  2366 2367 7999  2366 2467 7999  2367 2468 7999  2467 2468 7999  2367 2368 8000  2367 2468 8000  2368 2469 8000  2468 2469 8000  2368 2369 8001  2368 2469 8001  2369 2470 8001  2469 2470 8001  2369 2370 8002  2369 2470 8002  2370 2471 8002  2470 2471 8002  2370 2371 8003  2370 2471 8003  2371 2472 8003  2471 2472 8003  2371 2372 8004  2371 2472 8004  2372 2473 8004  2472 2473 8004  2372 2373 8005  2372 2473 8005  2373 2474 8005  2473 2474 8005  2373 2374 8006  2373 2474 8006  2374 2475 8006  2474 2475 8006  2374 2375 8007  2374 2475 8007  2375 2476 8007  2475 2476 8007  2375 2376 8008  2375 2476 8008  2376 2477 8008  2476 2477 8008  2376 2377 8009  2376 2477 8009  2377 2478 8009  2477 2478 8009  2377 2378 8010  2377 2478 8010  2378 2479 8010  2478 2479 8010  2378 2379 8011  2378 2479 8011  2379 2480 8011  2479 2480 8011  2379 2380 8012  2379 2480 8012  2380 2481 8012  2480 2481 8012  2380 2381 8013  2380 2481 8013  2381 2482 8013  2481 2482 8013  2381 2382 8014  2381 2482 8014  2382 2483 8014  2482 2483 8014  2382 2383 8015  2382 2483 8015  2383 2484 8015  2483 2484 8015  2383 2384 8016  2383 2484 8016  2384 2485 8016  2484 2485 8016  2384 2385 8017  2384 2485 8017  2385 2486 8017  2485 2486 8017  2385 2386 8018  2385 2486 8018  2386 2487 8018  2486 2487 8018  2386 2387 8019  2386 2487 8019  2387 2488 8019  2487 2488 8019  2387 2388 8020  2387 2488 8020  2388 2489 8020  2488 2489 8020  2388 2389 8021  2388 2489 8021  2389 2490 8021  2489 2490 8021  2389 2390 8022  2389 2490 8022  2390 2491 8022  2490 2491 8022  2390 2391 8023  2390 2491 8023  2391 2492 8023  2491 2492 8023  2391 2392 8024  2391 2492 8024  2392 2493 8024  2492 2493 8024  2392 2393 8025  2392 2493 8025  2393 2494 8025  2493 2494 8025  2393 2394 8026  2393 2494 8026  2394 2495 8026  2494 2495 8026  2394 2395 8027  2394 2495 8027  2395 2496 8027  2495 2496 8027  2395 2396 8028  2395 2496 8028  2396 2497 8028  2496 2497 8028  2396 2397 8029  2396 2497 8029  2397 2498 8029  2497 2498 8029  2397 2398 8030  2397 2498 8030  2398 2499 8030  2498 2499 8030  2398 2399 8031  2398 2499 8031  2399 2500 8031  2499 2500 8031  2399 2400 8032  2399 2500 8032  2400 2501 8032  2500 2501 8032  2400 2401 8033  2400 2501 8033  2401 2502 8033  2501 2502 8033  2401 2402 8034  2401 2502 8034  2402 2503 8034  2502 2503 8034  2402 2403 8035  2402 2503 8035  2403 2504 8035  2503 2504 8035  2403 2404 8036  2403 2504 8036  2404 2505 8036  2504 2505 8036  2404 2405 8037  2404 2505 8037  2405 2506 8037  2505 2506 8037  2405 2406 8038  2405 2506 8038  2406 2507 8038  2506 2507 8038  2406 2407 8039  2406 2507 8039  2407 2508 8039  2507 2508 8039  2407 2408 8040  2407 2508 8040  2408 2509 8040  2508 2509 8040  2408 2409 8041  2408 2509 8041  2409 2510 8041  2509 2510 8041  2409 2410 8042  2409 2510 8042  2410 2511 8042  2510 2511 8042  2410 2411 8043  2410 2511 8043  2411 2512 8043  2511 2512 8043  2411 2412 8044  2411 2512 8044  2412 2513 8044  2512 2513 8044  2412 2413 8045  2412 2513 8045  2413 2514 8045  2513 2514 8045  2413 2414 8046  2413 2514 8046  2414 2515 8046  2514 2515 8046  2414 2415 8047  2414 2515 8047  2415 2516 8047  2515 2516 8047  2415 2416 8048  2415 2516 8048  2416 2517 8048  2516 2517 8048  2416 2417 8049  2416 2517 8049  2417 2518 8049  2517 2518 8049  2417 2418 8050  2417 2518 8050  2418 2519 8050  2518 2519 8050  2418 2419 8051  2418 2519 8051  2419 2520 8051  2519 2520 8051  2419 2420 8052  2419 2520 8052  2420 2521 8052  2520 2521 8052  2420 2421 8053  2420 2521 8053  2421 2522 8053  2521 2522 8053  2421 2422 8054  2421 2522 8054  2422 2523 8054  2522 2523 8054  2422 2423 8055  2422 2523 8055  2423 2524 8055  2523 2524 8055  2424 2425 8056  2424 2525 8056  2425 2526 8056  2525 2526 8056  2425 2426 8057  2425 2526 8057  2426 2527 8057  2526 2527 8057  2426 2427 8058  2426 2527 8058  2427 2528 8058  2527 2528 8058  2427 2428 8059  2427 2528 8059  2428 2529 8059  2528 2529 8059  2428 2429 8060  2428 2529 8060  2429 2530 8060  2529 2530 8060  2429 2430 8061  2429 2530 8061  2430 2531 8061  2530 2531 8061  2430 2431 8062  2430 2531 8062  2431 2532 8062  2531 2532 8062  2431 2432 8063  2431 2532 8063  2432 2533 8063  2532 2533 8063  2432 2433 8064  2432 2533 8064  2433 2534 8064  2533 2534 8064  2433 2434 8065  2433 2534 8065  2434 2535 8065  2534 2535 8065  2434 2435 8066  2434 2535 8066  2435 2536 8066  2535 2536 8066  2435 2436 8067  2435 2536 8067  2436 2537 8067  2536 2537 8067  2436 2437 8068  2436 2537 8068  2437 2538 8068  2537 2538 8068  2437 2438 8069  2437 2538 8069  2438 2539 8069  2538 2539 8069  2438 2439 8070  2438 2539 8070  2439 2540 8070  2539 2540 8070  2439 2440 8071  2439 2540 8071  2440 2541 8071  2540 2541 8071  2440 2441 8072  2440 2541 8072  2441 2542 8072  2541 2542 8072  2441 2442 8073  2441 2542 8073  2442 2543 8073  2542 2543 8073  2442 2443 8074  2442 2543 8074  2443 2544 8074  2543 2544 8074  2443 2444 8075  2443 2544 8075  2444 2545 8075  2544 2545 8075  2444 2445 8076  2444 2545 8076  2445 2546 8076  2545 2546 8076  2445 2446 8077  2445 2546 8077  2446 2547 8077  2546 2547 8077  2446 2447 8078  2446 2547 8078  2447 2548 8078  2547 2548 8078  2447 2448 8079  2447 2548 8079  2448 2549 8079  2548 2549 8079  2448 2449 8080  2448 2549 8080  2449 2550 8080  2549 2550 8080  2449 2450 8081  2449 2550 8081  2450 2551 8081  2550 2551 8081  2450 2451 8082  2450 2551 8082  2451 2552 8082  2551 2552 8082  2451 2452 8083  2451 2552 8083  2452 2553 8083  2552 2553 8083  2452 2453 8084  2452 2553 8084  2453 2554 8084  2553 2554 8084  2453 2454 8085  2453 2554 8085  2454 2555 8085  2554 2555 8085  2454 2455 8086  2454 2555 8086  2455 2556 8086  2555 2556 8086  2455 2456 8087  2455 2556 8087  2456 2557 8087  2556 2557 8087  2456 2457 8088  2456 2557 8088  2457 2558 8088  2557 2558 8088  2457 2458 8089  2457 2558 8089  2458 2559 8089  2558 2559 8089  2458 2459 8090  2458 2559 8090  2459 2560 8090  2559 2560 8090  2459 2460 8091  2459 2560 8091  2460 2561 8091  2560 2561 8091  2460 2461 8092  2460 2561 8092  2461 2562 8092  2561 2562 8092  2461 2462 8093  2461 2562 8093  2462 2563 8093  2562 2563 8093  2462 2463 8094  2462 2563 8094  2463 2564 8094  2563 2564 8094  2463 2464 8095  2463 2564 8095  2464 2565 8095  2564 2565 8095  2464 2465 8096  2464 2565 8096  2465 2566 8096  2565 2566 8096  2465 2466 8097  2465 2566 8097  2466 2567 8097  2566 2567 8097  2466 2467 8098  2466 2567 8098  2467 2568 8098  2567 2568 8098  2467 2468 8099  2467 2568 8099  2468 2569 8099  2568 2569 8099  2468 2469 8100  2468 2569 8100  2469 2570 8100  2569 2570 8100  2469 2470 8101  2469 2570 8101  2470 2571 8101  2570 2571 8101  2470 2471 8102  2470 2571 8102  2471 2572 8102  2571 2572 8102  2471 2472 8103  2471 2572 8103  2472 2573 8103  2572 2573 8103  2472 2473 8104  2472 2573 8104  2473 2574 8104  2573 2574 8104  2473 2474 8105  2473 2574 8105  2474 2575 8105  2574 2575 8105  2474 2475 8106  2474 2575 8106  2475 2576 8106  2575 2576 8106  2475 2476 8107  2475 2576 8107  2476 2577 8107  2576 2577 8107  2476 2477 8108  2476 2577 8108  2477 2578 8108  2577 2578 8108  2477 2478 8109  2477 2578 8109  2478 2579 8109  2578 2579 8109  2478 2479 8110  2478 2579 8110  2479 2580 8110  2579 2580 8110  2479 2480 8111  2479 2580 8111  2480 2581 8111  2580 2581 8111  2480 2481 8112  2480 2581 8112  2481 2582 8112  2581 2582 8112  2481 2482 8113  2481 2582 8113  2482 2583 8113  2582 2583 8113  2482 2483 8114  2482 2583 8114  2483 2584 8114  2583 2584 8114  2483 2484 8115  2483 2584 8115  2484 2585 8115  2584 2585 8115  2484 2485 8116  2484 2585 8116  2485 2586 8116  2585 2586 8116  2485 2486 8117  2485 2586 8117  2486 2587 8117  2586 2587 8117  2486 2487 8118  2486 2587 8118  2487 2588 8118  2587 2588 8118  2487 2488 8119  2487 2588 8119  2488 2589 8119  2588 2589 8119  2488 2489 8120  2488 2589 8120  2489 2590 8120  2589 2590 8120  2489 2490 8121  2489 2590 8121  2490 2591 8121  2590 2591 8121  2490 2491 8122  2490 2591 8122  2491 2592 8122  2591 2592 8122  2491 2492 8123  2491 2592 8123  2492 2593 8123  2592 2593 8123  2492 2493 8124  2492 2593 8124  2493 2594 8124  2593 2594 8124  2493 2494 8125  2493 2594 8125  2494 2595 8125  2594 2595 8125  2494 2495 8126  2494 2595 8126  2495 2596 8126  2595 2596 8126  2495 2496 8127  2495 2596 8127  2496 2597 8127  2596 2597 8127  2496 2497 8128  2496 2597 8128  2497 2598 8128  2597 2598 8128  2497 2498 8129  2497 2598 8129  2498 2599 8129  2598 2599 8129  2498 2499 8130  2498 2599 8130  2499 2600 8130  2599 2600 8130  2499 2500 8131  2499 2600 8131  2500 2601 8131  2600 2601 8131  2500 2501 8132  2500 2601 8132  2501 2602 8132  2601 2602 8132  2501 2502 8133  2501 2602 8133  2502 2603 8133  2602 2603 8133  2502 2503 8134  2502 2603 8134  2503 2604 8134  2603 2604 8134  2503 2504 8135  2503 2604 8135  2504 2605 8135  2604 2605 8135  2504 2505 8136  2504 2605 8136  2505 2606 8136  2605 2606 8136  2505 2506 8137  2505 2606 8137  2506 2607 8137  2606 2607 8137  2506 2507 8138  2506 2607 8138  2507 2608 8138  2607 2608 8138  2507 2508 8139  2507 2608 8139  2508 2609 8139  2608 2609 8139  2508 2509 8140  2508 2609 8140  2509 2610 8140  2609 2610 8140  2509 2510 8141  2509 2610 8141  2510 2611 8141  2610 2611 8141  2510 2511 8142  2510 2611 8142  2511 2612 8142  2611 2612 8142  2511 2512 8143  2511 2612 8143  2512 2613 8143  2612 2613 8143  2512 2513 8144  2512 2613 8144  2513 2614 8144  2613 2614 8144  2513 2514 8145  2513 2614 8145  2514 2615 8145  2614 2615 8145  2514 2515 8146  2514 2615 8146  2515 2616 8146  2615 2616 8146  2515 2516 8147  2515 2616 8147  2516 2617 8147  2616 2617 8147  2516 2517 8148  2516 2617 8148  2517 2618 8148  2617 2618 8148  2517 2518 8149  2517 2618 8149  2518 2619 8149  2618 2619 8149  2518 2519 8150  2518 2619 8150  2519 2620 8150  2619 2620 8150  2519 2520 8151  2519 2620 8151  2520 2621 8151  2620 2621 8151  2520 2521 8152  2520 2621 8152  2521 2622 8152  2621 2622 8152  2521 2522 8153  2521 2622 8153  2522 2623 8153  2622 2623 8153  2522 2523 8154  2522 2623 8154  2523 2624 8154  2623 2624 8154  2523 2524 8155  2523 2624 8155  2524 2625 8155  2624 2625 8155  2525 2526 8156  2525 2626 8156  2526 2627 8156  2626 2627 8156  2526 2527 8157  2526 2627 8157  2527 2628 8157  2627 2628 8157  2527 2528 8158  2527 2628 8158  2528 2629 8158  2628 2629 8158  2528 2529 8159  2528 2629 8159  2529 2630 8159  2629 2630 8159  2529 2530 8160  2529 2630 8160  2530 2631 8160  2630 2631 8160  2530 2531 8161  2530 2631 8161  2531 2632 8161  2631 2632 8161  2531 2532 8162  2531 2632 8162  2532 2633 8162  2632 2633 8162  2532 2533 8163  2532 2633 8163  2533 2634 8163  2633 2634 8163  2533 2534 8164  2533 2634 8164  2534 2635 8164  2634 2635 8164  2534 2535 8165  2534 2635 8165  2535 2636 8165  2635 2636 8165  2535 2536 8166  2535 2636 8166  2536 2637 8166  2636 2637 8166  2536 2537 8167  2536 2637 8167  2537 2638 8167  2637 2638 8167  2537 2538 8168  2537 2638 8168  2538 2639 8168  2638 2639 8168  2538 2539 8169  2538 2639 8169  2539 2640 8169  2639 2640 8169  2539 2540 8170  2539 2640 8170  2540 2641 8170  2640 2641 8170  2540 2541 8171  2540 2641 8171  2541 2642 8171  2641 2642 8171  2541 2542 8172  2541 2642 8172  2542 2643 8172  2642 2643 8172  2542 2543 8173  2542 2643 8173  2543 2644 8173  2643 2644 8173  2543 2544 8174  2543 2644 8174  2544 2645 8174  2644 2645 8174  2544 2545 8175  2544 2645 8175  2545 2646 8175  2645 2646 8175  2545 2546 8176  2545 2646 8176  2546 2647 8176  2646 2647 8176  2546 2547 8177  2546 2647 8177  2547 2648 8177  2647 2648 8177  2547 2548 8178  2547 2648 8178  2548 2649 8178  2648 2649 8178  2548 2549 8179  2548 2649 8179  2549 2650 8179  2649 2650 8179  2549 2550 8180  2549 2650 8180  2550 2651 8180  2650 2651 8180  2550 2551 8181  2550 2651 8181  2551 2652 8181  2651 2652 8181  2551 2552 8182  2551 2652 8182  2552 2653 8182  2652 2653 8182  2552 2553 8183  2552 2653 8183  2553 2654 8183  2653 2654 8183  2553 2554 8184  2553 2654 8184  2554 2655 8184  2654 2655 8184  2554 2555 8185  2554 2655 8185  2555 2656 8185  2655 2656 8185  2555 2556 8186  2555 2656 8186  2556 2657 8186  2656 2657 8186  2556 2557 8187  2556 2657 8187  2557 2658 8187  2657 2658 8187  2557 2558 8188  2557 2658 8188  2558 2659 8188  2658 2659 8188  2558 2559 8189  2558 2659 8189  2559 2660 8189  2659 2660 8189  2559 2560 8190  2559 2660 8190  2560 2661 8190  2660 2661 8190  2560 2561 8191  2560 2661 8191  2561 2662 8191  2661 2662 8191  2561 2562 8192  2561 2662 8192  2562 2663 8192  2662 2663 8192  2562 2563 8193  2562 2663 8193  2563 2664 8193  2663 2664 8193  2563 2564 8194  2563 2664 8194  2564 2665 8194  2664 2665 8194  2564 2565 8195  2564 2665 8195  2565 2666 8195  2665 2666 8195  2565 2566 8196  2565 2666 8196  2566 2667 8196  2666 2667 8196  2566 2567 8197  2566 2667 8197  2567 2668 8197  2667 2668 8197  2567 2568 8198  2567 2668 8198  2568 2669 8198  2668 2669 8198  2568 2569 8199  2568 2669 8199  2569 2670 8199  2669 2670 8199  2569 2570 8200  2569 2670 8200  2570 2671 8200  2670 2671 8200  2570 2571 8201  2570 2671 8201  2571 2672 8201  2671 2672 8201  2571 2572 8202  2571 2672 8202  2572 2673 8202  2672 2673 8202  2572 2573 8203  2572 2673 8203  2573 2674 8203  2673 2674 8203  2573 2574 8204  2573 2674 8204  2574 2675 8204  2674 2675 8204  2574 2575 8205  2574 2675 8205  2575 2676 8205  2675 2676 8205  2575 2576 8206  2575 2676 8206  2576 2677 8206  2676 2677 8206  2576 2577 8207  2576 2677 8207  2577 2678 8207  2677 2678 8207  2577 2578 8208  2577 2678 8208  2578 2679 8208  2678 2679 8208  2578 2579 8209  2578 2679 8209  2579 2680 8209  2679 2680 8209  2579 2580 8210  2579 2680 8210  2580 2681 8210  2680 2681 8210  2580 2581 8211  2580 2681 8211  2581 2682 8211  2681 2682 8211  2581 2582 8212  2581 2682 8212  2582 2683 8212  2682 2683 8212  2582 2583 8213  2582 2683 8213  2583 2684 8213  2683 2684 8213  2583 2584 8214  2583 2684 8214  2584 2685 8214  2684 2685 8214  2584 2585 8215  2584 2685 8215  2585 2686 8215  2685 2686 8215  2585 2586 8216  2585 2686 8216  2586 2687 8216  2686 2687 8216  2586 2587 8217  2586 2687 8217  2587 2688 8217  2687 2688 8217  2587 2588 8218  2587 2688 8218  2588 2689 8218  2688 2689 8218  2588 2589 8219  2588 2689 8219  2589 2690 8219  2689 2690 8219  2589 2590 8220  2589 2690 8220  2590 2691 8220  2690 2691 8220  2590 2591 8221  2590 2691 8221  2591 2692 8221  2691 2692 8221  2591 2592 8222  2591 2692 8222  2592 2693 8222  2692 2693 8222  2592 2593 8223  2592 2693 8223  2593 2694 8223  2693 2694 8223  2593 2594 8224  2593 2694 8224  2594 2695 8224  2694 2695 8224  2594 2595 8225  2594 2695 8225  2595 2696 8225  2695 2696 8225  2595 2596 8226  2595 2696 8226  2596 2697 8226  2696 2697 8226  2596 2597 8227  2596 2697 8227  2597 2698 8227  2697 2698 8227  2597 2598 8228  2597 2698 8228  2598 2699 8228  2698 2699 8228  2598 2599 8229  2598 2699 8229  2599 2700 8229  2699 2700 8229  2599 2600 8230  2599 2700 8230  2600 2701 8230  2700 2701 8230  2600 2601 8231  2600 2701 8231  2601 2702 8231  2701 2702 8231  2601 2602 8232  2601 2702 8232  2602 2703 8232  2702 2703 8232  2602 2603 8233  2602 2703 8233  2603 2704 8233  2703 2704 8233  2603 2604 8234  2603 2704 8234  2604 2705 8234  2704 2705 8234  2604 2605 8235  2604 2705 8235  2605 2706 8235  2705 2706 8235  2605 2606 8236  2605 2706 8236  2606 2707 8236  2706 2707 8236  2606 2607 8237  2606 2707 8237  2607 2708 8237  2707 2708 8237  2607 2608 8238  2607 2708 8238  2608 2709 8238  2708 2709 8238  2608 2609 8239  2608 2709 8239  2609 2710 8239  2709 2710 8239  2609 2610 8240  2609 2710 8240  2610 2711 8240  2710 2711 8240  2610 2611 8241  2610 2711 8241  2611 2712 8241  2711 2712 8241  2611 2612 8242  2611 2712 8242  2612 2713 8242  2712 2713 8242  2612 2613 8243  2612 2713 8243  2613 2714 8243  2713 2714 8243  2613 2614 8244  2613 2714 8244  2614 2715 8244  2714 2715 8244  2614 2615 8245  2614 2715 8245  2615 2716 8245  2715 2716 8245  2615 2616 8246  2615 2716 8246  2616 2717 8246  2716 2717 8246  2616 2617 8247  2616 2717 8247  2617 2718 8247  2717 2718 8247  2617 2618 8248  2617 2718 8248  2618 2719 8248  2718 2719 8248  2618 2619 8249  2618 2719 8249  2619 2720 8249  2719 2720 8249  2619 2620 8250  2619 2720 8250  2620 2721 8250  2720 2721 8250  2620 2621 8251  2620 2721 8251  2621 2722 8251  2721 2722 8251  2621 2622 8252  2621 2722 8252  2622 2723 8252  2722 2723 8252  2622 2623 8253  2622 2723 8253  2623 2724 8253  2723 2724 8253  2623 2624 8254  2623 2724 8254  2624 2725 8254  2724 2725 8254  2624 2625 8255  2624 2725 8255  2625 2726 8255  2725 2726 8255  2626 2627 8256  2626 2727 8256  2627 2728 8256  2727 2728 8256  2627 2628 8257  2627 2728 8257  2628 2729 8257  2728 2729 8257  2628 2629 8258  2628 2729 8258  2629 2730 8258  2729 2730 8258  2629 2630 8259  2629 2730 8259  2630 2731 8259  2730 2731 8259  2630 2631 8260  2630 2731 8260  2631 2732 8260  2731 2732 8260  2631 2632 8261  2631 2732 8261  2632 2733 8261  2732 2733 8261  2632 2633 8262  2632 2733 8262  2633 2734 8262  2733 2734 8262  2633 2634 8263  2633 2734 8263  2634 2735 8263  2734 2735 8263  2634 2635 8264  2634 2735 8264  2635 2736 8264  2735 2736 8264  2635 2636 8265  2635 2736 8265  2636 2737 8265  2736 2737 8265  2636 2637 8266  2636 2737 8266  2637 2738 8266  2737 2738 8266  2637 2638 8267  2637 2738 8267  2638 2739 8267  2738 2739 8267  2638 2639 8268  2638 2739 8268  2639 2740 8268  2739 2740 8268  2639 2640 8269  2639 2740 8269  2640 2741 8269  2740 2741 8269  2640 2641 8270  2640 2741 8270  2641 2742 8270  2741 2742 8270  2641 2642 8271  2641 2742 8271  2642 2743 8271  2742 2743 8271  2642 2643 8272  2642 2743 8272  2643 2744 8272  2743 2744 8272  2643 2644 8273  2643 2744 8273  2644 2745 8273  2744 2745 8273  2644 2645 8274  2644 2745 8274  2645 2746 8274  2745 2746 8274  2645 2646 8275  2645 2746 8275  2646 2747 8275  2746 2747 8275  2646 2647 8276  2646 2747 8276  2647 2748 8276  2747 2748 8276  2647 2648 8277  2647 2748 8277  2648 2749 8277  2748 2749 8277  2648 2649 8278  2648 2749 8278  2649 2750 8278  2749 2750 8278  2649 2650 8279  2649 2750 8279  2650 2751 8279  2750 2751 8279  2650 2651 8280  2650 2751 8280  2651 2752 8280  2751 2752 8280  2651 2652 8281  2651 2752 8281  2652 2753 8281  2752 2753 8281  2652 2653 8282  2652 2753 8282  2653 2754 8282  2753 2754 8282  2653 2654 8283  2653 2754 8283  2654 2755 8283  2754 2755 8283  2654 2655 8284  2654 2755 8284  2655 2756 8284  2755 2756 8284  2655 2656 8285  2655 2756 8285  2656 2757 8285  2756 2757 8285  2656 2657 8286  2656 2757 8286  2657 2758 8286  2757 2758 8286  2657 2658 8287  2657 2758 8287  2658 2759 8287  2758 2759 8287  2658 2659 8288  2658 2759 8288  2659 2760 8288  2759 2760 8288  2659 2660 8289  2659 2760 8289  2660 2761 8289  2760 2761 8289  2660 2661 8290  2660 2761 8290  2661 2762 8290  2761 2762 8290  2661 2662 8291  2661 2762 8291  2662 2763 8291  2762 2763 8291  2662 2663 8292  2662 2763 8292  2663 2764 8292  2763 2764 8292  2663 2664 8293  2663 2764 8293  2664 2765 8293  2764 2765 8293  2664 2665 8294  2664 2765 8294  2665 2766 8294  2765 2766 8294  2665 2666 8295  2665 2766 8295  2666 2767 8295  2766 2767 8295  2666 2667 8296  2666 2767 8296  2667 2768 8296  2767 2768 8296  2667 2668 8297  2667 2768 8297  2668 2769 8297  2768 2769 8297  2668 2669 8298  2668 2769 8298  2669 2770 8298  2769 2770 8298  2669 2670 8299  2669 2770 8299  2670 2771 8299  2770 2771 8299  2670 2671 8300  2670 2771 8300  2671 2772 8300  2771 2772 8300  2671 2672 8301  2671 2772 8301  2672 2773 8301  2772 2773 8301  2672 2673 8302  2672 2773 8302  2673 2774 8302  2773 2774 8302  2673 2674 8303  2673 2774 8303  2674 2775 8303  2774 2775 8303  2674 2675 8304  2674 2775 8304  2675 2776 8304  2775 2776 8304  2675 2676 8305  2675 2776 8305  2676 2777 8305  2776 2777 8305  2676 2677 8306  2676 2777 8306  2677 2778 8306  2777 2778 8306  2677 2678 8307  2677 2778 8307  2678 2779 8307  2778 2779 8307  2678 2679 8308  2678 2779 8308  2679 2780 8308  2779 2780 8308  2679 2680 8309  2679 2780 8309  2680 2781 8309  2780 2781 8309  2680 2681 8310  2680 2781 8310  2681 2782 8310  2781 2782 8310  2681 2682 8311  2681 2782 8311  2682 2783 8311  2782 2783 8311  2682 2683 8312  2682 2783 8312  2683 2784 8312  2783 2784 8312  2683 2684 8313  2683 2784 8313  2684 2785 8313  2784 2785 8313  2684 2685 8314  2684 2785 8314  2685 2786 8314  2785 2786 8314  2685 2686 8315  2685 2786 8315  2686 2787 8315  2786 2787 8315  2686 2687 8316  2686 2787 8316  2687 2788 8316  2787 2788 8316  2687 2688 8317  2687 2788 8317  2688 2789 8317  2788 2789 8317  2688 2689 8318  2688 2789 8318  2689 2790 8318  2789 2790 8318  2689 2690 8319  2689 2790 8319  2690 2791 8319  2790 2791 8319  2690 2691 8320  2690 2791 8320  2691 2792 8320  2791 2792 8320  2691 2692 8321  2691 2792 8321  2692 2793 8321  2792 2793 8321  2692 2693 8322  2692 2793 8322  2693 2794 8322  2793 2794 8322  2693 2694 8323  2693 2794 8323  2694 2795 8323  2794 2795 8323  2694 2695 8324  2694 2795 8324  2695 2796 8324  2795 2796 8324  2695 2696 8325  2695 2796 8325  2696 2797 8325  2796 2797 8325  2696 2697 8326  2696 2797 8326  2697 2798 8326  2797 2798 8326  2697 2698 8327  2697 2798 8327  2698 2799 8327  2798 2799 8327  2698 2699 8328  2698 2799 8328  2699 2800 8328  2799 2800 8328  2699 2700 8329  2699 2800 8329  2700 2801 8329  2800 2801 8329  2700 2701 8330  2700 2801 8330  2701 2802 8330  2801 2802 8330  2701 2702 8331  2701 2802 8331  2702 2803 8331  2802 2803 8331  2702 2703 8332  2702 2803 8332  2703 2804 8332  2803 2804 8332  2703 2704 8333  2703 2804 8333  2704 2805 8333  2804 2805 8333  2704 2705 8334  2704 2805 8334  2705 2806 8334  2805 2806 8334  2705 2706 8335  2705 2806 8335  2706 2807 8335  2806 2807 8335  2706 2707 8336  2706 2807 8336  2707 2808 8336  2807 2808 8336  2707 2708 8337  2707 2808 8337  2708 2809 8337  2808 2809 8337  2708 2709 8338  2708 2809 8338  2709 2810 8338  2809 2810 8338  2709 2710 8339  2709 2810 8339  2710 2811 8339  2810 2811 8339  2710 2711 8340  2710 2811 8340  2711 2812 8340  2811 2812 8340  2711 2712 8341  2711 2812 8341  2712 2813 8341  2812 2813 8341  2712 2713 8342  2712 2813 8342  2713 2814 8342  2813 2814 8342  2713 2714 8343  2713 2814 8343  2714 2815 8343  2814 2815 8343  2714 2715 8344  2714 2815 8344  2715 2816 8344  2815 2816 8344  2715 2716 8345  2715 2816 8345  2716 2817 8345  2816 2817 8345  2716 2717 8346  2716 2817 8346  2717 2818 8346  2817 2818 8346  2717 2718 8347  2717 2818 8347  2718 2819 8347  2818 2819 8347  2718 2719 8348  2718 2819 8348  2719 2820 8348  2819 2820 8348  2719 2720 8349  2719 2820 8349  2720 2821 8349  2820 2821 8349  2720 2721 8350  2720 2821 8350  2721 2822 8350  2821 2822 8350  2721 2722 8351  2721 2822 8351  2722 2823 8351  2822 2823 8351  2722 2723 8352  2722 2823 8352  2723 2824 8352  2823 2824 8352  2723 2724 8353  2723 2824 8353  2724 2825 8353  2824 2825 8353  2724 2725 8354  2724 2825 8354  2725 2826 8354  2825 2826 8354  2725 2726 8355  2725 2826 8355  2726 2827 8355  2826 2827 8355  2727 2728 8356  2727 2828 8356  2728 2829 8356  2828 2829 8356  2728 2729 8357  2728 2829 8357  2729 2830 8357  2829 2830 8357  2729 2730 8358  2729 2830 8358  2730 2831 8358  2830 2831 8358  2730 2731 8359  2730 2831 8359  2731 2832 8359  2831 2832 8359  2731 2732 8360  2731 2832 8360  2732 2833 8360  2832 2833 8360  2732 2733 8361  2732 2833 8361  2733 2834 8361  2833 2834 8361  2733 2734 8362  2733 2834 8362  2734 2835 8362  2834 2835 8362  2734 2735 8363  2734 2835 8363  2735 2836 8363  2835 2836 8363  2735 2736 8364  2735 2836 8364  2736 2837 8364  2836 2837 8364  2736 2737 8365  2736 2837 8365  2737 2838 8365  2837 2838 8365  2737 2738 8366  2737 2838 8366  2738 2839 8366  2838 2839 8366  2738 2739 8367  2738 2839 8367  2739 2840 8367  2839 2840 8367  2739 2740 8368  2739 2840 8368  2740 2841 8368  2840 2841 8368  2740 2741 8369  2740 2841 8369  2741 2842 8369  2841 2842 8369  2741 2742 8370  2741 2842 8370  2742 2843 8370  2842 2843 8370  2742 2743 8371  2742 2843 8371  2743 2844 8371  2843 2844 8371  2743 2744 8372  2743 2844 8372  2744 2845 8372  2844 2845 8372  2744 2745 8373  2744 2845 8373  2745 2846 8373  2845 2846 8373  2745 2746 8374  2745 2846 8374  2746 2847 8374  2846 2847 8374  2746 2747 8375  2746 2847 8375  2747 2848 8375  2847 2848 8375  2747 2748 8376  2747 2848 8376  2748 2849 8376  2848 2849 8376  2748 2749 8377  2748 2849 8377  2749 2850 8377  2849 2850 8377  2749 2750 8378  2749 2850 8378  2750 2851 8378  2850 2851 8378  2750 2751 8379  2750 2851 8379  2751 2852 8379  2851 2852 8379  2751 2752 8380  2751 2852 8380  2752 2853 8380  2852 2853 8380  2752 2753 8381  2752 2853 8381  2753 2854 8381  2853 2854 8381  2753 2754 8382  2753 2854 8382  2754 2855 8382  2854 2855 8382  2754 2755 8383  2754 2855 8383  2755 2856 8383  2855 2856 8383  2755 2756 8384  2755 2856 8384  2756 2857 8384  2856 2857 8384  2756 2757 8385  2756 2857 8385  2757 2858 8385  2857 2858 8385  2757 2758 8386  2757 2858 8386  2758 2859 8386  2858 2859 8386  2758 2759 8387  2758 2859 8387  2759 2860 8387  2859 2860 8387  2759 2760 8388  2759 2860 8388  2760 2861 8388  2860 2861 8388  2760 2761 8389  2760 2861 8389  2761 2862 8389  2861 2862 8389  2761 2762 8390  2761 2862 8390  2762 2863 8390  2862 2863 8390  2762 2763 8391  2762 2863 8391  2763 2864 8391  2863 2864 8391  2763 2764 8392  2763 2864 8392  2764 2865 8392  2864 2865 8392  2764 2765 8393  2764 2865 8393  2765 2866 8393  2865 2866 8393  2765 2766 8394  2765 2866 8394  2766 2867 8394  2866 2867 8394  2766 2767 8395  2766 2867 8395  2767 2868 8395  2867 2868 8395  2767 2768 8396  2767 2868 8396  2768 2869 8396  2868 2869 8396  2768 2769 8397  2768 2869 8397  2769 2870 8397  2869 2870 8397  2769 2770 8398  2769 2870 8398  2770 2871 8398  2870 2871 8398  2770 2771 8399  2770 2871 8399  2771 2872 8399  2871 2872 8399  2771 2772 8400  2771 2872 8400  2772 2873 8400  2872 2873 8400  2772 2773 8401  2772 2873 8401  2773 2874 8401  2873 2874 8401  2773 2774 8402  2773 2874 8402  2774 2875 8402  2874 2875 8402  2774 2775 8403  2774 2875 8403  2775 2876 8403  2875 2876 8403  2775 2776 8404  2775 2876 8404  2776 2877 8404  2876 2877 8404  2776 2777 8405  2776 2877 8405  2777 2878 8405  2877 2878 8405  2777 2778 8406  2777 2878 8406  2778 2879 8406  2878 2879 8406  2778 2779 8407  2778 2879 8407  2779 2880 8407  2879 2880 8407  2779 2780 8408  2779 2880 8408  2780 2881 8408  2880 2881 8408  2780 2781 8409  2780 2881 8409  2781 2882 8409  2881 2882 8409  2781 2782 8410  2781 2882 8410  2782 2883 8410  2882 2883 8410  2782 2783 8411  2782 2883 8411  2783 2884 8411  2883 2884 8411  2783 2784 8412  2783 2884 8412  2784 2885 8412  2884 2885 8412  2784 2785 8413  2784 2885 8413  2785 2886 8413  2885 2886 8413  2785 2786 8414  2785 2886 8414  2786 2887 8414  2886 2887 8414  2786 2787 8415  2786 2887 8415  2787 2888 8415  2887 2888 8415  2787 2788 8416  2787 2888 8416  2788 2889 8416  2888 2889 8416  2788 2789 8417  2788 2889 8417  2789 2890 8417  2889 2890 8417  2789 2790 8418  2789 2890 8418  2790 2891 8418  2890 2891 8418  2790 2791 8419  2790 2891 8419  2791 2892 8419  2891 2892 8419  2791 2792 8420  2791 2892 8420  2792 2893 8420  2892 2893 8420  2792 2793 8421  2792 2893 8421  2793 2894 8421  2893 2894 8421  2793 2794 8422  2793 2894 8422  2794 2895 8422  2894 2895 8422  2794 2795 8423  2794 2895 8423  2795 2896 8423  2895 2896 8423  2795 2796 8424  2795 2896 8424  2796 2897 8424  2896 2897 8424  2796 2797 8425  2796 2897 8425  2797 2898 8425  2897 2898 8425  2797 2798 8426  2797 2898 8426  2798 2899 8426  2898 2899 8426  2798 2799 8427  2798 2899 8427  2799 2900 8427  2899 2900 8427  2799 2800 8428  2799 2900 8428  2800 2901 8428  2900 2901 8428  2800 2801 8429  2800 2901 8429  2801 2902 8429  2901 2902 8429  2801 2802 8430  2801 2902 8430  2802 2903 8430  2902 2903 8430  2802 2803 8431  2802 2903 8431  2803 2904 8431  2903 2904 8431  2803 2804 8432  2803 2904 8432  2804 2905 8432  2904 2905 8432  2804 2805 8433  2804 2905 8433  2805 2906 8433  2905 2906 8433  2805 2806 8434  2805 2906 8434  2806 2907 8434  2906 2907 8434  2806 2807 8435  2806 2907 8435  2807 2908 8435  2907 2908 8435  2807 2808 8436  2807 2908 8436  2808 2909 8436  2908 2909 8436  2808 2809 8437  2808 2909 8437  2809 2910 8437  2909 2910 8437  2809 2810 8438  2809 2910 8438  2810 2911 8438  2910 2911 8438  2810 2811 8439  2810 2911 8439  2811 2912 8439  2911 2912 8439  2811 2812 8440  2811 2912 8440  2812 2913 8440  2912 2913 8440  2812 2813 8441  2812 2913 8441  2813 2914 8441  2913 2914 8441  2813 2814 8442  2813 2914 8442  2814 2915 8442  2914 2915 8442  2814 2815 8443  2814 2915 8443  2815 2916 8443  2915 2916 8443  2815 2816 8444  2815 2916 8444  2816 2917 8444  2916 2917 8444  2816 2817 8445  2816 2917 8445  2817 2918 8445  2917 2918 8445  2817 2818 8446  2817 2918 8446  2818 2919 8446  2918 2919 8446  2818 2819 8447  2818 2919 8447  2819 2920 8447  2919 2920 8447  2819 2820 8448  2819 2920 8448  2820 2921 8448  2920 2921 8448  2820 2821 8449  2820 2921 8449  2821 2922 8449  2921 2922 8449  2821 2822 8450  2821 2922 8450  2822 2923 8450  2922 2923 8450  2822 2823 8451  2822 2923 8451  2823 2924 8451  2923 2924 8451  2823 2824 8452  2823 2924 8452  2824 2925 8452  2924 2925 8452  2824 2825 8453  2824 2925 8453  2825 2926 8453  2925 2926 8453  2825 2826 8454  2825 2926 8454  2826 2927 8454  2926 2927 8454  2826 2827 8455  2826 2927 8455  2827 2928 8455  2927 2928 8455  2828 2829 8456  2828 2929 8456  2829 2930 8456  2929 2930 8456  2829 2830 8457  2829 2930 8457  2830 2931 8457  2930 2931 8457  2830 2831 8458  2830 2931 8458  2831 2932 8458  2931 2932 8458  2831 2832 8459  2831 2932 8459  2832 2933 8459  2932 2933 8459  2832 2833 8460  2832 2933 8460  2833 2934 8460  2933 2934 8460  2833 2834 8461  2833 2934 8461  2834 2935 8461  2934 2935 8461  2834 2835 8462  2834 2935 8462  2835 2936 8462  2935 2936 8462  2835 2836 8463  2835 2936 8463  2836 2937 8463  2936 2937 8463  2836 2837 8464  2836 2937 8464  2837 2938 8464  2937 2938 8464  2837 2838 8465  2837 2938 8465  2838 2939 8465  2938 2939 8465  2838 2839 8466  2838 2939 8466  2839 2940 8466  2939 2940 8466  2839 2840 8467  2839 2940 8467  2840 2941 8467  2940 2941 8467  2840 2841 8468  2840 2941 8468  2841 2942 8468  2941 2942 8468  2841 2842 8469  2841 2942 8469  2842 2943 8469  2942 2943 8469  2842 2843 8470  2842 2943 8470  2843 2944 8470  2943 2944 8470  2843 2844 8471  2843 2944 8471  2844 2945 8471  2944 2945 8471  2844 2845 8472  2844 2945 8472  2845 2946 8472  2945 2946 8472  2845 2846 8473  2845 2946 8473  2846 2947 8473  2946 2947 8473  2846 2847 8474  2846 2947 8474  2847 2948 8474  2947 2948 8474  2847 2848 8475  2847 2948 8475  2848 2949 8475  2948 2949 8475  2848 2849 8476  2848 2949 8476  2849 2950 8476  2949 2950 8476  2849 2850 8477  2849 2950 8477  2850 2951 8477  2950 2951 8477  2850 2851 8478  2850 2951 8478  2851 2952 8478  2951 2952 8478  2851 2852 8479  2851 2952 8479  2852 2953 8479  2952 2953 8479  2852 2853 8480  2852 2953 8480  2853 2954 8480  2953 2954 8480  2853 2854 8481  2853 2954 8481  2854 2955 8481  2954 2955 8481  2854 2855 8482  2854 2955 8482  2855 2956 8482  2955 2956 8482  2855 2856 8483  2855 2956 8483  2856 2957 8483  2956 2957 8483  2856 2857 8484  2856 2957 8484  2857 2958 8484  2957 2958 8484  2857 2858 8485  2857 2958 8485  2858 2959 8485  2958 2959 8485  2858 2859 8486  2858 2959 8486  2859 2960 8486  2959 2960 8486  2859 2860 8487  2859 2960 8487  2860 2961 8487  2960 2961 8487  2860 2861 8488  2860 2961 8488  2861 2962 8488  2961 2962 8488  2861 2862 8489  2861 2962 8489  2862 2963 8489  2962 2963 8489  2862 2863 8490  2862 2963 8490  2863 2964 8490  2963 2964 8490  2863 2864 8491  2863 2964 8491  2864 2965 8491  2964 2965 8491  2864 2865 8492  2864 2965 8492  2865 2966 8492  2965 2966 8492  2865 2866 8493  2865 2966 8493  2866 2967 8493  2966 2967 8493  2866 2867 8494  2866 2967 8494  2867 2968 8494  2967 2968 8494  2867 2868 8495  2867 2968 8495  2868 2969 8495  2968 2969 8495  2868 2869 8496  2868 2969 8496  2869 2970 8496  2969 2970 8496  2869 2870 8497  2869 2970 8497  2870 2971 8497  2970 2971 8497  2870 2871 8498  2870 2971 8498  2871 2972 8498  2971 2972 8498  2871 2872 8499  2871 2972 8499  2872 2973 8499  2972 2973 8499  2872 2873 8500  2872 2973 8500  2873 2974 8500  2973 2974 8500  2873 2874 8501  2873 2974 8501  2874 2975 8501  2974 2975 8501  2874 2875 8502  2874 2975 8502  2875 2976 8502  2975 2976 8502  2875 2876 8503  2875 2976 8503  2876 2977 8503  2976 2977 8503  2876 2877 8504  2876 2977 8504  2877 2978 8504  2977 2978 8504  2877 2878 8505  2877 2978 8505  2878 2979 8505  2978 2979 8505  2878 2879 8506  2878 2979 8506  2879 2980 8506  2979 2980 8506  2879 2880 8507  2879 2980 8507  2880 2981 8507  2980 2981 8507  2880 2881 8508  2880 2981 8508  2881 2982 8508  2981 2982 8508  2881 2882 8509  2881 2982 8509  2882 2983 8509  2982 2983 8509  2882 2883 8510  2882 2983 8510  2883 2984 8510  2983 2984 8510  2883 2884 8511  2883 2984 8511  2884 2985 8511  2984 2985 8511  2884 2885 8512  2884 2985 8512  2885 2986 8512  2985 2986 8512  2885 2886 8513  2885 2986 8513  2886 2987 8513  2986 2987 8513  2886 2887 8514  2886 2987 8514  2887 2988 8514  2987 2988 8514  2887 2888 8515  2887 2988 8515  2888 2989 8515  2988 2989 8515  2888 2889 8516  2888 2989 8516  2889 2990 8516  2989 2990 8516  2889 2890 8517  2889 2990 8517  2890 2991 8517  2990 2991 8517  2890 2891 8518  2890 2991 8518  2891 2992 8518  2991 2992 8518  2891 2892 8519  2891 2992 8519  2892 2993 8519  2992 2993 8519  2892 2893 8520  2892 2993 8520  2893 2994 8520  2993 2994 8520  2893 2894 8521  2893 2994 8521  2894 2995 8521  2994 2995 8521  2894 2895 8522  2894 2995 8522  2895 2996 8522  2995 2996 8522  2895 2896 8523  2895 2996 8523  2896 2997 8523  2996 2997 8523  2896 2897 8524  2896 2997 8524  2897 2998 8524  2997 2998 8524  2897 2898 8525  2897 2998 8525  2898 2999 8525  2998 2999 8525  2898 2899 8526  2898 2999 8526  2899 3000 8526  2999 3000 8526  2899 2900 8527  2899 3000 8527  2900 3001 8527  3000 3001 8527  2900 2901 8528  2900 3001 8528  2901 3002 8528  3001 3002 8528  2901 2902 8529  2901 3002 8529  2902 3003 8529  3002 3003 8529  2902 2903 8530  2902 3003 8530  2903 3004 8530  3003 3004 8530  2903 2904 8531  2903 3004 8531  2904 3005 8531  3004 3005 8531  2904 2905 8532  2904 3005 8532  2905 3006 8532  3005 3006 8532  2905 2906 8533  2905 3006 8533  2906 3007 8533  3006 3007 8533  2906 2907 8534  2906 3007 8534  2907 3008 8534  3007 3008 8534  2907 2908 8535  2907 3008 8535  2908 3009 8535  3008 3009 8535  2908 2909 8536  2908 3009 8536  2909 3010 8536  3009 3010 8536  2909 2910 8537  2909 3010 8537  2910 3011 8537  3010 3011 8537  2910 2911 8538  2910 3011 8538  2911 3012 8538  3011 3012 8538  2911 2912 8539  2911 3012 8539  2912 3013 8539  3012 3013 8539  2912 2913 8540  2912 3013 8540  2913 3014 8540  3013 3014 8540  2913 2914 8541  2913 3014 8541  2914 3015 8541  3014 3015 8541  2914 2915 8542  2914 3015 8542  2915 3016 8542  3015 3016 8542  2915 2916 8543  2915 3016 8543  2916 3017 8543  3016 3017 8543  2916 2917 8544  2916 3017 8544  2917 3018 8544  3017 3018 8544  2917 2918 8545  2917 3018 8545  2918 3019 8545  3018 3019 8545  2918 2919 8546  2918 3019 8546  2919 3020 8546  3019 3020 8546  2919 2920 8547  2919 3020 8547  2920 3021 8547  3020 3021 8547  2920 2921 8548  2920 3021 8548  2921 3022 8548  3021 3022 8548  2921 2922 8549  2921 3022 8549  2922 3023 8549  3022 3023 8549  2922 2923 8550  2922 3023 8550  2923 3024 8550  3023 3024 8550  2923 2924 8551  2923 3024 8551  2924 3025 8551  3024 3025 8551  2924 2925 8552  2924 3025 8552  2925 3026 8552  3025 3026 8552  2925 2926 8553  2925 3026 8553  2926 3027 8553  3026 3027 8553  2926 2927 8554  2926 3027 8554  2927 3028 8554  3027 3028 8554  2927 2928 8555  2927 3028 8555  2928 3029 8555  3028 3029 8555  2929 2930 8556  2929 3030 8556  2930 3031 8556  3030 3031 8556  2930 2931 8557  2930 3031 8557  2931 3032 8557  3031 3032 8557  2931 2932 8558  2931 3032 8558  2932 3033 8558  3032 3033 8558  2932 2933 8559  2932 3033 8559  2933 3034 8559  3033 3034 8559  2933 2934 8560  2933 3034 8560  2934 3035 8560  3034 3035 8560  2934 2935 8561  2934 3035 8561  2935 3036 8561  3035 3036 8561  2935 2936 8562  2935 3036 8562  2936 3037 8562  3036 3037 8562  2936 2937 8563  2936 3037 8563  2937 3038 8563  3037 3038 8563  2937 2938 8564  2937 3038 8564  2938 3039 8564  3038 3039 8564  2938 2939 8565  2938 3039 8565  2939 3040 8565  3039 3040 8565  2939 2940 8566  2939 3040 8566  2940 3041 8566  3040 3041 8566  2940 2941 8567  2940 3041 8567  2941 3042 8567  3041 3042 8567  2941 2942 8568  2941 3042 8568  2942 3043 8568  3042 3043 8568  2942 2943 8569  2942 3043 8569  2943 3044 8569  3043 3044 8569  2943 2944 8570  2943 3044 8570  2944 3045 8570  3044 3045 8570  2944 2945 8571  2944 3045 8571  2945 3046 8571  3045 3046 8571  2945 2946 8572  2945 3046 8572  2946 3047 8572  3046 3047 8572  2946 2947 8573  2946 3047 8573  2947 3048 8573  3047 3048 8573  2947 2948 8574  2947 3048 8574  2948 3049 8574  3048 3049 8574  2948 2949 8575  2948 3049 8575  2949 3050 8575  3049 3050 8575  2949 2950 8576  2949 3050 8576  2950 3051 8576  3050 3051 8576  2950 2951 8577  2950 3051 8577  2951 3052 8577  3051 3052 8577  2951 2952 8578  2951 3052 8578  2952 3053 8578  3052 3053 8578  2952 2953 8579  2952 3053 8579  2953 3054 8579  3053 3054 8579  2953 2954 8580  2953 3054 8580  2954 3055 8580  3054 3055 8580  2954 2955 8581  2954 3055 8581  2955 3056 8581  3055 3056 8581  2955 2956 8582  2955 3056 8582  2956 3057 8582  3056 3057 8582  2956 2957 8583  2956 3057 8583  2957 3058 8583  3057 3058 8583  2957 2958 8584  2957 3058 8584  2958 3059 8584  3058 3059 8584  2958 2959 8585  2958 3059 8585  2959 3060 8585  3059 3060 8585  2959 2960 8586  2959 3060 8586  2960 3061 8586  3060 3061 8586  2960 2961 8587  2960 3061 8587  2961 3062 8587  3061 3062 8587  2961 2962 8588  2961 3062 8588  2962 3063 8588  3062 3063 8588  2962 2963 8589  2962 3063 8589  2963 3064 8589  3063 3064 8589  2963 2964 8590  2963 3064 8590  2964 3065 8590  3064 3065 8590  2964 2965 8591  2964 3065 8591  2965 3066 8591  3065 3066 8591  2965 2966 8592  2965 3066 8592  2966 3067 8592  3066 3067 8592  2966 2967 8593  2966 3067 8593  2967 3068 8593  3067 3068 8593  2967 2968 8594  2967 3068 8594  2968 3069 8594  3068 3069 8594  2968 2969 8595  2968 3069 8595  2969 3070 8595  3069 3070 8595  2969 2970 8596  2969 3070 8596  2970 3071 8596  3070 3071 8596  2970 2971 8597  2970 3071 8597  2971 3072 8597  3071 3072 8597  2971 2972 8598  2971 3072 8598  2972 3073 8598  3072 3073 8598  2972 2973 8599  2972 3073 8599  2973 3074 8599  3073 3074 8599  2973 2974 8600  2973 3074 8600  2974 3075 8600  3074 3075 8600  2974 2975 8601  2974 3075 8601  2975 3076 8601  3075 3076 8601  2975 2976 8602  2975 3076 8602  2976 3077 8602  3076 3077 8602  2976 2977 8603  2976 3077 8603  2977 3078 8603  3077 3078 8603  2977 2978 8604  2977 3078 8604  2978 3079 8604  3078 3079 8604  2978 2979 8605  2978 3079 8605  2979 3080 8605  3079 3080 8605  2979 2980 8606  2979 3080 8606  2980 3081 8606  3080 3081 8606  2980 2981 8607  2980 3081 8607  2981 3082 8607  3081 3082 8607  2981 2982 8608  2981 3082 8608  2982 3083 8608  3082 3083 8608  2982 2983 8609  2982 3083 8609  2983 3084 8609  3083 3084 8609  2983 2984 8610  2983 3084 8610  2984 3085 8610  3084 3085 8610  2984 2985 8611  2984 3085 8611  2985 3086 8611  3085 3086 8611  2985 2986 8612  2985 3086 8612  2986 3087 8612  3086 3087 8612  2986 2987 8613  2986 3087 8613  2987 3088 8613  3087 3088 8613  2987 2988 8614  2987 3088 8614  2988 3089 8614  3088 3089 8614  2988 2989 8615  2988 3089 8615  2989 3090 8615  3089 3090 8615  2989 2990 8616  2989 3090 8616  2990 3091 8616  3090 3091 8616  2990 2991 8617  2990 3091 8617  2991 3092 8617  3091 3092 8617  2991 2992 8618  2991 3092 8618  2992 3093 8618  3092 3093 8618  2992 2993 8619  2992 3093 8619  2993 3094 8619  3093 3094 8619  2993 2994 8620  2993 3094 8620  2994 3095 8620  3094 3095 8620  2994 2995 8621  2994 3095 8621  2995 3096 8621  3095 3096 8621  2995 2996 8622  2995 3096 8622  2996 3097 8622  3096 3097 8622  2996 2997 8623  2996 3097 8623  2997 3098 8623  3097 3098 8623  2997 2998 8624  2997 3098 8624  2998 3099 8624  3098 3099 8624  2998 2999 8625  2998 3099 8625  2999 3100 8625  3099 3100 8625  2999 3000 8626  2999 3100 8626  3000 3101 8626  3100 3101 8626  3000 3001 8627  3000 3101 8627  3001 3102 8627  3101 3102 8627  3001 3002 8628  3001 3102 8628  3002 3103 8628  3102 3103 8628  3002 3003 8629  3002 3103 8629  3003 3104 8629  3103 3104 8629  3003 3004 8630  3003 3104 8630  3004 3105 8630  3104 3105 8630  3004 3005 8631  3004 3105 8631  3005 3106 8631  3105 3106 8631  3005 3006 8632  3005 3106 8632  3006 3107 8632  3106 3107 8632  3006 3007 8633  3006 3107 8633  3007 3108 8633  3107 3108 8633  3007 3008 8634  3007 3108 8634  3008 3109 8634  3108 3109 8634  3008 3009 8635  3008 3109 8635  3009 3110 8635  3109 3110 8635  3009 3010 8636  3009 3110 8636  3010 3111 8636  3110 3111 8636  3010 3011 8637  3010 3111 8637  3011 3112 8637  3111 3112 8637  3011 3012 8638  3011 3112 8638  3012 3113 8638  3112 3113 8638  3012 3013 8639  3012 3113 8639  3013 3114 8639  3113 3114 8639  3013 3014 8640  3013 3114 8640  3014 3115 8640  3114 3115 8640  3014 3015 8641  3014 3115 8641  3015 3116 8641  3115 3116 8641  3015 3016 8642  3015 3116 8642  3016 3117 8642  3116 3117 8642  3016 3017 8643  3016 3117 8643  3017 3118 8643  3117 3118 8643  3017 3018 8644  3017 3118 8644  3018 3119 8644  3118 3119 8644  3018 3019 8645  3018 3119 8645  3019 3120 8645  3119 3120 8645  3019 3020 8646  3019 3120 8646  3020 3121 8646  3120 3121 8646  3020 3021 8647  3020 3121 8647  3021 3122 8647  3121 3122 8647  3021 3022 8648  3021 3122 8648  3022 3123 8648  3122 3123 8648  3022 3023 8649  3022 3123 8649  3023 3124 8649  3123 3124 8649  3023 3024 8650  3023 3124 8650  3024 3125 8650  3124 3125 8650  3024 3025 8651  3024 3125 8651  3025 3126 8651  3125 3126 8651  3025 3026 8652  3025 3126 8652  3026 3127 8652  3126 3127 8652  3026 3027 8653  3026 3127 8653  3027 3128 8653  3127 3128 8653  3027 3028 8654  3027 3128 8654  3028 3129 8654  3128 3129 8654  3028 3029 8655  3028 3129 8655  3029 3130 8655  3129 3130 8655  3030 3031 8656  3030 3131 8656  3031 3132 8656  3131 3132 8656  3031 3032 8657  3031 3132 8657  3032 3133 8657  3132 3133 8657  3032 3033 8658  3032 3133 8658  3033 3134 8658  3133 3134 8658  3033 3034 8659  3033 3134 8659  3034 3135 8659  3134 3135 8659  3034 3035 8660  3034 3135 8660  3035 3136 8660  3135 3136 8660  3035 3036 8661  3035 3136 8661  3036 3137 8661  3136 3137 8661  3036 3037 8662  3036 3137 8662  3037 3138 8662  3137 3138 8662  3037 3038 8663  3037 3138 8663  3038 3139 8663  3138 3139 8663  3038 3039 8664  3038 3139 8664  3039 3140 8664  3139 3140 8664  3039 3040 8665  3039 3140 8665  3040 3141 8665  3140 3141 8665  3040 3041 8666  3040 3141 8666  3041 3142 8666  3141 3142 8666  3041 3042 8667  3041 3142 8667  3042 3143 8667  3142 3143 8667  3042 3043 8668  3042 3143 8668  3043 3144 8668  3143 3144 8668  3043 3044 8669  3043 3144 8669  3044 3145 8669  3144 3145 8669  3044 3045 8670  3044 3145 8670  3045 3146 8670  3145 3146 8670  3045 3046 8671  3045 3146 8671  3046 3147 8671  3146 3147 8671  3046 3047 8672  3046 3147 8672  3047 3148 8672  3147 3148 8672  3047 3048 8673  3047 3148 8673  3048 3149 8673  3148 3149 8673  3048 3049 8674  3048 3149 8674  3049 3150 8674  3149 3150 8674  3049 3050 8675  3049 3150 8675  3050 3151 8675  3150 3151 8675  3050 3051 8676  3050 3151 8676  3051 3152 8676  3151 3152 8676  3051 3052 8677  3051 3152 8677  3052 3153 8677  3152 3153 8677  3052 3053 8678  3052 3153 8678  3053 3154 8678  3153 3154 8678  3053 3054 8679  3053 3154 8679  3054 3155 8679  3154 3155 8679  3054 3055 8680  3054 3155 8680  3055 3156 8680  3155 3156 8680  3055 3056 8681  3055 3156 8681  3056 3157 8681  3156 3157 8681  3056 3057 8682  3056 3157 8682  3057 3158 8682  3157 3158 8682  3057 3058 8683  3057 3158 8683  3058 3159 8683  3158 3159 8683  3058 3059 8684  3058 3159 8684  3059 3160 8684  3159 3160 8684  3059 3060 8685  3059 3160 8685  3060 3161 8685  3160 3161 8685  3060 3061 8686  3060 3161 8686  3061 3162 8686  3161 3162 8686  3061 3062 8687  3061 3162 8687  3062 3163 8687  3162 3163 8687  3062 3063 8688  3062 3163 8688  3063 3164 8688  3163 3164 8688  3063 3064 8689  3063 3164 8689  3064 3165 8689  3164 3165 8689  3064 3065 8690  3064 3165 8690  3065 3166 8690  3165 3166 8690  3065 3066 8691  3065 3166 8691  3066 3167 8691  3166 3167 8691  3066 3067 8692  3066 3167 8692  3067 3168 8692  3167 3168 8692  3067 3068 8693  3067 3168 8693  3068 3169 8693  3168 3169 8693  3068 3069 8694  3068 3169 8694  3069 3170 8694  3169 3170 8694  3069 3070 8695  3069 3170 8695  3070 3171 8695  3170 3171 8695  3070 3071 8696  3070 3171 8696  3071 3172 8696  3171 3172 8696  3071 3072 8697  3071 3172 8697  3072 3173 8697  3172 3173 8697  3072 3073 8698  3072 3173 8698  3073 3174 8698  3173 3174 8698  3073 3074 8699  3073 3174 8699  3074 3175 8699  3174 3175 8699  3074 3075 8700  3074 3175 8700  3075 3176 8700  3175 3176 8700  3075 3076 8701  3075 3176 8701  3076 3177 8701  3176 3177 8701  3076 3077 8702  3076 3177 8702  3077 3178 8702  3177 3178 8702  3077 3078 8703  3077 3178 8703  3078 3179 8703  3178 3179 8703  3078 3079 8704  3078 3179 8704  3079 3180 8704  3179 3180 8704  3079 3080 8705  3079 3180 8705  3080 3181 8705  3180 3181 8705  3080 3081 8706  3080 3181 8706  3081 3182 8706  3181 3182 8706  3081 3082 8707  3081 3182 8707  3082 3183 8707  3182 3183 8707  3082 3083 8708  3082 3183 8708  3083 3184 8708  3183 3184 8708  3083 3084 8709  3083 3184 8709  3084 3185 8709  3184 3185 8709  3084 3085 8710  3084 3185 8710  3085 3186 8710  3185 3186 8710  3085 3086 8711  3085 3186 8711  3086 3187 8711  3186 3187 8711  3086 3087 8712  3086 3187 8712  3087 3188 8712  3187 3188 8712  3087 3088 8713  3087 3188 8713  3088 3189 8713  3188 3189 8713  3088 3089 8714  3088 3189 8714  3089 3190 8714  3189 3190 8714  3089 3090 8715  3089 3190 8715  3090 3191 8715  3190 3191 8715  3090 3091 8716  3090 3191 8716  3091 3192 8716  3191 3192 8716  3091 3092 8717  3091 3192 8717  3092 3193 8717  3192 3193 8717  3092 3093 8718  3092 3193 8718  3093 3194 8718  3193 3194 8718  3093 3094 8719  3093 3194 8719  3094 3195 8719  3194 3195 8719  3094 3095 8720  3094 3195 8720  3095 3196 8720  3195 3196 8720  3095 3096 8721  3095 3196 8721  3096 3197 8721  3196 3197 8721  3096 3097 8722  3096 3197 8722  3097 3198 8722  3197 3198 8722  3097 3098 8723  3097 3198 8723  3098 3199 8723  3198 3199 8723  3098 3099 8724  3098 3199 8724  3099 3200 8724  3199 3200 8724  3099 3100 8725  3099 3200 8725  3100 3201 8725  3200 3201 8725  3100 3101 8726  3100 3201 8726  3101 3202 8726  3201 3202 8726  3101 3102 8727  3101 3202 8727  3102 3203 8727  3202 3203 8727  3102 3103 8728  3102 3203 8728  3103 3204 8728  3203 3204 8728  3103 3104 8729  3103 3204 8729  3104 3205 8729  3204 3205 8729  3104 3105 8730  3104 3205 8730  3105 3206 8730  3205 3206 8730  3105 3106 8731  3105 3206 8731  3106 3207 8731  3206 3207 8731  3106 3107 8732  3106 3207 8732  3107 3208 8732  3207 3208 8732  3107 3108 8733  3107 3208 8733  3108 3209 8733  3208 3209 8733  3108 3109 8734  3108 3209 8734  3109 3210 8734  3209 3210 8734  3109 3110 8735  3109 3210 8735  3110 3211 8735  3210 3211 8735  3110 3111 8736  3110 3211 8736  3111 3212 8736  3211 3212 8736  3111 3112 8737  3111 3212 8737  3112 3213 8737  3212 3213 8737  3112 3113 8738  3112 3213 8738  3113 3214 8738  3213 3214 8738  3113 3114 8739  3113 3214 8739  3114 3215 8739  3214 3215 8739  3114 3115 8740  3114 3215 8740  3115 3216 8740  3215 3216 8740  3115 3116 8741  3115 3216 8741  3116 3217 8741  3216 3217 8741  3116 3117 8742  3116 3217 8742  3117 3218 8742  3217 3218 8742  3117 3118 8743  3117 3218 8743  3118 3219 8743  3218 3219 8743  3118 3119 8744  3118 3219 8744  3119 3220 8744  3219 3220 8744  3119 3120 8745  3119 3220 8745  3120 3221 8745  3220 3221 8745  3120 3121 8746  3120 3221 8746  3121 3222 8746  3221 3222 8746  3121 3122 8747  3121 3222 8747  3122 3223 8747  3222 3223 8747  3122 3123 8748  3122 3223 8748  3123 3224 8748  3223 3224 8748  3123 3124 8749  3123 3224 8749  3124 3225 8749  3224 3225 8749  3124 3125 8750  3124 3225 8750  3125 3226 8750  3225 3226 8750  3125 3126 8751  3125 3226 8751  3126 3227 8751  3226 3227 8751  3126 3127 8752  3126 3227 8752  3127 3228 8752  3227 3228 8752  3127 3128 8753  3127 3228 8753  3128 3229 8753  3228 3229 8753  3128 3129 8754  3128 3229 8754  3129 3230 8754  3229 3230 8754  3129 3130 8755  3129 3230 8755  3130 3231 8755  3230 3231 8755  3131 3132 8756  3131 3232 8756  3132 3233 8756  3232 3233 8756  3132 3133 8757  3132 3233 8757  3133 3234 8757  3233 3234 8757  3133 3134 8758  3133 3234 8758  3134 3235 8758  3234 3235 8758  3134 3135 8759  3134 3235 8759  3135 3236 8759  3235 3236 8759  3135 3136 8760  3135 3236 8760  3136 3237 8760  3236 3237 8760  3136 3137 8761  3136 3237 8761  3137 3238 8761  3237 3238 8761  3137 3138 8762  3137 3238 8762  3138 3239 8762  3238 3239 8762  3138 3139 8763  3138 3239 8763  3139 3240 8763  3239 3240 8763  3139 3140 8764  3139 3240 8764  3140 3241 8764  3240 3241 8764  3140 3141 8765  3140 3241 8765  3141 3242 8765  3241 3242 8765  3141 3142 8766  3141 3242 8766  3142 3243 8766  3242 3243 8766  3142 3143 8767  3142 3243 8767  3143 3244 8767  3243 3244 8767  3143 3144 8768  3143 3244 8768  3144 3245 8768  3244 3245 8768  3144 3145 8769  3144 3245 8769  3145 3246 8769  3245 3246 8769  3145 3146 8770  3145 3246 8770  3146 3247 8770  3246 3247 8770  3146 3147 8771  3146 3247 8771  3147 3248 8771  3247 3248 8771  3147 3148 8772  3147 3248 8772  3148 3249 8772  3248 3249 8772  3148 3149 8773  3148 3249 8773  3149 3250 8773  3249 3250 8773  3149 3150 8774  3149 3250 8774  3150 3251 8774  3250 3251 8774  3150 3151 8775  3150 3251 8775  3151 3252 8775  3251 3252 8775  3151 3152 8776  3151 3252 8776  3152 3253 8776  3252 3253 8776  3152 3153 8777  3152 3253 8777  3153 3254 8777  3253 3254 8777  3153 3154 8778  3153 3254 8778  3154 3255 8778  3254 3255 8778  3154 3155 8779  3154 3255 8779  3155 3256 8779  3255 3256 8779  3155 3156 8780  3155 3256 8780  3156 3257 8780  3256 3257 8780  3156 3157 8781  3156 3257 8781  3157 3258 8781  3257 3258 8781  3157 3158 8782  3157 3258 8782  3158 3259 8782  3258 3259 8782  3158 3159 8783  3158 3259 8783  3159 3260 8783  3259 3260 8783  3159 3160 8784  3159 3260 8784  3160 3261 8784  3260 3261 8784  3160 3161 8785  3160 3261 8785  3161 3262 8785  3261 3262 8785  3161 3162 8786  3161 3262 8786  3162 3263 8786  3262 3263 8786  3162 3163 8787  3162 3263 8787  3163 3264 8787  3263 3264 8787  3163 3164 8788  3163 3264 8788  3164 3265 8788  3264 3265 8788  3164 3165 8789  3164 3265 8789  3165 3266 8789  3265 3266 8789  3165 3166 8790  3165 3266 8790  3166 3267 8790  3266 3267 8790  3166 3167 8791  3166 3267 8791  3167 3268 8791  3267 3268 8791  3167 3168 8792  3167 3268 8792  3168 3269 8792  3268 3269 8792  3168 3169 8793  3168 3269 8793  3169 3270 8793  3269 3270 8793  3169 3170 8794  3169 3270 8794  3170 3271 8794  3270 3271 8794  3170 3171 8795  3170 3271 8795  3171 3272 8795  3271 3272 8795  3171 3172 8796  3171 3272 8796  3172 3273 8796  3272 3273 8796  3172 3173 8797  3172 3273 8797  3173 3274 8797  3273 3274 8797  3173 3174 8798  3173 3274 8798  3174 3275 8798  3274 3275 8798  3174 3175 8799  3174 3275 8799  3175 3276 8799  3275 3276 8799  3175 3176 8800  3175 3276 8800  3176 3277 8800  3276 3277 8800  3176 3177 8801  3176 3277 8801  3177 3278 8801  3277 3278 8801  3177 3178 8802  3177 3278 8802  3178 3279 8802  3278 3279 8802  3178 3179 8803  3178 3279 8803  3179 3280 8803  3279 3280 8803  3179 3180 8804  3179 3280 8804  3180 3281 8804  3280 3281 8804  3180 3181 8805  3180 3281 8805  3181 3282 8805  3281 3282 8805  3181 3182 8806  3181 3282 8806  3182 3283 8806  3282 3283 8806  3182 3183 8807  3182 3283 8807  3183 3284 8807  3283 3284 8807  3183 3184 8808  3183 3284 8808  3184 3285 8808  3284 3285 8808  3184 3185 8809  3184 3285 8809  3185 3286 8809  3285 3286 8809  3185 3186 8810  3185 3286 8810  3186 3287 8810  3286 3287 8810  3186 3187 8811  3186 3287 8811  3187 3288 8811  3287 3288 8811  3187 3188 8812  3187 3288 8812  3188 3289 8812  3288 3289 8812  3188 3189 8813  3188 3289 8813  3189 3290 8813  3289 3290 8813  3189 3190 8814  3189 3290 8814  3190 3291 8814  3290 3291 8814  3190 3191 8815  3190 3291 8815  3191 3292 8815  3291 3292 8815  3191 3192 8816  3191 3292 8816  3192 3293 8816  3292 3293 8816  3192 3193 8817  3192 3293 8817  3193 3294 8817  3293 3294 8817  3193 3194 8818  3193 3294 8818  3194 3295 8818  3294 3295 8818  3194 3195 8819  3194 3295 8819  3195 3296 8819  3295 3296 8819  3195 3196 8820  3195 3296 8820  3196 3297 8820  3296 3297 8820  3196 3197 8821  3196 3297 8821  3197 3298 8821  3297 3298 8821  3197 3198 8822  3197 3298 8822  3198 3299 8822  3298 3299 8822  3198 3199 8823  3198 3299 8823  3199 3300 8823  3299 3300 8823  3199 3200 8824  3199 3300 8824  3200 3301 8824  3300 3301 8824  3200 3201 8825  3200 3301 8825  3201 3302 8825  3301 3302 8825  3201 3202 8826  3201 3302 8826  3202 3303 8826  3302 3303 8826  3202 3203 8827  3202 3303 8827  3203 3304 8827  3303 3304 8827  3203 3204 8828  3203 3304 8828  3204 3305 8828  3304 3305 8828  3204 3205 8829  3204 3305 8829  3205 3306 8829  3305 3306 8829  3205 3206 8830  3205 3306 8830  3206 3307 8830  3306 3307 8830  3206 3207 8831  3206 3307 8831  3207 3308 8831  3307 3308 8831  3207 3208 8832  3207 3308 8832  3208 3309 8832  3308 3309 8832  3208 3209 8833  3208 3309 8833  3209 3310 8833  3309 3310 8833  3209 3210 8834  3209 3310 8834  3210 3311 8834  3310 3311 8834  3210 3211 8835  3210 3311 8835  3211 3312 8835  3311 3312 8835  3211 3212 8836  3211 3312 8836  3212 3313 8836  3312 3313 8836  3212 3213 8837  3212 3313 8837  3213 3314 8837  3313 3314 8837  3213 3214 8838  3213 3314 8838  3214 3315 8838  3314 3315 8838  3214 3215 8839  3214 3315 8839  3215 3316 8839  3315 3316 8839  3215 3216 8840  3215 3316 8840  3216 3317 8840  3316 3317 8840  3216 3217 8841  3216 3317 8841  3217 3318 8841  3317 3318 8841  3217 3218 8842  3217 3318 8842  3218 3319 8842  3318 3319 8842  3218 3219 8843  3218 3319 8843  3219 3320 8843  3319 3320 8843  3219 3220 8844  3219 3320 8844  3220 3321 8844  3320 3321 8844  3220 3221 8845  3220 3321 8845  3221 3322 8845  3321 3322 8845  3221 3222 8846  3221 3322 8846  3222 3323 8846  3322 3323 8846  3222 3223 8847  3222 3323 8847  3223 3324 8847  3323 3324 8847  3223 3224 8848  3223 3324 8848  3224 3325 8848  3324 3325 8848  3224 3225 8849  3224 3325 8849  3225 3326 8849  3325 3326 8849  3225 3226 8850  3225 3326 8850  3226 3327 8850  3326 3327 8850  3226 3227 8851  3226 3327 8851  3227 3328 8851  3327 3328 8851  3227 3228 8852  3227 3328 8852  3228 3329 8852  3328 3329 8852  3228 3229 8853  3228 3329 8853  3229 3330 8853  3329 3330 8853  3229 3230 8854  3229 3330 8854  3230 3331 8854  3330 3331 8854  3230 3231 8855  3230 3331 8855  3231 3332 8855  3331 3332 8855  3232 3233 8856  3232 3333 8856  3233 3334 8856  3333 3334 8856  3233 3234 8857  3233 3334 8857  3234 3335 8857  3334 3335 8857  3234 3235 8858  3234 3335 8858  3235 3336 8858  3335 3336 8858  3235 3236 8859  3235 3336 8859  3236 3337 8859  3336 3337 8859  3236 3237 8860  3236 3337 8860  3237 3338 8860  3337 3338 8860  3237 3238 8861  3237 3338 8861  3238 3339 8861  3338 3339 8861  3238 3239 8862  3238 3339 8862  3239 3340 8862  3339 3340 8862  3239 3240 8863  3239 3340 8863  3240 3341 8863  3340 3341 8863  3240 3241 8864  3240 3341 8864  3241 3342 8864  3341 3342 8864  3241 3242 8865  3241 3342 8865  3242 3343 8865  3342 3343 8865  3242 3243 8866  3242 3343 8866  3243 3344 8866  3343 3344 8866  3243 3244 8867  3243 3344 8867  3244 3345 8867  3344 3345 8867  3244 3245 8868  3244 3345 8868  3245 3346 8868  3345 3346 8868  3245 3246 8869  3245 3346 8869  3246 3347 8869  3346 3347 8869  3246 3247 8870  3246 3347 8870  3247 3348 8870  3347 3348 8870  3247 3248 8871  3247 3348 8871  3248 3349 8871  3348 3349 8871  3248 3249 8872  3248 3349 8872  3249 3350 8872  3349 3350 8872  3249 3250 8873  3249 3350 8873  3250 3351 8873  3350 3351 8873  3250 3251 8874  3250 3351 8874  3251 3352 8874  3351 3352 8874  3251 3252 8875  3251 3352 8875  3252 3353 8875  3352 3353 8875  3252 3253 8876  3252 3353 8876  3253 3354 8876  3353 3354 8876  3253 3254 8877  3253 3354 8877  3254 3355 8877  3354 3355 8877  3254 3255 8878  3254 3355 8878  3255 3356 8878  3355 3356 8878  3255 3256 8879  3255 3356 8879  3256 3357 8879  3356 3357 8879  3256 3257 8880  3256 3357 8880  3257 3358 8880  3357 3358 8880  3257 3258 8881  3257 3358 8881  3258 3359 8881  3358 3359 8881  3258 3259 8882  3258 3359 8882  3259 3360 8882  3359 3360 8882  3259 3260 8883  3259 3360 8883  3260 3361 8883  3360 3361 8883  3260 3261 8884  3260 3361 8884  3261 3362 8884  3361 3362 8884  3261 3262 8885  3261 3362 8885  3262 3363 8885  3362 3363 8885  3262 3263 8886  3262 3363 8886  3263 3364 8886  3363 3364 8886  3263 3264 8887  3263 3364 8887  3264 3365 8887  3364 3365 8887  3264 3265 8888  3264 3365 8888  3265 3366 8888  3365 3366 8888  3265 3266 8889  3265 3366 8889  3266 3367 8889  3366 3367 8889  3266 3267 8890  3266 3367 8890  3267 3368 8890  3367 3368 8890  3267 3268 8891  3267 3368 8891  3268 3369 8891  3368 3369 8891  3268 3269 8892  3268 3369 8892  3269 3370 8892  3369 3370 8892  3269 3270 8893  3269 3370 8893  3270 3371 8893  3370 3371 8893  3270 3271 8894  3270 3371 8894  3271 3372 8894  3371 3372 8894  3271 3272 8895  3271 3372 8895  3272 3373 8895  3372 3373 8895  3272 3273 8896  3272 3373 8896  3273 3374 8896  3373 3374 8896  3273 3274 8897  3273 3374 8897  3274 3375 8897  3374 3375 8897  3274 3275 8898  3274 3375 8898  3275 3376 8898  3375 3376 8898  3275 3276 8899  3275 3376 8899  3276 3377 8899  3376 3377 8899  3276 3277 8900  3276 3377 8900  3277 3378 8900  3377 3378 8900  3277 3278 8901  3277 3378 8901  3278 3379 8901  3378 3379 8901  3278 3279 8902  3278 3379 8902  3279 3380 8902  3379 3380 8902  3279 3280 8903  3279 3380 8903  3280 3381 8903  3380 3381 8903  3280 3281 8904  3280 3381 8904  3281 3382 8904  3381 3382 8904  3281 3282 8905  3281 3382 8905  3282 3383 8905  3382 3383 8905  3282 3283 8906  3282 3383 8906  3283 3384 8906  3383 3384 8906  3283 3284 8907  3283 3384 8907  3284 3385 8907  3384 3385 8907  3284 3285 8908  3284 3385 8908  3285 3386 8908  3385 3386 8908  3285 3286 8909  3285 3386 8909  3286 3387 8909  3386 3387 8909  3286 3287 8910  3286 3387 8910  3287 3388 8910  3387 3388 8910  3287 3288 8911  3287 3388 8911  3288 3389 8911  3388 3389 8911  3288 3289 8912  3288 3389 8912  3289 3390 8912  3389 3390 8912  3289 3290 8913  3289 3390 8913  3290 3391 8913  3390 3391 8913  3290 3291 8914  3290 3391 8914  3291 3392 8914  3391 3392 8914  3291 3292 8915  3291 3392 8915  3292 3393 8915  3392 3393 8915  3292 3293 8916  3292 3393 8916  3293 3394 8916  3393 3394 8916  3293 3294 8917  3293 3394 8917  3294 3395 8917  3394 3395 8917  3294 3295 8918  3294 3395 8918  3295 3396 8918  3395 3396 8918  3295 3296 8919  3295 3396 8919  3296 3397 8919  3396 3397 8919  3296 3297 8920  3296 3397 8920  3297 3398 8920  3397 3398 8920  3297 3298 8921  3297 3398 8921  3298 3399 8921  3398 3399 8921  3298 3299 8922  3298 3399 8922  3299 3400 8922  3399 3400 8922  3299 3300 8923  3299 3400 8923  3300 3401 8923  3400 3401 8923  3300 3301 8924  3300 3401 8924  3301 3402 8924  3401 3402 8924  3301 3302 8925  3301 3402 8925  3302 3403 8925  3402 3403 8925  3302 3303 8926  3302 3403 8926  3303 3404 8926  3403 3404 8926  3303 3304 8927  3303 3404 8927  3304 3405 8927  3404 3405 8927  3304 3305 8928  3304 3405 8928  3305 3406 8928  3405 3406 8928  3305 3306 8929  3305 3406 8929  3306 3407 8929  3406 3407 8929  3306 3307 8930  3306 3407 8930  3307 3408 8930  3407 3408 8930  3307 3308 8931  3307 3408 8931  3308 3409 8931  3408 3409 8931  3308 3309 8932  3308 3409 8932  3309 3410 8932  3409 3410 8932  3309 3310 8933  3309 3410 8933  3310 3411 8933  3410 3411 8933  3310 3311 8934  3310 3411 8934  3311 3412 8934  3411 3412 8934  3311 3312 8935  3311 3412 8935  3312 3413 8935  3412 3413 8935  3312 3313 8936  3312 3413 8936  3313 3414 8936  3413 3414 8936  3313 3314 8937  3313 3414 8937  3314 3415 8937  3414 3415 8937  3314 3315 8938  3314 3415 8938  3315 3416 8938  3415 3416 8938  3315 3316 8939  3315 3416 8939  3316 3417 8939  3416 3417 8939  3316 3317 8940  3316 3417 8940  3317 3418 8940  3417 3418 8940  3317 3318 8941  3317 3418 8941  3318 3419 8941  3418 3419 8941  3318 3319 8942  3318 3419 8942  3319 3420 8942  3419 3420 8942  3319 3320 8943  3319 3420 8943  3320 3421 8943  3420 3421 8943  3320 3321 8944  3320 3421 8944  3321 3422 8944  3421 3422 8944  3321 3322 8945  3321 3422 8945  3322 3423 8945  3422 3423 8945  3322 3323 8946  3322 3423 8946  3323 3424 8946  3423 3424 8946  3323 3324 8947  3323 3424 8947  3324 3425 8947  3424 3425 8947  3324 3325 8948  3324 3425 8948  3325 3426 8948  3425 3426 8948  3325 3326 8949  3325 3426 8949  3326 3427 8949  3426 3427 8949  3326 3327 8950  3326 3427 8950  3327 3428 8950  3427 3428 8950  3327 3328 8951  3327 3428 8951  3328 3429 8951  3428 3429 8951  3328 3329 8952  3328 3429 8952  3329 3430 8952  3429 3430 8952  3329 3330 8953  3329 3430 8953  3330 3431 8953  3430 3431 8953  3330 3331 8954  3330 3431 8954  3331 3432 8954  3431 3432 8954  3331 3332 8955  3331 3432 8955  3332 3433 8955  3432 3433 8955  3333 3334 8956  3333 3434 8956  3334 3435 8956  3434 3435 8956  3334 3335 8957  3334 3435 8957  3335 3436 8957  3435 3436 8957  3335 3336 8958  3335 3436 8958  3336 3437 8958  3436 3437 8958  3336 3337 8959  3336 3437 8959  3337 3438 8959  3437 3438 8959  3337 3338 8960  3337 3438 8960  3338 3439 8960  3438 3439 8960  3338 3339 8961  3338 3439 8961  3339 3440 8961  3439 3440 8961  3339 3340 8962  3339 3440 8962  3340 3441 8962  3440 3441 8962  3340 3341 8963  3340 3441 8963  3341 3442 8963  3441 3442 8963  3341 3342 8964  3341 3442 8964  3342 3443 8964  3442 3443 8964  3342 3343 8965  3342 3443 8965  3343 3444 8965  3443 3444 8965  3343 3344 8966  3343 3444 8966  3344 3445 8966  3444 3445 8966  3344 3345 8967  3344 3445 8967  3345 3446 8967  3445 3446 8967  3345 3346 8968  3345 3446 8968  3346 3447 8968  3446 3447 8968  3346 3347 8969  3346 3447 8969  3347 3448 8969  3447 3448 8969  3347 3348 8970  3347 3448 8970  3348 3449 8970  3448 3449 8970  3348 3349 8971  3348 3449 8971  3349 3450 8971  3449 3450 8971  3349 3350 8972  3349 3450 8972  3350 3451 8972  3450 3451 8972  3350 3351 8973  3350 3451 8973  3351 3452 8973  3451 3452 8973  3351 3352 8974  3351 3452 8974  3352 3453 8974  3452 3453 8974  3352 3353 8975  3352 3453 8975  3353 3454 8975  3453 3454 8975  3353 3354 8976  3353 3454 8976  3354 3455 8976  3454 3455 8976  3354 3355 8977  3354 3455 8977  3355 3456 8977  3455 3456 8977  3355 3356 8978  3355 3456 8978  3356 3457 8978  3456 3457 8978  3356 3357 8979  3356 3457 8979  3357 3458 8979  3457 3458 8979  3357 3358 8980  3357 3458 8980  3358 3459 8980  3458 3459 8980  3358 3359 8981  3358 3459 8981  3359 3460 8981  3459 3460 8981  3359 3360 8982  3359 3460 8982  3360 3461 8982  3460 3461 8982  3360 3361 8983  3360 3461 8983  3361 3462 8983  3461 3462 8983  3361 3362 8984  3361 3462 8984  3362 3463 8984  3462 3463 8984  3362 3363 8985  3362 3463 8985  3363 3464 8985  3463 3464 8985  3363 3364 8986  3363 3464 8986  3364 3465 8986  3464 3465 8986  3364 3365 8987  3364 3465 8987  3365 3466 8987  3465 3466 8987  3365 3366 8988  3365 3466 8988  3366 3467 8988  3466 3467 8988  3366 3367 8989  3366 3467 8989  3367 3468 8989  3467 3468 8989  3367 3368 8990  3367 3468 8990  3368 3469 8990  3468 3469 8990  3368 3369 8991  3368 3469 8991  3369 3470 8991  3469 3470 8991  3369 3370 8992  3369 3470 8992  3370 3471 8992  3470 3471 8992  3370 3371 8993  3370 3471 8993  3371 3472 8993  3471 3472 8993  3371 3372 8994  3371 3472 8994  3372 3473 8994  3472 3473 8994  3372 3373 8995  3372 3473 8995  3373 3474 8995  3473 3474 8995  3373 3374 8996  3373 3474 8996  3374 3475 8996  3474 3475 8996  3374 3375 8997  3374 3475 8997  3375 3476 8997  3475 3476 8997  3375 3376 8998  3375 3476 8998  3376 3477 8998  3476 3477 8998  3376 3377 8999  3376 3477 8999  3377 3478 8999  3477 3478 8999  3377 3378 9000  3377 3478 9000  3378 3479 9000  3478 3479 9000  3378 3379 9001  3378 3479 9001  3379 3480 9001  3479 3480 9001  3379 3380 9002  3379 3480 9002  3380 3481 9002  3480 3481 9002  3380 3381 9003  3380 3481 9003  3381 3482 9003  3481 3482 9003  3381 3382 9004  3381 3482 9004  3382 3483 9004  3482 3483 9004  3382 3383 9005  3382 3483 9005  3383 3484 9005  3483 3484 9005  3383 3384 9006  3383 3484 9006  3384 3485 9006  3484 3485 9006  3384 3385 9007  3384 3485 9007  3385 3486 9007  3485 3486 9007  3385 3386 9008  3385 3486 9008  3386 3487 9008  3486 3487 9008  3386 3387 9009  3386 3487 9009  3387 3488 9009  3487 3488 9009  3387 3388 9010  3387 3488 9010  3388 3489 9010  3488 3489 9010  3388 3389 9011  3388 3489 9011  3389 3490 9011  3489 3490 9011  3389 3390 9012  3389 3490 9012  3390 3491 9012  3490 3491 9012  3390 3391 9013  3390 3491 9013  3391 3492 9013  3491 3492 9013  3391 3392 9014  3391 3492 9014  3392 3493 9014  3492 3493 9014  3392 3393 9015  3392 3493 9015  3393 3494 9015  3493 3494 9015  3393 3394 9016  3393 3494 9016  3394 3495 9016  3494 3495 9016  3394 3395 9017  3394 3495 9017  3395 3496 9017  3495 3496 9017  3395 3396 9018  3395 3496 9018  3396 3497 9018  3496 3497 9018  3396 3397 9019  3396 3497 9019  3397 3498 9019  3497 3498 9019  3397 3398 9020  3397 3498 9020  3398 3499 9020  3498 3499 9020  3398 3399 9021  3398 3499 9021  3399 3500 9021  3499 3500 9021  3399 3400 9022  3399 3500 9022  3400 3501 9022  3500 3501 9022  3400 3401 9023  3400 3501 9023  3401 3502 9023  3501 3502 9023  3401 3402 9024  3401 3502 9024  3402 3503 9024  3502 3503 9024  3402 3403 9025  3402 3503 9025  3403 3504 9025  3503 3504 9025  3403 3404 9026  3403 3504 9026  3404 3505 9026  3504 3505 9026  3404 3405 9027  3404 3505 9027  3405 3506 9027  3505 3506 9027  3405 3406 9028  3405 3506 9028  3406 3507 9028  3506 3507 9028  3406 3407 9029  3406 3507 9029  3407 3508 9029  3507 3508 9029  3407 3408 9030  3407 3508 9030  3408 3509 9030  3508 3509 9030  3408 3409 9031  3408 3509 9031  3409 3510 9031  3509 3510 9031  3409 3410 9032  3409 3510 9032  3410 3511 9032  3510 3511 9032  3410 3411 9033  3410 3511 9033  3411 3512 9033  3511 3512 9033  3411 3412 9034  3411 3512 9034  3412 3513 9034  3512 3513 9034  3412 3413 9035  3412 3513 9035  3413 3514 9035  3513 3514 9035  3413 3414 9036  3413 3514 9036  3414 3515 9036  3514 3515 9036  3414 3415 9037  3414 3515 9037  3415 3516 9037  3515 3516 9037  3415 3416 9038  3415 3516 9038  3416 3517 9038  3516 3517 9038  3416 3417 9039  3416 3517 9039  3417 3518 9039  3517 3518 9039  3417 3418 9040  3417 3518 9040  3418 3519 9040  3518 3519 9040  3418 3419 9041  3418 3519 9041  3419 3520 9041  3519 3520 9041  3419 3420 9042  3419 3520 9042  3420 3521 9042  3520 3521 9042  3420 3421 9043  3420 3521 9043  3421 3522 9043  3521 3522 9043  3421 3422 9044  3421 3522 9044  3422 3523 9044  3522 3523 9044  3422 3423 9045  3422 3523 9045  3423 3524 9045  3523 3524 9045  3423 3424 9046  3423 3524 9046  3424 3525 9046  3524 3525 9046  3424 3425 9047  3424 3525 9047  3425 3526 9047  3525 3526 9047  3425 3426 9048  3425 3526 9048  3426 3527 9048  3526 3527 9048  3426 3427 9049  3426 3527 9049  3427 3528 9049  3527 3528 9049  3427 3428 9050  3427 3528 9050  3428 3529 9050  3528 3529 9050  3428 3429 9051  3428 3529 9051  3429 3530 9051  3529 3530 9051  3429 3430 9052  3429 3530 9052  3430 3531 9052  3530 3531 9052  3430 3431 9053  3430 3531 9053  3431 3532 9053  3531 3532 9053  3431 3432 9054  3431 3532 9054  3432 3533 9054  3532 3533 9054  3432 3433 9055  3432 3533 9055  3433 3534 9055  3533 3534 9055  3434 3435 9056  3434 3535 9056  3435 3536 9056  3535 3536 9056  3435 3436 9057  3435 3536 9057  3436 3537 9057  3536 3537 9057  3436 3437 9058  3436 3537 9058  3437 3538 9058  3537 3538 9058  3437 3438 9059  3437 3538 9059  3438 3539 9059  3538 3539 9059  3438 3439 9060  3438 3539 9060  3439 3540 9060  3539 3540 9060  3439 3440 9061  3439 3540 9061  3440 3541 9061  3540 3541 9061  3440 3441 9062  3440 3541 9062  3441 3542 9062  3541 3542 9062  3441 3442 9063  3441 3542 9063  3442 3543 9063  3542 3543 9063  3442 3443 9064  3442 3543 9064  3443 3544 9064  3543 3544 9064  3443 3444 9065  3443 3544 9065  3444 3545 9065  3544 3545 9065  3444 3445 9066  3444 3545 9066  3445 3546 9066  3545 3546 9066  3445 3446 9067  3445 3546 9067  3446 3547 9067  3546 3547 9067  3446 3447 9068  3446 3547 9068  3447 3548 9068  3547 3548 9068  3447 3448 9069  3447 3548 9069  3448 3549 9069  3548 3549 9069  3448 3449 9070  3448 3549 9070  3449 3550 9070  3549 3550 9070  3449 3450 9071  3449 3550 9071  3450 3551 9071  3550 3551 9071  3450 3451 9072  3450 3551 9072  3451 3552 9072  3551 3552 9072  3451 3452 9073  3451 3552 9073  3452 3553 9073  3552 3553 9073  3452 3453 9074  3452 3553 9074  3453 3554 9074  3553 3554 9074  3453 3454 9075  3453 3554 9075  3454 3555 9075  3554 3555 9075  3454 3455 9076  3454 3555 9076  3455 3556 9076  3555 3556 9076  3455 3456 9077  3455 3556 9077  3456 3557 9077  3556 3557 9077  3456 3457 9078  3456 3557 9078  3457 3558 9078  3557 3558 9078  3457 3458 9079  3457 3558 9079  3458 3559 9079  3558 3559 9079  3458 3459 9080  3458 3559 9080  3459 3560 9080  3559 3560 9080  3459 3460 9081  3459 3560 9081  3460 3561 9081  3560 3561 9081  3460 3461 9082  3460 3561 9082  3461 3562 9082  3561 3562 9082  3461 3462 9083  3461 3562 9083  3462 3563 9083  3562 3563 9083  3462 3463 9084  3462 3563 9084  3463 3564 9084  3563 3564 9084  3463 3464 9085  3463 3564 9085  3464 3565 9085  3564 3565 9085  3464 3465 9086  3464 3565 9086  3465 3566 9086  3565 3566 9086  3465 3466 9087  3465 3566 9087  3466 3567 9087  3566 3567 9087  3466 3467 9088  3466 3567 9088  3467 3568 9088  3567 3568 9088  3467 3468 9089  3467 3568 9089  3468 3569 9089  3568 3569 9089  3468 3469 9090  3468 3569 9090  3469 3570 9090  3569 3570 9090  3469 3470 9091  3469 3570 9091  3470 3571 9091  3570 3571 9091  3470 3471 9092  3470 3571 9092  3471 3572 9092  3571 3572 9092  3471 3472 9093  3471 3572 9093  3472 3573 9093  3572 3573 9093  3472 3473 9094  3472 3573 9094  3473 3574 9094  3573 3574 9094  3473 3474 9095  3473 3574 9095  3474 3575 9095  3574 3575 9095  3474 3475 9096  3474 3575 9096  3475 3576 9096  3575 3576 9096  3475 3476 9097  3475 3576 9097  3476 3577 9097  3576 3577 9097  3476 3477 9098  3476 3577 9098  3477 3578 9098  3577 3578 9098  3477 3478 9099  3477 3578 9099  3478 3579 9099  3578 3579 9099  3478 3479 9100  3478 3579 9100  3479 3580 9100  3579 3580 9100  3479 3480 9101  3479 3580 9101  3480 3581 9101  3580 3581 9101  3480 3481 9102  3480 3581 9102  3481 3582 9102  3581 3582 9102  3481 3482 9103  3481 3582 9103  3482 3583 9103  3582 3583 9103  3482 3483 9104  3482 3583 9104  3483 3584 9104  3583 3584 9104  3483 3484 9105  3483 3584 9105  3484 3585 9105  3584 3585 9105  3484 3485 9106  3484 3585 9106  3485 3586 9106  3585 3586 9106  3485 3486 9107  3485 3586 9107  3486 3587 9107  3586 3587 9107  3486 3487 9108  3486 3587 9108  3487 3588 9108  3587 3588 9108  3487 3488 9109  3487 3588 9109  3488 3589 9109  3588 3589 9109  3488 3489 9110  3488 3589 9110  3489 3590 9110  3589 3590 9110  3489 3490 9111  3489 3590 9111  3490 3591 9111  3590 3591 9111  3490 3491 9112  3490 3591 9112  3491 3592 9112  3591 3592 9112  3491 3492 9113  3491 3592 9113  3492 3593 9113  3592 3593 9113  3492 3493 9114  3492 3593 9114  3493 3594 9114  3593 3594 9114  3493 3494 9115  3493 3594 9115  3494 3595 9115  3594 3595 9115  3494 3495 9116  3494 3595 9116  3495 3596 9116  3595 3596 9116  3495 3496 9117  3495 3596 9117  3496 3597 9117  3596 3597 9117  3496 3497 9118  3496 3597 9118  3497 3598 9118  3597 3598 9118  3497 3498 9119  3497 3598 9119  3498 3599 9119  3598 3599 9119  3498 3499 9120  3498 3599 9120  3499 3600 9120  3599 3600 9120  3499 3500 9121  3499 3600 9121  3500 3601 9121  3600 3601 9121  3500 3501 9122  3500 3601 9122  3501 3602 9122  3601 3602 9122  3501 3502 9123  3501 3602 9123  3502 3603 9123  3602 3603 9123  3502 3503 9124  3502 3603 9124  3503 3604 9124  3603 3604 9124  3503 3504 9125  3503 3604 9125  3504 3605 9125  3604 3605 9125  3504 3505 9126  3504 3605 9126  3505 3606 9126  3605 3606 9126  3505 3506 9127  3505 3606 9127  3506 3607 9127  3606 3607 9127  3506 3507 9128  3506 3607 9128  3507 3608 9128  3607 3608 9128  3507 3508 9129  3507 3608 9129  3508 3609 9129  3608 3609 9129  3508 3509 9130  3508 3609 9130  3509 3610 9130  3609 3610 9130  3509 3510 9131  3509 3610 9131  3510 3611 9131  3610 3611 9131  3510 3511 9132  3510 3611 9132  3511 3612 9132  3611 3612 9132  3511 3512 9133  3511 3612 9133  3512 3613 9133  3612 3613 9133  3512 3513 9134  3512 3613 9134  3513 3614 9134  3613 3614 9134  3513 3514 9135  3513 3614 9135  3514 3615 9135  3614 3615 9135  3514 3515 9136  3514 3615 9136  3515 3616 9136  3615 3616 9136  3515 3516 9137  3515 3616 9137  3516 3617 9137  3616 3617 9137  3516 3517 9138  3516 3617 9138  3517 3618 9138  3617 3618 9138  3517 3518 9139  3517 3618 9139  3518 3619 9139  3618 3619 9139  3518 3519 9140  3518 3619 9140  3519 3620 9140  3619 3620 9140  3519 3520 9141  3519 3620 9141  3520 3621 9141  3620 3621 9141  3520 3521 9142  3520 3621 9142  3521 3622 9142  3621 3622 9142  3521 3522 9143  3521 3622 9143  3522 3623 9143  3622 3623 9143  3522 3523 9144  3522 3623 9144  3523 3624 9144  3623 3624 9144  3523 3524 9145  3523 3624 9145  3524 3625 9145  3624 3625 9145  3524 3525 9146  3524 3625 9146  3525 3626 9146  3625 3626 9146  3525 3526 9147  3525 3626 9147  3526 3627 9147  3626 3627 9147  3526 3527 9148  3526 3627 9148  3527 3628 9148  3627 3628 9148  3527 3528 9149  3527 3628 9149  3528 3629 9149  3628 3629 9149  3528 3529 9150  3528 3629 9150  3529 3630 9150  3629 3630 9150  3529 3530 9151  3529 3630 9151  3530 3631 9151  3630 3631 9151  3530 3531 9152  3530 3631 9152  3531 3632 9152  3631 3632 9152  3531 3532 9153  3531 3632 9153  3532 3633 9153  3632 3633 9153  3532 3533 9154  3532 3633 9154  3533 3634 9154  3633 3634 9154  3533 3534 9155  3533 3634 9155  3534 3635 9155  3634 3635 9155  3535 3536 9156  3535 3636 9156  3536 3637 9156  3636 3637 9156  3536 3537 9157  3536 3637 9157  3537 3638 9157  3637 3638 9157  3537 3538 9158  3537 3638 9158  3538 3639 9158  3638 3639 9158  3538 3539 9159  3538 3639 9159  3539 3640 9159  3639 3640 9159  3539 3540 9160  3539 3640 9160  3540 3641 9160  3640 3641 9160  3540 3541 9161  3540 3641 9161  3541 3642 9161  3641 3642 9161  3541 3542 9162  3541 3642 9162  3542 3643 9162  3642 3643 9162  3542 3543 9163  3542 3643 9163  3543 3644 9163  3643 3644 9163  3543 3544 9164  3543 3644 9164  3544 3645 9164  3644 3645 9164  3544 3545 9165  3544 3645 9165  3545 3646 9165  3645 3646 9165  3545 3546 9166  3545 3646 9166  3546 3647 9166  3646 3647 9166  3546 3547 9167  3546 3647 9167  3547 3648 9167  3647 3648 9167  3547 3548 9168  3547 3648 9168  3548 3649 9168  3648 3649 9168  3548 3549 9169  3548 3649 9169  3549 3650 9169  3649 3650 9169  3549 3550 9170  3549 3650 9170  3550 3651 9170  3650 3651 9170  3550 3551 9171  3550 3651 9171  3551 3652 9171  3651 3652 9171  3551 3552 9172  3551 3652 9172  3552 3653 9172  3652 3653 9172  3552 3553 9173  3552 3653 9173  3553 3654 9173  3653 3654 9173  3553 3554 9174  3553 3654 9174  3554 3655 9174  3654 3655 9174  3554 3555 9175  3554 3655 9175  3555 3656 9175  3655 3656 9175  3555 3556 9176  3555 3656 9176  3556 3657 9176  3656 3657 9176  3556 3557 9177  3556 3657 9177  3557 3658 9177  3657 3658 9177  3557 3558 9178  3557 3658 9178  3558 3659 9178  3658 3659 9178  3558 3559 9179  3558 3659 9179  3559 3660 9179  3659 3660 9179  3559 3560 9180  3559 3660 9180  3560 3661 9180  3660 3661 9180  3560 3561 9181  3560 3661 9181  3561 3662 9181  3661 3662 9181  3561 3562 9182  3561 3662 9182  3562 3663 9182  3662 3663 9182  3562 3563 9183  3562 3663 9183  3563 3664 9183  3663 3664 9183  3563 3564 9184  3563 3664 9184  3564 3665 9184  3664 3665 9184  3564 3565 9185  3564 3665 9185  3565 3666 9185  3665 3666 9185  3565 3566 9186  3565 3666 9186  3566 3667 9186  3666 3667 9186  3566 3567 9187  3566 3667 9187  3567 3668 9187  3667 3668 9187  3567 3568 9188  3567 3668 9188  3568 3669 9188  3668 3669 9188  3568 3569 9189  3568 3669 9189  3569 3670 9189  3669 3670 9189  3569 3570 9190  3569 3670 9190  3570 3671 9190  3670 3671 9190  3570 3571 9191  3570 3671 9191  3571 3672 9191  3671 3672 9191  3571 3572 9192  3571 3672 9192  3572 3673 9192  3672 3673 9192  3572 3573 9193  3572 3673 9193  3573 3674 9193  3673 3674 9193  3573 3574 9194  3573 3674 9194  3574 3675 9194  3674 3675 9194  3574 3575 9195  3574 3675 9195  3575 3676 9195  3675 3676 9195  3575 3576 9196  3575 3676 9196  3576 3677 9196  3676 3677 9196  3576 3577 9197  3576 3677 9197  3577 3678 9197  3677 3678 9197  3577 3578 9198  3577 3678 9198  3578 3679 9198  3678 3679 9198  3578 3579 9199  3578 3679 9199  3579 3680 9199  3679 3680 9199  3579 3580 9200  3579 3680 9200  3580 3681 9200  3680 3681 9200  3580 3581 9201  3580 3681 9201  3581 3682 9201  3681 3682 9201  3581 3582 9202  3581 3682 9202  3582 3683 9202  3682 3683 9202  3582 3583 9203  3582 3683 9203  3583 3684 9203  3683 3684 9203  3583 3584 9204  3583 3684 9204  3584 3685 9204  3684 3685 9204  3584 3585 9205  3584 3685 9205  3585 3686 9205  3685 3686 9205  3585 3586 9206  3585 3686 9206  3586 3687 9206  3686 3687 9206  3586 3587 9207  3586 3687 9207  3587 3688 9207  3687 3688 9207  3587 3588 9208  3587 3688 9208  3588 3689 9208  3688 3689 9208  3588 3589 9209  3588 3689 9209  3589 3690 9209  3689 3690 9209  3589 3590 9210  3589 3690 9210  3590 3691 9210  3690 3691 9210  3590 3591 9211  3590 3691 9211  3591 3692 9211  3691 3692 9211  3591 3592 9212  3591 3692 9212  3592 3693 9212  3692 3693 9212  3592 3593 9213  3592 3693 9213  3593 3694 9213  3693 3694 9213  3593 3594 9214  3593 3694 9214  3594 3695 9214  3694 3695 9214  3594 3595 9215  3594 3695 9215  3595 3696 9215  3695 3696 9215  3595 3596 9216  3595 3696 9216  3596 3697 9216  3696 3697 9216  3596 3597 9217  3596 3697 9217  3597 3698 9217  3697 3698 9217  3597 3598 9218  3597 3698 9218  3598 3699 9218  3698 3699 9218  3598 3599 9219  3598 3699 9219  3599 3700 9219  3699 3700 9219  3599 3600 9220  3599 3700 9220  3600 3701 9220  3700 3701 9220  3600 3601 9221  3600 3701 9221  3601 3702 9221  3701 3702 9221  3601 3602 9222  3601 3702 9222  3602 3703 9222  3702 3703 9222  3602 3603 9223  3602 3703 9223  3603 3704 9223  3703 3704 9223  3603 3604 9224  3603 3704 9224  3604 3705 9224  3704 3705 9224  3604 3605 9225  3604 3705 9225  3605 3706 9225  3705 3706 9225  3605 3606 9226  3605 3706 9226  3606 3707 9226  3706 3707 9226  3606 3607 9227  3606 3707 9227  3607 3708 9227  3707 3708 9227  3607 3608 9228  3607 3708 9228  3608 3709 9228  3708 3709 9228  3608 3609 9229  3608 3709 9229  3609 3710 9229  3709 3710 9229  3609 3610 9230  3609 3710 9230  3610 3711 9230  3710 3711 9230  3610 3611 9231  3610 3711 9231  3611 3712 9231  3711 3712 9231  3611 3612 9232  3611 3712 9232  3612 3713 9232  3712 3713 9232  3612 3613 9233  3612 3713 9233  3613 3714 9233  3713 3714 9233  3613 3614 9234  3613 3714 9234  3614 3715 9234  3714 3715 9234  3614 3615 9235  3614 3715 9235  3615 3716 9235  3715 3716 9235  3615 3616 9236  3615 3716 9236  3616 3717 9236  3716 3717 9236  3616 3617 9237  3616 3717 9237  3617 3718 9237  3717 3718 9237  3617 3618 9238  3617 3718 9238  3618 3719 9238  3718 3719 9238  3618 3619 9239  3618 3719 9239  3619 3720 9239  3719 3720 9239  3619 3620 9240  3619 3720 9240  3620 3721 9240  3720 3721 9240  3620 3621 9241  3620 3721 9241  3621 3722 9241  3721 3722 9241  3621 3622 9242  3621 3722 9242  3622 3723 9242  3722 3723 9242  3622 3623 9243  3622 3723 9243  3623 3724 9243  3723 3724 9243  3623 3624 9244  3623 3724 9244  3624 3725 9244  3724 3725 9244  3624 3625 9245  3624 3725 9245  3625 3726 9245  3725 3726 9245  3625 3626 9246  3625 3726 9246  3626 3727 9246  3726 3727 9246  3626 3627 9247  3626 3727 9247  3627 3728 9247  3727 3728 9247  3627 3628 9248  3627 3728 9248  3628 3729 9248  3728 3729 9248  3628 3629 9249  3628 3729 9249  3629 3730 9249  3729 3730 9249  3629 3630 9250  3629 3730 9250  3630 3731 9250  3730 3731 9250  3630 3631 9251  3630 3731 9251  3631 3732 9251  3731 3732 9251  3631 3632 9252  3631 3732 9252  3632 3733 9252  3732 3733 9252  3632 3633 9253  3632 3733 9253  3633 3734 9253  3733 3734 9253  3633 3634 9254  3633 3734 9254  3634 3735 9254  3734 3735 9254  3634 3635 9255  3634 3735 9255  3635 3736 9255  3735 3736 9255  3636 3637 9256  3636 3737 9256  3637 3738 9256  3737 3738 9256  3637 3638 9257  3637 3738 9257  3638 3739 9257  3738 3739 9257  3638 3639 9258  3638 3739 9258  3639 3740 9258  3739 3740 9258  3639 3640 9259  3639 3740 9259  3640 3741 9259  3740 3741 9259  3640 3641 9260  3640 3741 9260  3641 3742 9260  3741 3742 9260  3641 3642 9261  3641 3742 9261  3642 3743 9261  3742 3743 9261  3642 3643 9262  3642 3743 9262  3643 3744 9262  3743 3744 9262  3643 3644 9263  3643 3744 9263  3644 3745 9263  3744 3745 9263  3644 3645 9264  3644 3745 9264  3645 3746 9264  3745 3746 9264  3645 3646 9265  3645 3746 9265  3646 3747 9265  3746 3747 9265  3646 3647 9266  3646 3747 9266  3647 3748 9266  3747 3748 9266  3647 3648 9267  3647 3748 9267  3648 3749 9267  3748 3749 9267  3648 3649 9268  3648 3749 9268  3649 3750 9268  3749 3750 9268  3649 3650 9269  3649 3750 9269  3650 3751 9269  3750 3751 9269  3650 3651 9270  3650 3751 9270  3651 3752 9270  3751 3752 9270  3651 3652 9271  3651 3752 9271  3652 3753 9271  3752 3753 9271  3652 3653 9272  3652 3753 9272  3653 3754 9272  3753 3754 9272  3653 3654 9273  3653 3754 9273  3654 3755 9273  3754 3755 9273  3654 3655 9274  3654 3755 9274  3655 3756 9274  3755 3756 9274  3655 3656 9275  3655 3756 9275  3656 3757 9275  3756 3757 9275  3656 3657 9276  3656 3757 9276  3657 3758 9276  3757 3758 9276  3657 3658 9277  3657 3758 9277  3658 3759 9277  3758 3759 9277  3658 3659 9278  3658 3759 9278  3659 3760 9278  3759 3760 9278  3659 3660 9279  3659 3760 9279  3660 3761 9279  3760 3761 9279  3660 3661 9280  3660 3761 9280  3661 3762 9280  3761 3762 9280  3661 3662 9281  3661 3762 9281  3662 3763 9281  3762 3763 9281  3662 3663 9282  3662 3763 9282  3663 3764 9282  3763 3764 9282  3663 3664 9283  3663 3764 9283  3664 3765 9283  3764 3765 9283  3664 3665 9284  3664 3765 9284  3665 3766 9284  3765 3766 9284  3665 3666 9285  3665 3766 9285  3666 3767 9285  3766 3767 9285  3666 3667 9286  3666 3767 9286  3667 3768 9286  3767 3768 9286  3667 3668 9287  3667 3768 9287  3668 3769 9287  3768 3769 9287  3668 3669 9288  3668 3769 9288  3669 3770 9288  3769 3770 9288  3669 3670 9289  3669 3770 9289  3670 3771 9289  3770 3771 9289  3670 3671 9290  3670 3771 9290  3671 3772 9290  3771 3772 9290  3671 3672 9291  3671 3772 9291  3672 3773 9291  3772 3773 9291  3672 3673 9292  3672 3773 9292  3673 3774 9292  3773 3774 9292  3673 3674 9293  3673 3774 9293  3674 3775 9293  3774 3775 9293  3674 3675 9294  3674 3775 9294  3675 3776 9294  3775 3776 9294  3675 3676 9295  3675 3776 9295  3676 3777 9295  3776 3777 9295  3676 3677 9296  3676 3777 9296  3677 3778 9296  3777 3778 9296  3677 3678 9297  3677 3778 9297  3678 3779 9297  3778 3779 9297  3678 3679 9298  3678 3779 9298  3679 3780 9298  3779 3780 9298  3679 3680 9299  3679 3780 9299  3680 3781 9299  3780 3781 9299  3680 3681 9300  3680 3781 9300  3681 3782 9300  3781 3782 9300  3681 3682 9301  3681 3782 9301  3682 3783 9301  3782 3783 9301  3682 3683 9302  3682 3783 9302  3683 3784 9302  3783 3784 9302  3683 3684 9303  3683 3784 9303  3684 3785 9303  3784 3785 9303  3684 3685 9304  3684 3785 9304  3685 3786 9304  3785 3786 9304  3685 3686 9305  3685 3786 9305  3686 3787 9305  3786 3787 9305  3686 3687 9306  3686 3787 9306  3687 3788 9306  3787 3788 9306  3687 3688 9307  3687 3788 9307  3688 3789 9307  3788 3789 9307  3688 3689 9308  3688 3789 9308  3689 3790 9308  3789 3790 9308  3689 3690 9309  3689 3790 9309  3690 3791 9309  3790 3791 9309  3690 3691 9310  3690 3791 9310  3691 3792 9310  3791 3792 9310  3691 3692 9311  3691 3792 9311  3692 3793 9311  3792 3793 9311  3692 3693 9312  3692 3793 9312  3693 3794 9312  3793 3794 9312  3693 3694 9313  3693 3794 9313  3694 3795 9313  3794 3795 9313  3694 3695 9314  3694 3795 9314  3695 3796 9314  3795 3796 9314  3695 3696 9315  3695 3796 9315  3696 3797 9315  3796 3797 9315  3696 3697 9316  3696 3797 9316  3697 3798 9316  3797 3798 9316  3697 3698 9317  3697 3798 9317  3698 3799 9317  3798 3799 9317  3698 3699 9318  3698 3799 9318  3699 3800 9318  3799 3800 9318  3699 3700 9319  3699 3800 9319  3700 3801 9319  3800 3801 9319  3700 3701 9320  3700 3801 9320  3701 3802 9320  3801 3802 9320  3701 3702 9321  3701 3802 9321  3702 3803 9321  3802 3803 9321  3702 3703 9322  3702 3803 9322  3703 3804 9322  3803 3804 9322  3703 3704 9323  3703 3804 9323  3704 3805 9323  3804 3805 9323  3704 3705 9324  3704 3805 9324  3705 3806 9324  3805 3806 9324  3705 3706 9325  3705 3806 9325  3706 3807 9325  3806 3807 9325  3706 3707 9326  3706 3807 9326  3707 3808 9326  3807 3808 9326  3707 3708 9327  3707 3808 9327  3708 3809 9327  3808 3809 9327  3708 3709 9328  3708 3809 9328  3709 3810 9328  3809 3810 9328  3709 3710 9329  3709 3810 9329  3710 3811 9329  3810 3811 9329  3710 3711 9330  3710 3811 9330  3711 3812 9330  3811 3812 9330  3711 3712 9331  3711 3812 9331  3712 3813 9331  3812 3813 9331  3712 3713 9332  3712 3813 9332  3713 3814 9332  3813 3814 9332  3713 3714 9333  3713 3814 9333  3714 3815 9333  3814 3815 9333  3714 3715 9334  3714 3815 9334  3715 3816 9334  3815 3816 9334  3715 3716 9335  3715 3816 9335  3716 3817 9335  3816 3817 9335  3716 3717 9336  3716 3817 9336  3717 3818 9336  3817 3818 9336  3717 3718 9337  3717 3818 9337  3718 3819 9337  3818 3819 9337  3718 3719 9338  3718 3819 9338  3719 3820 9338  3819 3820 9338  3719 3720 9339  3719 3820 9339  3720 3821 9339  3820 3821 9339  3720 3721 9340  3720 3821 9340  3721 3822 9340  3821 3822 9340  3721 3722 9341  3721 3822 9341  3722 3823 9341  3822 3823 9341  3722 3723 9342  3722 3823 9342  3723 3824 9342  3823 3824 9342  3723 3724 9343  3723 3824 9343  3724 3825 9343  3824 3825 9343  3724 3725 9344  3724 3825 9344  3725 3826 9344  3825 3826 9344  3725 3726 9345  3725 3826 9345  3726 3827 9345  3826 3827 9345  3726 3727 9346  3726 3827 9346  3727 3828 9346  3827 3828 9346  3727 3728 9347  3727 3828 9347  3728 3829 9347  3828 3829 9347  3728 3729 9348  3728 3829 9348  3729 3830 9348  3829 3830 9348  3729 3730 9349  3729 3830 9349  3730 3831 9349  3830 3831 9349  3730 3731 9350  3730 3831 9350  3731 3832 9350  3831 3832 9350  3731 3732 9351  3731 3832 9351  3732 3833 9351  3832 3833 9351  3732 3733 9352  3732 3833 9352  3733 3834 9352  3833 3834 9352  3733 3734 9353  3733 3834 9353  3734 3835 9353  3834 3835 9353  3734 3735 9354  3734 3835 9354  3735 3836 9354  3835 3836 9354  3735 3736 9355  3735 3836 9355  3736 3837 9355  3836 3837 9355  3737 3738 9356  3737 3838 9356  3738 3839 9356  3838 3839 9356  3738 3739 9357  3738 3839 9357  3739 3840 9357  3839 3840 9357  3739 3740 9358  3739 3840 9358  3740 3841 9358  3840 3841 9358  3740 3741 9359  3740 3841 9359  3741 3842 9359  3841 3842 9359  3741 3742 9360  3741 3842 9360  3742 3843 9360  3842 3843 9360  3742 3743 9361  3742 3843 9361  3743 3844 9361  3843 3844 9361  3743 3744 9362  3743 3844 9362  3744 3845 9362  3844 3845 9362  3744 3745 9363  3744 3845 9363  3745 3846 9363  3845 3846 9363  3745 3746 9364  3745 3846 9364  3746 3847 9364  3846 3847 9364  3746 3747 9365  3746 3847 9365  3747 3848 9365  3847 3848 9365  3747 3748 9366  3747 3848 9366  3748 3849 9366  3848 3849 9366  3748 3749 9367  3748 3849 9367  3749 3850 9367  3849 3850 9367  3749 3750 9368  3749 3850 9368  3750 3851 9368  3850 3851 9368  3750 3751 9369  3750 3851 9369  3751 3852 9369  3851 3852 9369  3751 3752 9370  3751 3852 9370  3752 3853 9370  3852 3853 9370  3752 3753 9371  3752 3853 9371  3753 3854 9371  3853 3854 9371  3753 3754 9372  3753 3854 9372  3754 3855 9372  3854 3855 9372  3754 3755 9373  3754 3855 9373  3755 3856 9373  3855 3856 9373  3755 3756 9374  3755 3856 9374  3756 3857 9374  3856 3857 9374  3756 3757 9375  3756 3857 9375  3757 3858 9375  3857 3858 9375  3757 3758 9376  3757 3858 9376  3758 3859 9376  3858 3859 9376  3758 3759 9377  3758 3859 9377  3759 3860 9377  3859 3860 9377  3759 3760 9378  3759 3860 9378  3760 3861 9378  3860 3861 9378  3760 3761 9379  3760 3861 9379  3761 3862 9379  3861 3862 9379  3761 3762 9380  3761 3862 9380  3762 3863 9380  3862 3863 9380  3762 3763 9381  3762 3863 9381  3763 3864 9381  3863 3864 9381  3763 3764 9382  3763 3864 9382  3764 3865 9382  3864 3865 9382  3764 3765 9383  3764 3865 9383  3765 3866 9383  3865 3866 9383  3765 3766 9384  3765 3866 9384  3766 3867 9384  3866 3867 9384  3766 3767 9385  3766 3867 9385  3767 3868 9385  3867 3868 9385  3767 3768 9386  3767 3868 9386  3768 3869 9386  3868 3869 9386  3768 3769 9387  3768 3869 9387  3769 3870 9387  3869 3870 9387  3769 3770 9388  3769 3870 9388  3770 3871 9388  3870 3871 9388  3770 3771 9389  3770 3871 9389  3771 3872 9389  3871 3872 9389  3771 3772 9390  3771 3872 9390  3772 3873 9390  3872 3873 9390  3772 3773 9391  3772 3873 9391  3773 3874 9391  3873 3874 9391  3773 3774 9392  3773 3874 9392  3774 3875 9392  3874 3875 9392  3774 3775 9393  3774 3875 9393  3775 3876 9393  3875 3876 9393  3775 3776 9394  3775 3876 9394  3776 3877 9394  3876 3877 9394  3776 3777 9395  3776 3877 9395  3777 3878 9395  3877 3878 9395  3777 3778 9396  3777 3878 9396  3778 3879 9396  3878 3879 9396  3778 3779 9397  3778 3879 9397  3779 3880 9397  3879 3880 9397  3779 3780 9398  3779 3880 9398  3780 3881 9398  3880 3881 9398  3780 3781 9399  3780 3881 9399  3781 3882 9399  3881 3882 9399  3781 3782 9400  3781 3882 9400  3782 3883 9400  3882 3883 9400  3782 3783 9401  3782 3883 9401  3783 3884 9401  3883 3884 9401  3783 3784 9402  3783 3884 9402  3784 3885 9402  3884 3885 9402  3784 3785 9403  3784 3885 9403  3785 3886 9403  3885 3886 9403  3785 3786 9404  3785 3886 9404  3786 3887 9404  3886 3887 9404  3786 3787 9405  3786 3887 9405  3787 3888 9405  3887 3888 9405  3787 3788 9406  3787 3888 9406  3788 3889 9406  3888 3889 9406  3788 3789 9407  3788 3889 9407  3789 3890 9407  3889 3890 9407  3789 3790 9408  3789 3890 9408  3790 3891 9408  3890 3891 9408  3790 3791 9409  3790 3891 9409  3791 3892 9409  3891 3892 9409  3791 3792 9410  3791 3892 9410  3792 3893 9410  3892 3893 9410  3792 3793 9411  3792 3893 9411  3793 3894 9411  3893 3894 9411  3793 3794 9412  3793 3894 9412  3794 3895 9412  3894 3895 9412  3794 3795 9413  3794 3895 9413  3795 3896 9413  3895 3896 9413  3795 3796 9414  3795 3896 9414  3796 3897 9414  3896 3897 9414  3796 3797 9415  3796 3897 9415  3797 3898 9415  3897 3898 9415  3797 3798 9416  3797 3898 9416  3798 3899 9416  3898 3899 9416  3798 3799 9417  3798 3899 9417  3799 3900 9417  3899 3900 9417  3799 3800 9418  3799 3900 9418  3800 3901 9418  3900 3901 9418  3800 3801 9419  3800 3901 9419  3801 3902 9419  3901 3902 9419  3801 3802 9420  3801 3902 9420  3802 3903 9420  3902 3903 9420  3802 3803 9421  3802 3903 9421  3803 3904 9421  3903 3904 9421  3803 3804 9422  3803 3904 9422  3804 3905 9422  3904 3905 9422  3804 3805 9423  3804 3905 9423  3805 3906 9423  3905 3906 9423  3805 3806 9424  3805 3906 9424  3806 3907 9424  3906 3907 9424  3806 3807 9425  3806 3907 9425  3807 3908 9425  3907 3908 9425  3807 3808 9426  3807 3908 9426  3808 3909 9426  3908 3909 9426  3808 3809 9427  3808 3909 9427  3809 3910 9427  3909 3910 9427  3809 3810 9428  3809 3910 9428  3810 3911 9428  3910 3911 9428  3810 3811 9429  3810 3911 9429  3811 3912 9429  3911 3912 9429  3811 3812 9430  3811 3912 9430  3812 3913 9430  3912 3913 9430  3812 3813 9431  3812 3913 9431  3813 3914 9431  3913 3914 9431  3813 3814 9432  3813 3914 9432  3814 3915 9432  3914 3915 9432  3814 3815 9433  3814 3915 9433  3815 3916 9433  3915 3916 9433  3815 3816 9434  3815 3916 9434  3816 3917 9434  3916 3917 9434  3816 3817 9435  3816 3917 9435  3817 3918 9435  3917 3918 9435  3817 3818 9436  3817 3918 9436  3818 3919 9436  3918 3919 9436  3818 3819 9437  3818 3919 9437  3819 3920 9437  3919 3920 9437  3819 3820 9438  3819 3920 9438  3820 3921 9438  3920 3921 9438  3820 3821 9439  3820 3921 9439  3821 3922 9439  3921 3922 9439  3821 3822 9440  3821 3922 9440  3822 3923 9440  3922 3923 9440  3822 3823 9441  3822 3923 9441  3823 3924 9441  3923 3924 9441  3823 3824 9442  3823 3924 9442  3824 3925 9442  3924 3925 9442  3824 3825 9443  3824 3925 9443  3825 3926 9443  3925 3926 9443  3825 3826 9444  3825 3926 9444  3826 3927 9444  3926 3927 9444  3826 3827 9445  3826 3927 9445  3827 3928 9445  3927 3928 9445  3827 3828 9446  3827 3928 9446  3828 3929 9446  3928 3929 9446  3828 3829 9447  3828 3929 9447  3829 3930 9447  3929 3930 9447  3829 3830 9448  3829 3930 9448  3830 3931 9448  3930 3931 9448  3830 3831 9449  3830 3931 9449  3831 3932 9449  3931 3932 9449  3831 3832 9450  3831 3932 9450  3832 3933 9450  3932 3933 9450  3832 3833 9451  3832 3933 9451  3833 3934 9451  3933 3934 9451  3833 3834 9452  3833 3934 9452  3834 3935 9452  3934 3935 9452  3834 3835 9453  3834 3935 9453  3835 3936 9453  3935 3936 9453  3835 3836 9454  3835 3936 9454  3836 3937 9454  3936 3937 9454  3836 3837 9455  3836 3937 9455  3837 3938 9455  3937 3938 9455  3838 3839 9456  3838 3939 9456  3839 3940 9456  3939 3940 9456  3839 3840 9457  3839 3940 9457  3840 3941 9457  3940 3941 9457  3840 3841 9458  3840 3941 9458  3841 3942 9458  3941 3942 9458  3841 3842 9459  3841 3942 9459  3842 3943 9459  3942 3943 9459  3842 3843 9460  3842 3943 9460  3843 3944 9460  3943 3944 9460  3843 3844 9461  3843 3944 9461  3844 3945 9461  3944 3945 9461  3844 3845 9462  3844 3945 9462  3845 3946 9462  3945 3946 9462  3845 3846 9463  3845 3946 9463  3846 3947 9463  3946 3947 9463  3846 3847 9464  3846 3947 9464  3847 3948 9464  3947 3948 9464  3847 3848 9465  3847 3948 9465  3848 3949 9465  3948 3949 9465  3848 3849 9466  3848 3949 9466  3849 3950 9466  3949 3950 9466  3849 3850 9467  3849 3950 9467  3850 3951 9467  3950 3951 9467  3850 3851 9468  3850 3951 9468  3851 3952 9468  3951 3952 9468  3851 3852 9469  3851 3952 9469  3852 3953 9469  3952 3953 9469  3852 3853 9470  3852 3953 9470  3853 3954 9470  3953 3954 9470  3853 3854 9471  3853 3954 9471  3854 3955 9471  3954 3955 9471  3854 3855 9472  3854 3955 9472  3855 3956 9472  3955 3956 9472  3855 3856 9473  3855 3956 9473  3856 3957 9473  3956 3957 9473  3856 3857 9474  3856 3957 9474  3857 3958 9474  3957 3958 9474  3857 3858 9475  3857 3958 9475  3858 3959 9475  3958 3959 9475  3858 3859 9476  3858 3959 9476  3859 3960 9476  3959 3960 9476  3859 3860 9477  3859 3960 9477  3860 3961 9477  3960 3961 9477  3860 3861 9478  3860 3961 9478  3861 3962 9478  3961 3962 9478  3861 3862 9479  3861 3962 9479  3862 3963 9479  3962 3963 9479  3862 3863 9480  3862 3963 9480  3863 3964 9480  3963 3964 9480  3863 3864 9481  3863 3964 9481  3864 3965 9481  3964 3965 9481  3864 3865 9482  3864 3965 9482  3865 3966 9482  3965 3966 9482  3865 3866 9483  3865 3966 9483  3866 3967 9483  3966 3967 9483  3866 3867 9484  3866 3967 9484  3867 3968 9484  3967 3968 9484  3867 3868 9485  3867 3968 9485  3868 3969 9485  3968 3969 9485  3868 3869 9486  3868 3969 9486  3869 3970 9486  3969 3970 9486  3869 3870 9487  3869 3970 9487  3870 3971 9487  3970 3971 9487  3870 3871 9488  3870 3971 9488  3871 3972 9488  3971 3972 9488  3871 3872 9489  3871 3972 9489  3872 3973 9489  3972 3973 9489  3872 3873 9490  3872 3973 9490  3873 3974 9490  3973 3974 9490  3873 3874 9491  3873 3974 9491  3874 3975 9491  3974 3975 9491  3874 3875 9492  3874 3975 9492  3875 3976 9492  3975 3976 9492  3875 3876 9493  3875 3976 9493  3876 3977 9493  3976 3977 9493  3876 3877 9494  3876 3977 9494  3877 3978 9494  3977 3978 9494  3877 3878 9495  3877 3978 9495  3878 3979 9495  3978 3979 9495  3878 3879 9496  3878 3979 9496  3879 3980 9496  3979 3980 9496  3879 3880 9497  3879 3980 9497  3880 3981 9497  3980 3981 9497  3880 3881 9498  3880 3981 9498  3881 3982 9498  3981 3982 9498  3881 3882 9499  3881 3982 9499  3882 3983 9499  3982 3983 9499  3882 3883 9500  3882 3983 9500  3883 3984 9500  3983 3984 9500  3883 3884 9501  3883 3984 9501  3884 3985 9501  3984 3985 9501  3884 3885 9502  3884 3985 9502  3885 3986 9502  3985 3986 9502  3885 3886 9503  3885 3986 9503  3886 3987 9503  3986 3987 9503  3886 3887 9504  3886 3987 9504  3887 3988 9504  3987 3988 9504  3887 3888 9505  3887 3988 9505  3888 3989 9505  3988 3989 9505  3888 3889 9506  3888 3989 9506  3889 3990 9506  3989 3990 9506  3889 3890 9507  3889 3990 9507  3890 3991 9507  3990 3991 9507  3890 3891 9508  3890 3991 9508  3891 3992 9508  3991 3992 9508  3891 3892 9509  3891 3992 9509  3892 3993 9509  3992 3993 9509  3892 3893 9510  3892 3993 9510  3893 3994 9510  3993 3994 9510  3893 3894 9511  3893 3994 9511  3894 3995 9511  3994 3995 9511  3894 3895 9512  3894 3995 9512  3895 3996 9512  3995 3996 9512  3895 3896 9513  3895 3996 9513  3896 3997 9513  3996 3997 9513  3896 3897 9514  3896 3997 9514  3897 3998 9514  3997 3998 9514  3897 3898 9515  3897 3998 9515  3898 3999 9515  3998 3999 9515  3898 3899 9516  3898 3999 9516  3899 4000 9516  3999 4000 9516  3899 3900 9517  3899 4000 9517  3900 4001 9517  4000 4001 9517  3900 3901 9518  3900 4001 9518  3901 4002 9518  4001 4002 9518  3901 3902 9519  3901 4002 9519  3902 4003 9519  4002 4003 9519  3902 3903 9520  3902 4003 9520  3903 4004 9520  4003 4004 9520  3903 3904 9521  3903 4004 9521  3904 4005 9521  4004 4005 9521  3904 3905 9522  3904 4005 9522  3905 4006 9522  4005 4006 9522  3905 3906 9523  3905 4006 9523  3906 4007 9523  4006 4007 9523  3906 3907 9524  3906 4007 9524  3907 4008 9524  4007 4008 9524  3907 3908 9525  3907 4008 9525  3908 4009 9525  4008 4009 9525  3908 3909 9526  3908 4009 9526  3909 4010 9526  4009 4010 9526  3909 3910 9527  3909 4010 9527  3910 4011 9527  4010 4011 9527  3910 3911 9528  3910 4011 9528  3911 4012 9528  4011 4012 9528  3911 3912 9529  3911 4012 9529  3912 4013 9529  4012 4013 9529  3912 3913 9530  3912 4013 9530  3913 4014 9530  4013 4014 9530  3913 3914 9531  3913 4014 9531  3914 4015 9531  4014 4015 9531  3914 3915 9532  3914 4015 9532  3915 4016 9532  4015 4016 9532  3915 3916 9533  3915 4016 9533  3916 4017 9533  4016 4017 9533  3916 3917 9534  3916 4017 9534  3917 4018 9534  4017 4018 9534  3917 3918 9535  3917 4018 9535  3918 4019 9535  4018 4019 9535  3918 3919 9536  3918 4019 9536  3919 4020 9536  4019 4020 9536  3919 3920 9537  3919 4020 9537  3920 4021 9537  4020 4021 9537  3920 3921 9538  3920 4021 9538  3921 4022 9538  4021 4022 9538  3921 3922 9539  3921 4022 9539  3922 4023 9539  4022 4023 9539  3922 3923 9540  3922 4023 9540  3923 4024 9540  4023 4024 9540  3923 3924 9541  3923 4024 9541  3924 4025 9541  4024 4025 9541  3924 3925 9542  3924 4025 9542  3925 4026 9542  4025 4026 9542  3925 3926 9543  3925 4026 9543  3926 4027 9543  4026 4027 9543  3926 3927 9544  3926 4027 9544  3927 4028 9544  4027 4028 9544  3927 3928 9545  3927 4028 9545  3928 4029 9545  4028 4029 9545  3928 3929 9546  3928 4029 9546  3929 4030 9546  4029 4030 9546  3929 3930 9547  3929 4030 9547  3930 4031 9547  4030 4031 9547  3930 3931 9548  3930 4031 9548  3931 4032 9548  4031 4032 9548  3931 3932 9549  3931 4032 9549  3932 4033 9549  4032 4033 9549  3932 3933 9550  3932 4033 9550  3933 4034 9550  4033 4034 9550  3933 3934 9551  3933 4034 9551  3934 4035 9551  4034 4035 9551  3934 3935 9552  3934 4035 9552  3935 4036 9552  4035 4036 9552  3935 3936 9553  3935 4036 9553  3936 4037 9553  4036 4037 9553  3936 3937 9554  3936 4037 9554  3937 4038 9554  4037 4038 9554  3937 3938 9555  3937 4038 9555  3938 4039 9555  4038 4039 9555  3939 3940 9556  3939 4040 9556  3940 4041 9556  4040 4041 9556  3940 3941 9557  3940 4041 9557  3941 4042 9557  4041 4042 9557  3941 3942 9558  3941 4042 9558  3942 4043 9558  4042 4043 9558  3942 3943 9559  3942 4043 9559  3943 4044 9559  4043 4044 9559  3943 3944 9560  3943 4044 9560  3944 4045 9560  4044 4045 9560  3944 3945 9561  3944 4045 9561  3945 4046 9561  4045 4046 9561  3945 3946 9562  3945 4046 9562  3946 4047 9562  4046 4047 9562  3946 3947 9563  3946 4047 9563  3947 4048 9563  4047 4048 9563  3947 3948 9564  3947 4048 9564  3948 4049 9564  4048 4049 9564  3948 3949 9565  3948 4049 9565  3949 4050 9565  4049 4050 9565  3949 3950 9566  3949 4050 9566  3950 4051 9566  4050 4051 9566  3950 3951 9567  3950 4051 9567  3951 4052 9567  4051 4052 9567  3951 3952 9568  3951 4052 9568  3952 4053 9568  4052 4053 9568  3952 3953 9569  3952 4053 9569  3953 4054 9569  4053 4054 9569  3953 3954 9570  3953 4054 9570  3954 4055 9570  4054 4055 9570  3954 3955 9571  3954 4055 9571  3955 4056 9571  4055 4056 9571  3955 3956 9572  3955 4056 9572  3956 4057 9572  4056 4057 9572  3956 3957 9573  3956 4057 9573  3957 4058 9573  4057 4058 9573  3957 3958 9574  3957 4058 9574  3958 4059 9574  4058 4059 9574  3958 3959 9575  3958 4059 9575  3959 4060 9575  4059 4060 9575  3959 3960 9576  3959 4060 9576  3960 4061 9576  4060 4061 9576  3960 3961 9577  3960 4061 9577  3961 4062 9577  4061 4062 9577  3961 3962 9578  3961 4062 9578  3962 4063 9578  4062 4063 9578  3962 3963 9579  3962 4063 9579  3963 4064 9579  4063 4064 9579  3963 3964 9580  3963 4064 9580  3964 4065 9580  4064 4065 9580  3964 3965 9581  3964 4065 9581  3965 4066 9581  4065 4066 9581  3965 3966 9582  3965 4066 9582  3966 4067 9582  4066 4067 9582  3966 3967 9583  3966 4067 9583  3967 4068 9583  4067 4068 9583  3967 3968 9584  3967 4068 9584  3968 4069 9584  4068 4069 9584  3968 3969 9585  3968 4069 9585  3969 4070 9585  4069 4070 9585  3969 3970 9586  3969 4070 9586  3970 4071 9586  4070 4071 9586  3970 3971 9587  3970 4071 9587  3971 4072 9587  4071 4072 9587  3971 3972 9588  3971 4072 9588  3972 4073 9588  4072 4073 9588  3972 3973 9589  3972 4073 9589  3973 4074 9589  4073 4074 9589  3973 3974 9590  3973 4074 9590  3974 4075 9590  4074 4075 9590  3974 3975 9591  3974 4075 9591  3975 4076 9591  4075 4076 9591  3975 3976 9592  3975 4076 9592  3976 4077 9592  4076 4077 9592  3976 3977 9593  3976 4077 9593  3977 4078 9593  4077 4078 9593  3977 3978 9594  3977 4078 9594  3978 4079 9594  4078 4079 9594  3978 3979 9595  3978 4079 9595  3979 4080 9595  4079 4080 9595  3979 3980 9596  3979 4080 9596  3980 4081 9596  4080 4081 9596  3980 3981 9597  3980 4081 9597  3981 4082 9597  4081 4082 9597  3981 3982 9598  3981 4082 9598  3982 4083 9598  4082 4083 9598  3982 3983 9599  3982 4083 9599  3983 4084 9599  4083 4084 9599  3983 3984 9600  3983 4084 9600  3984 4085 9600  4084 4085 9600  3984 3985 9601  3984 4085 9601  3985 4086 9601  4085 4086 9601  3985 3986 9602  3985 4086 9602  3986 4087 9602  4086 4087 9602  3986 3987 9603  3986 4087 9603  3987 4088 9603  4087 4088 9603  3987 3988 9604  3987 4088 9604  3988 4089 9604  4088 4089 9604  3988 3989 9605  3988 4089 9605  3989 4090 9605  4089 4090 9605  3989 3990 9606  3989 4090 9606  3990 4091 9606  4090 4091 9606  3990 3991 9607  3990 4091 9607  3991 4092 9607  4091 4092 9607  3991 3992 9608  3991 4092 9608  3992 4093 9608  4092 4093 9608  3992 3993 9609  3992 4093 9609  3993 4094 9609  4093 4094 9609  3993 3994 9610  3993 4094 9610  3994 4095 9610  4094 4095 9610  3994 3995 9611  3994 4095 9611  3995 4096 9611  4095 4096 9611  3995 3996 9612  3995 4096 9612  3996 4097 9612  4096 4097 9612  3996 3997 9613  3996 4097 9613  3997 4098 9613  4097 4098 9613  3997 3998 9614  3997 4098 9614  3998 4099 9614  4098 4099 9614  3998 3999 9615  3998 4099 9615  3999 4100 9615  4099 4100 9615  3999 4000 9616  3999 4100 9616  4000 4101 9616  4100 4101 9616  4000 4001 9617  4000 4101 9617  4001 4102 9617  4101 4102 9617  4001 4002 9618  4001 4102 9618  4002 4103 9618  4102 4103 9618  4002 4003 9619  4002 4103 9619  4003 4104 9619  4103 4104 9619  4003 4004 9620  4003 4104 9620  4004 4105 9620  4104 4105 9620  4004 4005 9621  4004 4105 9621  4005 4106 9621  4105 4106 9621  4005 4006 9622  4005 4106 9622  4006 4107 9622  4106 4107 9622  4006 4007 9623  4006 4107 9623  4007 4108 9623  4107 4108 9623  4007 4008 9624  4007 4108 9624  4008 4109 9624  4108 4109 9624  4008 4009 9625  4008 4109 9625  4009 4110 9625  4109 4110 9625  4009 4010 9626  4009 4110 9626  4010 4111 9626  4110 4111 9626  4010 4011 9627  4010 4111 9627  4011 4112 9627  4111 4112 9627  4011 4012 9628  4011 4112 9628  4012 4113 9628  4112 4113 9628  4012 4013 9629  4012 4113 9629  4013 4114 9629  4113 4114 9629  4013 4014 9630  4013 4114 9630  4014 4115 9630  4114 4115 9630  4014 4015 9631  4014 4115 9631  4015 4116 9631  4115 4116 9631  4015 4016 9632  4015 4116 9632  4016 4117 9632  4116 4117 9632  4016 4017 9633  4016 4117 9633  4017 4118 9633  4117 4118 9633  4017 4018 9634  4017 4118 9634  4018 4119 9634  4118 4119 9634  4018 4019 9635  4018 4119 9635  4019 4120 9635  4119 4120 9635  4019 4020 9636  4019 4120 9636  4020 4121 9636  4120 4121 9636  4020 4021 9637  4020 4121 9637  4021 4122 9637  4121 4122 9637  4021 4022 9638  4021 4122 9638  4022 4123 9638  4122 4123 9638  4022 4023 9639  4022 4123 9639  4023 4124 9639  4123 4124 9639  4023 4024 9640  4023 4124 9640  4024 4125 9640  4124 4125 9640  4024 4025 9641  4024 4125 9641  4025 4126 9641  4125 4126 9641  4025 4026 9642  4025 4126 9642  4026 4127 9642  4126 4127 9642  4026 4027 9643  4026 4127 9643  4027 4128 9643  4127 4128 9643  4027 4028 9644  4027 4128 9644  4028 4129 9644  4128 4129 9644  4028 4029 9645  4028 4129 9645  4029 4130 9645  4129 4130 9645  4029 4030 9646  4029 4130 9646  4030 4131 9646  4130 4131 9646  4030 4031 9647  4030 4131 9647  4031 4132 9647  4131 4132 9647  4031 4032 9648  4031 4132 9648  4032 4133 9648  4132 4133 9648  4032 4033 9649  4032 4133 9649  4033 4134 9649  4133 4134 9649  4033 4034 9650  4033 4134 9650  4034 4135 9650  4134 4135 9650  4034 4035 9651  4034 4135 9651  4035 4136 9651  4135 4136 9651  4035 4036 9652  4035 4136 9652  4036 4137 9652  4136 4137 9652  4036 4037 9653  4036 4137 9653  4037 4138 9653  4137 4138 9653  4037 4038 9654  4037 4138 9654  4038 4139 9654  4138 4139 9654  4038 4039 9655  4038 4139 9655  4039 4140 9655  4139 4140 9655  4040 4041 9656  4040 4141 9656  4041 4142 9656  4141 4142 9656  4041 4042 9657  4041 4142 9657  4042 4143 9657  4142 4143 9657  4042 4043 9658  4042 4143 9658  4043 4144 9658  4143 4144 9658  4043 4044 9659  4043 4144 9659  4044 4145 9659  4144 4145 9659  4044 4045 9660  4044 4145 9660  4045 4146 9660  4145 4146 9660  4045 4046 9661  4045 4146 9661  4046 4147 9661  4146 4147 9661  4046 4047 9662  4046 4147 9662  4047 4148 9662  4147 4148 9662  4047 4048 9663  4047 4148 9663  4048 4149 9663  4148 4149 9663  4048 4049 9664  4048 4149 9664  4049 4150 9664  4149 4150 9664  4049 4050 9665  4049 4150 9665  4050 4151 9665  4150 4151 9665  4050 4051 9666  4050 4151 9666  4051 4152 9666  4151 4152 9666  4051 4052 9667  4051 4152 9667  4052 4153 9667  4152 4153 9667  4052 4053 9668  4052 4153 9668  4053 4154 9668  4153 4154 9668  4053 4054 9669  4053 4154 9669  4054 4155 9669  4154 4155 9669  4054 4055 9670  4054 4155 9670  4055 4156 9670  4155 4156 9670  4055 4056 9671  4055 4156 9671  4056 4157 9671  4156 4157 9671  4056 4057 9672  4056 4157 9672  4057 4158 9672  4157 4158 9672  4057 4058 9673  4057 4158 9673  4058 4159 9673  4158 4159 9673  4058 4059 9674  4058 4159 9674  4059 4160 9674  4159 4160 9674  4059 4060 9675  4059 4160 9675  4060 4161 9675  4160 4161 9675  4060 4061 9676  4060 4161 9676  4061 4162 9676  4161 4162 9676  4061 4062 9677  4061 4162 9677  4062 4163 9677  4162 4163 9677  4062 4063 9678  4062 4163 9678  4063 4164 9678  4163 4164 9678  4063 4064 9679  4063 4164 9679  4064 4165 9679  4164 4165 9679  4064 4065 9680  4064 4165 9680  4065 4166 9680  4165 4166 9680  4065 4066 9681  4065 4166 9681  4066 4167 9681  4166 4167 9681  4066 4067 9682  4066 4167 9682  4067 4168 9682  4167 4168 9682  4067 4068 9683  4067 4168 9683  4068 4169 9683  4168 4169 9683  4068 4069 9684  4068 4169 9684  4069 4170 9684  4169 4170 9684  4069 4070 9685  4069 4170 9685  4070 4171 9685  4170 4171 9685  4070 4071 9686  4070 4171 9686  4071 4172 9686  4171 4172 9686  4071 4072 9687  4071 4172 9687  4072 4173 9687  4172 4173 9687  4072 4073 9688  4072 4173 9688  4073 4174 9688  4173 4174 9688  4073 4074 9689  4073 4174 9689  4074 4175 9689  4174 4175 9689  4074 4075 9690  4074 4175 9690  4075 4176 9690  4175 4176 9690  4075 4076 9691  4075 4176 9691  4076 4177 9691  4176 4177 9691  4076 4077 9692  4076 4177 9692  4077 4178 9692  4177 4178 9692  4077 4078 9693  4077 4178 9693  4078 4179 9693  4178 4179 9693  4078 4079 9694  4078 4179 9694  4079 4180 9694  4179 4180 9694  4079 4080 9695  4079 4180 9695  4080 4181 9695  4180 4181 9695  4080 4081 9696  4080 4181 9696  4081 4182 9696  4181 4182 9696  4081 4082 9697  4081 4182 9697  4082 4183 9697  4182 4183 9697  4082 4083 9698  4082 4183 9698  4083 4184 9698  4183 4184 9698  4083 4084 9699  4083 4184 9699  4084 4185 9699  4184 4185 9699  4084 4085 9700  4084 4185 9700  4085 4186 9700  4185 4186 9700  4085 4086 9701  4085 4186 9701  4086 4187 9701  4186 4187 9701  4086 4087 9702  4086 4187 9702  4087 4188 9702  4187 4188 9702  4087 4088 9703  4087 4188 9703  4088 4189 9703  4188 4189 9703  4088 4089 9704  4088 4189 9704  4089 4190 9704  4189 4190 9704  4089 4090 9705  4089 4190 9705  4090 4191 9705  4190 4191 9705  4090 4091 9706  4090 4191 9706  4091 4192 9706  4191 4192 9706  4091 4092 9707  4091 4192 9707  4092 4193 9707  4192 4193 9707  4092 4093 9708  4092 4193 9708  4093 4194 9708  4193 4194 9708  4093 4094 9709  4093 4194 9709  4094 4195 9709  4194 4195 9709  4094 4095 9710  4094 4195 9710  4095 4196 9710  4195 4196 9710  4095 4096 9711  4095 4196 9711  4096 4197 9711  4196 4197 9711  4096 4097 9712  4096 4197 9712  4097 4198 9712  4197 4198 9712  4097 4098 9713  4097 4198 9713  4098 4199 9713  4198 4199 9713  4098 4099 9714  4098 4199 9714  4099 4200 9714  4199 4200 9714  4099 4100 9715  4099 4200 9715  4100 4201 9715  4200 4201 9715  4100 4101 9716  4100 4201 9716  4101 4202 9716  4201 4202 9716  4101 4102 9717  4101 4202 9717  4102 4203 9717  4202 4203 9717  4102 4103 9718  4102 4203 9718  4103 4204 9718  4203 4204 9718  4103 4104 9719  4103 4204 9719  4104 4205 9719  4204 4205 9719  4104 4105 9720  4104 4205 9720  4105 4206 9720  4205 4206 9720  4105 4106 9721  4105 4206 9721  4106 4207 9721  4206 4207 9721  4106 4107 9722  4106 4207 9722  4107 4208 9722  4207 4208 9722  4107 4108 9723  4107 4208 9723  4108 4209 9723  4208 4209 9723  4108 4109 9724  4108 4209 9724  4109 4210 9724  4209 4210 9724  4109 4110 9725  4109 4210 9725  4110 4211 9725  4210 4211 9725  4110 4111 9726  4110 4211 9726  4111 4212 9726  4211 4212 9726  4111 4112 9727  4111 4212 9727  4112 4213 9727  4212 4213 9727  4112 4113 9728  4112 4213 9728  4113 4214 9728  4213 4214 9728  4113 4114 9729  4113 4214 9729  4114 4215 9729  4214 4215 9729  4114 4115 9730  4114 4215 9730  4115 4216 9730  4215 4216 9730  4115 4116 9731  4115 4216 9731  4116 4217 9731  4216 4217 9731  4116 4117 9732  4116 4217 9732  4117 4218 9732  4217 4218 9732  4117 4118 9733  4117 4218 9733  4118 4219 9733  4218 4219 9733  4118 4119 9734  4118 4219 9734  4119 4220 9734  4219 4220 9734  4119 4120 9735  4119 4220 9735  4120 4221 9735  4220 4221 9735  4120 4121 9736  4120 4221 9736  4121 4222 9736  4221 4222 9736  4121 4122 9737  4121 4222 9737  4122 4223 9737  4222 4223 9737  4122 4123 9738  4122 4223 9738  4123 4224 9738  4223 4224 9738  4123 4124 9739  4123 4224 9739  4124 4225 9739  4224 4225 9739  4124 4125 9740  4124 4225 9740  4125 4226 9740  4225 4226 9740  4125 4126 9741  4125 4226 9741  4126 4227 9741  4226 4227 9741  4126 4127 9742  4126 4227 9742  4127 4228 9742  4227 4228 9742  4127 4128 9743  4127 4228 9743  4128 4229 9743  4228 4229 9743  4128 4129 9744  4128 4229 9744  4129 4230 9744  4229 4230 9744  4129 4130 9745  4129 4230 9745  4130 4231 9745  4230 4231 9745  4130 4131 9746  4130 4231 9746  4131 4232 9746  4231 4232 9746  4131 4132 9747  4131 4232 9747  4132 4233 9747  4232 4233 9747  4132 4133 9748  4132 4233 9748  4133 4234 9748  4233 4234 9748  4133 4134 9749  4133 4234 9749  4134 4235 9749  4234 4235 9749  4134 4135 9750  4134 4235 9750  4135 4236 9750  4235 4236 9750  4135 4136 9751  4135 4236 9751  4136 4237 9751  4236 4237 9751  4136 4137 9752  4136 4237 9752  4137 4238 9752  4237 4238 9752  4137 4138 9753  4137 4238 9753  4138 4239 9753  4238 4239 9753  4138 4139 9754  4138 4239 9754  4139 4240 9754  4239 4240 9754  4139 4140 9755  4139 4240 9755  4140 4241 9755  4240 4241 9755  4141 4142 9756  4141 4242 9756  4142 4243 9756  4242 4243 9756  4142 4143 9757  4142 4243 9757  4143 4244 9757  4243 4244 9757  4143 4144 9758  4143 4244 9758  4144 4245 9758  4244 4245 9758  4144 4145 9759  4144 4245 9759  4145 4246 9759  4245 4246 9759  4145 4146 9760  4145 4246 9760  4146 4247 9760  4246 4247 9760  4146 4147 9761  4146 4247 9761  4147 4248 9761  4247 4248 9761  4147 4148 9762  4147 4248 9762  4148 4249 9762  4248 4249 9762  4148 4149 9763  4148 4249 9763  4149 4250 9763  4249 4250 9763  4149 4150 9764  4149 4250 9764  4150 4251 9764  4250 4251 9764  4150 4151 9765  4150 4251 9765  4151 4252 9765  4251 4252 9765  4151 4152 9766  4151 4252 9766  4152 4253 9766  4252 4253 9766  4152 4153 9767  4152 4253 9767  4153 4254 9767  4253 4254 9767  4153 4154 9768  4153 4254 9768  4154 4255 9768  4254 4255 9768  4154 4155 9769  4154 4255 9769  4155 4256 9769  4255 4256 9769  4155 4156 9770  4155 4256 9770  4156 4257 9770  4256 4257 9770  4156 4157 9771  4156 4257 9771  4157 4258 9771  4257 4258 9771  4157 4158 9772  4157 4258 9772  4158 4259 9772  4258 4259 9772  4158 4159 9773  4158 4259 9773  4159 4260 9773  4259 4260 9773  4159 4160 9774  4159 4260 9774  4160 4261 9774  4260 4261 9774  4160 4161 9775  4160 4261 9775  4161 4262 9775  4261 4262 9775  4161 4162 9776  4161 4262 9776  4162 4263 9776  4262 4263 9776  4162 4163 9777  4162 4263 9777  4163 4264 9777  4263 4264 9777  4163 4164 9778  4163 4264 9778  4164 4265 9778  4264 4265 9778  4164 4165 9779  4164 4265 9779  4165 4266 9779  4265 4266 9779  4165 4166 9780  4165 4266 9780  4166 4267 9780  4266 4267 9780  4166 4167 9781  4166 4267 9781  4167 4268 9781  4267 4268 9781  4167 4168 9782  4167 4268 9782  4168 4269 9782  4268 4269 9782  4168 4169 9783  4168 4269 9783  4169 4270 9783  4269 4270 9783  4169 4170 9784  4169 4270 9784  4170 4271 9784  4270 4271 9784  4170 4171 9785  4170 4271 9785  4171 4272 9785  4271 4272 9785  4171 4172 9786  4171 4272 9786  4172 4273 9786  4272 4273 9786  4172 4173 9787  4172 4273 9787  4173 4274 9787  4273 4274 9787  4173 4174 9788  4173 4274 9788  4174 4275 9788  4274 4275 9788  4174 4175 9789  4174 4275 9789  4175 4276 9789  4275 4276 9789  4175 4176 9790  4175 4276 9790  4176 4277 9790  4276 4277 9790  4176 4177 9791  4176 4277 9791  4177 4278 9791  4277 4278 9791  4177 4178 9792  4177 4278 9792  4178 4279 9792  4278 4279 9792  4178 4179 9793  4178 4279 9793  4179 4280 9793  4279 4280 9793  4179 4180 9794  4179 4280 9794  4180 4281 9794  4280 4281 9794  4180 4181 9795  4180 4281 9795  4181 4282 9795  4281 4282 9795  4181 4182 9796  4181 4282 9796  4182 4283 9796  4282 4283 9796  4182 4183 9797  4182 4283 9797  4183 4284 9797  4283 4284 9797  4183 4184 9798  4183 4284 9798  4184 4285 9798  4284 4285 9798  4184 4185 9799  4184 4285 9799  4185 4286 9799  4285 4286 9799  4185 4186 9800  4185 4286 9800  4186 4287 9800  4286 4287 9800  4186 4187 9801  4186 4287 9801  4187 4288 9801  4287 4288 9801  4187 4188 9802  4187 4288 9802  4188 4289 9802  4288 4289 9802  4188 4189 9803  4188 4289 9803  4189 4290 9803  4289 4290 9803  4189 4190 9804  4189 4290 9804  4190 4291 9804  4290 4291 9804  4190 4191 9805  4190 4291 9805  4191 4292 9805  4291 4292 9805  4191 4192 9806  4191 4292 9806  4192 4293 9806  4292 4293 9806  4192 4193 9807  4192 4293 9807  4193 4294 9807  4293 4294 9807  4193 4194 9808  4193 4294 9808  4194 4295 9808  4294 4295 9808  4194 4195 9809  4194 4295 9809  4195 4296 9809  4295 4296 9809  4195 4196 9810  4195 4296 9810  4196 4297 9810  4296 4297 9810  4196 4197 9811  4196 4297 9811  4197 4298 9811  4297 4298 9811  4197 4198 9812  4197 4298 9812  4198 4299 9812  4298 4299 9812  4198 4199 9813  4198 4299 9813  4199 4300 9813  4299 4300 9813  4199 4200 9814  4199 4300 9814  4200 4301 9814  4300 4301 9814  4200 4201 9815  4200 4301 9815  4201 4302 9815  4301 4302 9815  4201 4202 9816  4201 4302 9816  4202 4303 9816  4302 4303 9816  4202 4203 9817  4202 4303 9817  4203 4304 9817  4303 4304 9817  4203 4204 9818  4203 4304 9818  4204 4305 9818  4304 4305 9818  4204 4205 9819  4204 4305 9819  4205 4306 9819  4305 4306 9819  4205 4206 9820  4205 4306 9820  4206 4307 9820  4306 4307 9820  4206 4207 9821  4206 4307 9821  4207 4308 9821  4307 4308 9821  4207 4208 9822  4207 4308 9822  4208 4309 9822  4308 4309 9822  4208 4209 9823  4208 4309 9823  4209 4310 9823  4309 4310 9823  4209 4210 9824  4209 4310 9824  4210 4311 9824  4310 4311 9824  4210 4211 9825  4210 4311 9825  4211 4312 9825  4311 4312 9825  4211 4212 9826  4211 4312 9826  4212 4313 9826  4312 4313 9826  4212 4213 9827  4212 4313 9827  4213 4314 9827  4313 4314 9827  4213 4214 9828  4213 4314 9828  4214 4315 9828  4314 4315 9828  4214 4215 9829  4214 4315 9829  4215 4316 9829  4315 4316 9829  4215 4216 9830  4215 4316 9830  4216 4317 9830  4316 4317 9830  4216 4217 9831  4216 4317 9831  4217 4318 9831  4317 4318 9831  4217 4218 9832  4217 4318 9832  4218 4319 9832  4318 4319 9832  4218 4219 9833  4218 4319 9833  4219 4320 9833  4319 4320 9833  4219 4220 9834  4219 4320 9834  4220 4321 9834  4320 4321 9834  4220 4221 9835  4220 4321 9835  4221 4322 9835  4321 4322 9835  4221 4222 9836  4221 4322 9836  4222 4323 9836  4322 4323 9836  4222 4223 9837  4222 4323 9837  4223 4324 9837  4323 4324 9837  4223 4224 9838  4223 4324 9838  4224 4325 9838  4324 4325 9838  4224 4225 9839  4224 4325 9839  4225 4326 9839  4325 4326 9839  4225 4226 9840  4225 4326 9840  4226 4327 9840  4326 4327 9840  4226 4227 9841  4226 4327 9841  4227 4328 9841  4327 4328 9841  4227 4228 9842  4227 4328 9842  4228 4329 9842  4328 4329 9842  4228 4229 9843  4228 4329 9843  4229 4330 9843  4329 4330 9843  4229 4230 9844  4229 4330 9844  4230 4331 9844  4330 4331 9844  4230 4231 9845  4230 4331 9845  4231 4332 9845  4331 4332 9845  4231 4232 9846  4231 4332 9846  4232 4333 9846  4332 4333 9846  4232 4233 9847  4232 4333 9847  4233 4334 9847  4333 4334 9847  4233 4234 9848  4233 4334 9848  4234 4335 9848  4334 4335 9848  4234 4235 9849  4234 4335 9849  4235 4336 9849  4335 4336 9849  4235 4236 9850  4235 4336 9850  4236 4337 9850  4336 4337 9850  4236 4237 9851  4236 4337 9851  4237 4338 9851  4337 4338 9851  4237 4238 9852  4237 4338 9852  4238 4339 9852  4338 4339 9852  4238 4239 9853  4238 4339 9853  4239 4340 9853  4339 4340 9853  4239 4240 9854  4239 4340 9854  4240 4341 9854  4340 4341 9854  4240 4241 9855  4240 4341 9855  4241 4342 9855  4341 4342 9855  4242 4243 9856  4242 4343 9856  4243 4344 9856  4343 4344 9856  4243 4244 9857  4243 4344 9857  4244 4345 9857  4344 4345 9857  4244 4245 9858  4244 4345 9858  4245 4346 9858  4345 4346 9858  4245 4246 9859  4245 4346 9859  4246 4347 9859  4346 4347 9859  4246 4247 9860  4246 4347 9860  4247 4348 9860  4347 4348 9860  4247 4248 9861  4247 4348 9861  4248 4349 9861  4348 4349 9861  4248 4249 9862  4248 4349 9862  4249 4350 9862  4349 4350 9862  4249 4250 9863  4249 4350 9863  4250 4351 9863  4350 4351 9863  4250 4251 9864  4250 4351 9864  4251 4352 9864  4351 4352 9864  4251 4252 9865  4251 4352 9865  4252 4353 9865  4352 4353 9865  4252 4253 9866  4252 4353 9866  4253 4354 9866  4353 4354 9866  4253 4254 9867  4253 4354 9867  4254 4355 9867  4354 4355 9867  4254 4255 9868  4254 4355 9868  4255 4356 9868  4355 4356 9868  4255 4256 9869  4255 4356 9869  4256 4357 9869  4356 4357 9869  4256 4257 9870  4256 4357 9870  4257 4358 9870  4357 4358 9870  4257 4258 9871  4257 4358 9871  4258 4359 9871  4358 4359 9871  4258 4259 9872  4258 4359 9872  4259 4360 9872  4359 4360 9872  4259 4260 9873  4259 4360 9873  4260 4361 9873  4360 4361 9873  4260 4261 9874  4260 4361 9874  4261 4362 9874  4361 4362 9874  4261 4262 9875  4261 4362 9875  4262 4363 9875  4362 4363 9875  4262 4263 9876  4262 4363 9876  4263 4364 9876  4363 4364 9876  4263 4264 9877  4263 4364 9877  4264 4365 9877  4364 4365 9877  4264 4265 9878  4264 4365 9878  4265 4366 9878  4365 4366 9878  4265 4266 9879  4265 4366 9879  4266 4367 9879  4366 4367 9879  4266 4267 9880  4266 4367 9880  4267 4368 9880  4367 4368 9880  4267 4268 9881  4267 4368 9881  4268 4369 9881  4368 4369 9881  4268 4269 9882  4268 4369 9882  4269 4370 9882  4369 4370 9882  4269 4270 9883  4269 4370 9883  4270 4371 9883  4370 4371 9883  4270 4271 9884  4270 4371 9884  4271 4372 9884  4371 4372 9884  4271 4272 9885  4271 4372 9885  4272 4373 9885  4372 4373 9885  4272 4273 9886  4272 4373 9886  4273 4374 9886  4373 4374 9886  4273 4274 9887  4273 4374 9887  4274 4375 9887  4374 4375 9887  4274 4275 9888  4274 4375 9888  4275 4376 9888  4375 4376 9888  4275 4276 9889  4275 4376 9889  4276 4377 9889  4376 4377 9889  4276 4277 9890  4276 4377 9890  4277 4378 9890  4377 4378 9890  4277 4278 9891  4277 4378 9891  4278 4379 9891  4378 4379 9891  4278 4279 9892  4278 4379 9892  4279 4380 9892  4379 4380 9892  4279 4280 9893  4279 4380 9893  4280 4381 9893  4380 4381 9893  4280 4281 9894  4280 4381 9894  4281 4382 9894  4381 4382 9894  4281 4282 9895  4281 4382 9895  4282 4383 9895  4382 4383 9895  4282 4283 9896  4282 4383 9896  4283 4384 9896  4383 4384 9896  4283 4284 9897  4283 4384 9897  4284 4385 9897  4384 4385 9897  4284 4285 9898  4284 4385 9898  4285 4386 9898  4385 4386 9898  4285 4286 9899  4285 4386 9899  4286 4387 9899  4386 4387 9899  4286 4287 9900  4286 4387 9900  4287 4388 9900  4387 4388 9900  4287 4288 9901  4287 4388 9901  4288 4389 9901  4388 4389 9901  4288 4289 9902  4288 4389 9902  4289 4390 9902  4389 4390 9902  4289 4290 9903  4289 4390 9903  4290 4391 9903  4390 4391 9903  4290 4291 9904  4290 4391 9904  4291 4392 9904  4391 4392 9904  4291 4292 9905  4291 4392 9905  4292 4393 9905  4392 4393 9905  4292 4293 9906  4292 4393 9906  4293 4394 9906  4393 4394 9906  4293 4294 9907  4293 4394 9907  4294 4395 9907  4394 4395 9907  4294 4295 9908  4294 4395 9908  4295 4396 9908  4395 4396 9908  4295 4296 9909  4295 4396 9909  4296 4397 9909  4396 4397 9909  4296 4297 9910  4296 4397 9910  4297 4398 9910  4397 4398 9910  4297 4298 9911  4297 4398 9911  4298 4399 9911  4398 4399 9911  4298 4299 9912  4298 4399 9912  4299 4400 9912  4399 4400 9912  4299 4300 9913  4299 4400 9913  4300 4401 9913  4400 4401 9913  4300 4301 9914  4300 4401 9914  4301 4402 9914  4401 4402 9914  4301 4302 9915  4301 4402 9915  4302 4403 9915  4402 4403 9915  4302 4303 9916  4302 4403 9916  4303 4404 9916  4403 4404 9916  4303 4304 9917  4303 4404 9917  4304 4405 9917  4404 4405 9917  4304 4305 9918  4304 4405 9918  4305 4406 9918  4405 4406 9918  4305 4306 9919  4305 4406 9919  4306 4407 9919  4406 4407 9919  4306 4307 9920  4306 4407 9920  4307 4408 9920  4407 4408 9920  4307 4308 9921  4307 4408 9921  4308 4409 9921  4408 4409 9921  4308 4309 9922  4308 4409 9922  4309 4410 9922  4409 4410 9922  4309 4310 9923  4309 4410 9923  4310 4411 9923  4410 4411 9923  4310 4311 9924  4310 4411 9924  4311 4412 9924  4411 4412 9924  4311 4312 9925  4311 4412 9925  4312 4413 9925  4412 4413 9925  4312 4313 9926  4312 4413 9926  4313 4414 9926  4413 4414 9926  4313 4314 9927  4313 4414 9927  4314 4415 9927  4414 4415 9927  4314 4315 9928  4314 4415 9928  4315 4416 9928  4415 4416 9928  4315 4316 9929  4315 4416 9929  4316 4417 9929  4416 4417 9929  4316 4317 9930  4316 4417 9930  4317 4418 9930  4417 4418 9930  4317 4318 9931  4317 4418 9931  4318 4419 9931  4418 4419 9931  4318 4319 9932  4318 4419 9932  4319 4420 9932  4419 4420 9932  4319 4320 9933  4319 4420 9933  4320 4421 9933  4420 4421 9933  4320 4321 9934  4320 4421 9934  4321 4422 9934  4421 4422 9934  4321 4322 9935  4321 4422 9935  4322 4423 9935  4422 4423 9935  4322 4323 9936  4322 4423 9936  4323 4424 9936  4423 4424 9936  4323 4324 9937  4323 4424 9937  4324 4425 9937  4424 4425 9937  4324 4325 9938  4324 4425 9938  4325 4426 9938  4425 4426 9938  4325 4326 9939  4325 4426 9939  4326 4427 9939  4426 4427 9939  4326 4327 9940  4326 4427 9940  4327 4428 9940  4427 4428 9940  4327 4328 9941  4327 4428 9941  4328 4429 9941  4428 4429 9941  4328 4329 9942  4328 4429 9942  4329 4430 9942  4429 4430 9942  4329 4330 9943  4329 4430 9943  4330 4431 9943  4430 4431 9943  4330 4331 9944  4330 4431 9944  4331 4432 9944  4431 4432 9944  4331 4332 9945  4331 4432 9945  4332 4433 9945  4432 4433 9945  4332 4333 9946  4332 4433 9946  4333 4434 9946  4433 4434 9946  4333 4334 9947  4333 4434 9947  4334 4435 9947  4434 4435 9947  4334 4335 9948  4334 4435 9948  4335 4436 9948  4435 4436 9948  4335 4336 9949  4335 4436 9949  4336 4437 9949  4436 4437 9949  4336 4337 9950  4336 4437 9950  4337 4438 9950  4437 4438 9950  4337 4338 9951  4337 4438 9951  4338 4439 9951  4438 4439 9951  4338 4339 9952  4338 4439 9952  4339 4440 9952  4439 4440 9952  4339 4340 9953  4339 4440 9953  4340 4441 9953  4440 4441 9953  4340 4341 9954  4340 4441 9954  4341 4442 9954  4441 4442 9954  4341 4342 9955  4341 4442 9955  4342 4443 9955  4442 4443 9955  4343 4344 9956  4343 4444 9956  4344 4445 9956  4444 4445 9956  4344 4345 9957  4344 4445 9957  4345 4446 9957  4445 4446 9957  4345 4346 9958  4345 4446 9958  4346 4447 9958  4446 4447 9958  4346 4347 9959  4346 4447 9959  4347 4448 9959  4447 4448 9959  4347 4348 9960  4347 4448 9960  4348 4449 9960  4448 4449 9960  4348 4349 9961  4348 4449 9961  4349 4450 9961  4449 4450 9961  4349 4350 9962  4349 4450 9962  4350 4451 9962  4450 4451 9962  4350 4351 9963  4350 4451 9963  4351 4452 9963  4451 4452 9963  4351 4352 9964  4351 4452 9964  4352 4453 9964  4452 4453 9964  4352 4353 9965  4352 4453 9965  4353 4454 9965  4453 4454 9965  4353 4354 9966  4353 4454 9966  4354 4455 9966  4454 4455 9966  4354 4355 9967  4354 4455 9967  4355 4456 9967  4455 4456 9967  4355 4356 9968  4355 4456 9968  4356 4457 9968  4456 4457 9968  4356 4357 9969  4356 4457 9969  4357 4458 9969  4457 4458 9969  4357 4358 9970  4357 4458 9970  4358 4459 9970  4458 4459 9970  4358 4359 9971  4358 4459 9971  4359 4460 9971  4459 4460 9971  4359 4360 9972  4359 4460 9972  4360 4461 9972  4460 4461 9972  4360 4361 9973  4360 4461 9973  4361 4462 9973  4461 4462 9973  4361 4362 9974  4361 4462 9974  4362 4463 9974  4462 4463 9974  4362 4363 9975  4362 4463 9975  4363 4464 9975  4463 4464 9975  4363 4364 9976  4363 4464 9976  4364 4465 9976  4464 4465 9976  4364 4365 9977  4364 4465 9977  4365 4466 9977  4465 4466 9977  4365 4366 9978  4365 4466 9978  4366 4467 9978  4466 4467 9978  4366 4367 9979  4366 4467 9979  4367 4468 9979  4467 4468 9979  4367 4368 9980  4367 4468 9980  4368 4469 9980  4468 4469 9980  4368 4369 9981  4368 4469 9981  4369 4470 9981  4469 4470 9981  4369 4370 9982  4369 4470 9982  4370 4471 9982  4470 4471 9982  4370 4371 9983  4370 4471 9983  4371 4472 9983  4471 4472 9983  4371 4372 9984  4371 4472 9984  4372 4473 9984  4472 4473 9984  4372 4373 9985  4372 4473 9985  4373 4474 9985  4473 4474 9985  4373 4374 9986  4373 4474 9986  4374 4475 9986  4474 4475 9986  4374 4375 9987  4374 4475 9987  4375 4476 9987  4475 4476 9987  4375 4376 9988  4375 4476 9988  4376 4477 9988  4476 4477 9988  4376 4377 9989  4376 4477 9989  4377 4478 9989  4477 4478 9989  4377 4378 9990  4377 4478 9990  4378 4479 9990  4478 4479 9990  4378 4379 9991  4378 4479 9991  4379 4480 9991  4479 4480 9991  4379 4380 9992  4379 4480 9992  4380 4481 9992  4480 4481 9992  4380 4381 9993  4380 4481 9993  4381 4482 9993  4481 4482 9993  4381 4382 9994  4381 4482 9994  4382 4483 9994  4482 4483 9994  4382 4383 9995  4382 4483 9995  4383 4484 9995  4483 4484 9995  4383 4384 9996  4383 4484 9996  4384 4485 9996  4484 4485 9996  4384 4385 9997  4384 4485 9997  4385 4486 9997  4485 4486 9997  4385 4386 9998  4385 4486 9998  4386 4487 9998  4486 4487 9998  4386 4387 9999  4386 4487 9999  4387 4488 9999  4487 4488 9999  4387 4388 10000  4387 4488 10000  4388 4489 10000  4488 4489 10000  4388 4389 10001  4388 4489 10001  4389 4490 10001  4489 4490 10001  4389 4390 10002  4389 4490 10002  4390 4491 10002  4490 4491 10002  4390 4391 10003  4390 4491 10003  4391 4492 10003  4491 4492 10003  4391 4392 10004  4391 4492 10004  4392 4493 10004  4492 4493 10004  4392 4393 10005  4392 4493 10005  4393 4494 10005  4493 4494 10005  4393 4394 10006  4393 4494 10006  4394 4495 10006  4494 4495 10006  4394 4395 10007  4394 4495 10007  4395 4496 10007  4495 4496 10007  4395 4396 10008  4395 4496 10008  4396 4497 10008  4496 4497 10008  4396 4397 10009  4396 4497 10009  4397 4498 10009  4497 4498 10009  4397 4398 10010  4397 4498 10010  4398 4499 10010  4498 4499 10010  4398 4399 10011  4398 4499 10011  4399 4500 10011  4499 4500 10011  4399 4400 10012  4399 4500 10012  4400 4501 10012  4500 4501 10012  4400 4401 10013  4400 4501 10013  4401 4502 10013  4501 4502 10013  4401 4402 10014  4401 4502 10014  4402 4503 10014  4502 4503 10014  4402 4403 10015  4402 4503 10015  4403 4504 10015  4503 4504 10015  4403 4404 10016  4403 4504 10016  4404 4505 10016  4504 4505 10016  4404 4405 10017  4404 4505 10017  4405 4506 10017  4505 4506 10017  4405 4406 10018  4405 4506 10018  4406 4507 10018  4506 4507 10018  4406 4407 10019  4406 4507 10019  4407 4508 10019  4507 4508 10019  4407 4408 10020  4407 4508 10020  4408 4509 10020  4508 4509 10020  4408 4409 10021  4408 4509 10021  4409 4510 10021  4509 4510 10021  4409 4410 10022  4409 4510 10022  4410 4511 10022  4510 4511 10022  4410 4411 10023  4410 4511 10023  4411 4512 10023  4511 4512 10023  4411 4412 10024  4411 4512 10024  4412 4513 10024  4512 4513 10024  4412 4413 10025  4412 4513 10025  4413 4514 10025  4513 4514 10025  4413 4414 10026  4413 4514 10026  4414 4515 10026  4514 4515 10026  4414 4415 10027  4414 4515 10027  4415 4516 10027  4515 4516 10027  4415 4416 10028  4415 4516 10028  4416 4517 10028  4516 4517 10028  4416 4417 10029  4416 4517 10029  4417 4518 10029  4517 4518 10029  4417 4418 10030  4417 4518 10030  4418 4519 10030  4518 4519 10030  4418 4419 10031  4418 4519 10031  4419 4520 10031  4519 4520 10031  4419 4420 10032  4419 4520 10032  4420 4521 10032  4520 4521 10032  4420 4421 10033  4420 4521 10033  4421 4522 10033  4521 4522 10033  4421 4422 10034  4421 4522 10034  4422 4523 10034  4522 4523 10034  4422 4423 10035  4422 4523 10035  4423 4524 10035  4523 4524 10035  4423 4424 10036  4423 4524 10036  4424 4525 10036  4524 4525 10036  4424 4425 10037  4424 4525 10037  4425 4526 10037  4525 4526 10037  4425 4426 10038  4425 4526 10038  4426 4527 10038  4526 4527 10038  4426 4427 10039  4426 4527 10039  4427 4528 10039  4527 4528 10039  4427 4428 10040  4427 4528 10040  4428 4529 10040  4528 4529 10040  4428 4429 10041  4428 4529 10041  4429 4530 10041  4529 4530 10041  4429 4430 10042  4429 4530 10042  4430 4531 10042  4530 4531 10042  4430 4431 10043  4430 4531 10043  4431 4532 10043  4531 4532 10043  4431 4432 10044  4431 4532 10044  4432 4533 10044  4532 4533 10044  4432 4433 10045  4432 4533 10045  4433 4534 10045  4533 4534 10045  4433 4434 10046  4433 4534 10046  4434 4535 10046  4534 4535 10046  4434 4435 10047  4434 4535 10047  4435 4536 10047  4535 4536 10047  4435 4436 10048  4435 4536 10048  4436 4537 10048  4536 4537 10048  4436 4437 10049  4436 4537 10049  4437 4538 10049  4537 4538 10049  4437 4438 10050  4437 4538 10050  4438 4539 10050  4538 4539 10050  4438 4439 10051  4438 4539 10051  4439 4540 10051  4539 4540 10051  4439 4440 10052  4439 4540 10052  4440 4541 10052  4540 4541 10052  4440 4441 10053  4440 4541 10053  4441 4542 10053  4541 4542 10053  4441 4442 10054  4441 4542 10054  4442 4543 10054  4542 4543 10054  4442 4443 10055  4442 4543 10055  4443 4544 10055  4543 4544 10055  4444 4445 10056  4444 4545 10056  4445 4546 10056  4545 4546 10056  4445 4446 10057  4445 4546 10057  4446 4547 10057  4546 4547 10057  4446 4447 10058  4446 4547 10058  4447 4548 10058  4547 4548 10058  4447 4448 10059  4447 4548 10059  4448 4549 10059  4548 4549 10059  4448 4449 10060  4448 4549 10060  4449 4550 10060  4549 4550 10060  4449 4450 10061  4449 4550 10061  4450 4551 10061  4550 4551 10061  4450 4451 10062  4450 4551 10062  4451 4552 10062  4551 4552 10062  4451 4452 10063  4451 4552 10063  4452 4553 10063  4552 4553 10063  4452 4453 10064  4452 4553 10064  4453 4554 10064  4553 4554 10064  4453 4454 10065  4453 4554 10065  4454 4555 10065  4554 4555 10065  4454 4455 10066  4454 4555 10066  4455 4556 10066  4555 4556 10066  4455 4456 10067  4455 4556 10067  4456 4557 10067  4556 4557 10067  4456 4457 10068  4456 4557 10068  4457 4558 10068  4557 4558 10068  4457 4458 10069  4457 4558 10069  4458 4559 10069  4558 4559 10069  4458 4459 10070  4458 4559 10070  4459 4560 10070  4559 4560 10070  4459 4460 10071  4459 4560 10071  4460 4561 10071  4560 4561 10071  4460 4461 10072  4460 4561 10072  4461 4562 10072  4561 4562 10072  4461 4462 10073  4461 4562 10073  4462 4563 10073  4562 4563 10073  4462 4463 10074  4462 4563 10074  4463 4564 10074  4563 4564 10074  4463 4464 10075  4463 4564 10075  4464 4565 10075  4564 4565 10075  4464 4465 10076  4464 4565 10076  4465 4566 10076  4565 4566 10076  4465 4466 10077  4465 4566 10077  4466 4567 10077  4566 4567 10077  4466 4467 10078  4466 4567 10078  4467 4568 10078  4567 4568 10078  4467 4468 10079  4467 4568 10079  4468 4569 10079  4568 4569 10079  4468 4469 10080  4468 4569 10080  4469 4570 10080  4569 4570 10080  4469 4470 10081  4469 4570 10081  4470 4571 10081  4570 4571 10081  4470 4471 10082  4470 4571 10082  4471 4572 10082  4571 4572 10082  4471 4472 10083  4471 4572 10083  4472 4573 10083  4572 4573 10083  4472 4473 10084  4472 4573 10084  4473 4574 10084  4573 4574 10084  4473 4474 10085  4473 4574 10085  4474 4575 10085  4574 4575 10085  4474 4475 10086  4474 4575 10086  4475 4576 10086  4575 4576 10086  4475 4476 10087  4475 4576 10087  4476 4577 10087  4576 4577 10087  4476 4477 10088  4476 4577 10088  4477 4578 10088  4577 4578 10088  4477 4478 10089  4477 4578 10089  4478 4579 10089  4578 4579 10089  4478 4479 10090  4478 4579 10090  4479 4580 10090  4579 4580 10090  4479 4480 10091  4479 4580 10091  4480 4581 10091  4580 4581 10091  4480 4481 10092  4480 4581 10092  4481 4582 10092  4581 4582 10092  4481 4482 10093  4481 4582 10093  4482 4583 10093  4582 4583 10093  4482 4483 10094  4482 4583 10094  4483 4584 10094  4583 4584 10094  4483 4484 10095  4483 4584 10095  4484 4585 10095  4584 4585 10095  4484 4485 10096  4484 4585 10096  4485 4586 10096  4585 4586 10096  4485 4486 10097  4485 4586 10097  4486 4587 10097  4586 4587 10097  4486 4487 10098  4486 4587 10098  4487 4588 10098  4587 4588 10098  4487 4488 10099  4487 4588 10099  4488 4589 10099  4588 4589 10099  4488 4489 10100  4488 4589 10100  4489 4590 10100  4589 4590 10100  4489 4490 10101  4489 4590 10101  4490 4591 10101  4590 4591 10101  4490 4491 10102  4490 4591 10102  4491 4592 10102  4591 4592 10102  4491 4492 10103  4491 4592 10103  4492 4593 10103  4592 4593 10103  4492 4493 10104  4492 4593 10104  4493 4594 10104  4593 4594 10104  4493 4494 10105  4493 4594 10105  4494 4595 10105  4594 4595 10105  4494 4495 10106  4494 4595 10106  4495 4596 10106  4595 4596 10106  4495 4496 10107  4495 4596 10107  4496 4597 10107  4596 4597 10107  4496 4497 10108  4496 4597 10108  4497 4598 10108  4597 4598 10108  4497 4498 10109  4497 4598 10109  4498 4599 10109  4598 4599 10109  4498 4499 10110  4498 4599 10110  4499 4600 10110  4599 4600 10110  4499 4500 10111  4499 4600 10111  4500 4601 10111  4600 4601 10111  4500 4501 10112  4500 4601 10112  4501 4602 10112  4601 4602 10112  4501 4502 10113  4501 4602 10113  4502 4603 10113  4602 4603 10113  4502 4503 10114  4502 4603 10114  4503 4604 10114  4603 4604 10114  4503 4504 10115  4503 4604 10115  4504 4605 10115  4604 4605 10115  4504 4505 10116  4504 4605 10116  4505 4606 10116  4605 4606 10116  4505 4506 10117  4505 4606 10117  4506 4607 10117  4606 4607 10117  4506 4507 10118  4506 4607 10118  4507 4608 10118  4607 4608 10118  4507 4508 10119  4507 4608 10119  4508 4609 10119  4608 4609 10119  4508 4509 10120  4508 4609 10120  4509 4610 10120  4609 4610 10120  4509 4510 10121  4509 4610 10121  4510 4611 10121  4610 4611 10121  4510 4511 10122  4510 4611 10122  4511 4612 10122  4611 4612 10122  4511 4512 10123  4511 4612 10123  4512 4613 10123  4612 4613 10123  4512 4513 10124  4512 4613 10124  4513 4614 10124  4613 4614 10124  4513 4514 10125  4513 4614 10125  4514 4615 10125  4614 4615 10125  4514 4515 10126  4514 4615 10126  4515 4616 10126  4615 4616 10126  4515 4516 10127  4515 4616 10127  4516 4617 10127  4616 4617 10127  4516 4517 10128  4516 4617 10128  4517 4618 10128  4617 4618 10128  4517 4518 10129  4517 4618 10129  4518 4619 10129  4618 4619 10129  4518 4519 10130  4518 4619 10130  4519 4620 10130  4619 4620 10130  4519 4520 10131  4519 4620 10131  4520 4621 10131  4620 4621 10131  4520 4521 10132  4520 4621 10132  4521 4622 10132  4621 4622 10132  4521 4522 10133  4521 4622 10133  4522 4623 10133  4622 4623 10133  4522 4523 10134  4522 4623 10134  4523 4624 10134  4623 4624 10134  4523 4524 10135  4523 4624 10135  4524 4625 10135  4624 4625 10135  4524 4525 10136  4524 4625 10136  4525 4626 10136  4625 4626 10136  4525 4526 10137  4525 4626 10137  4526 4627 10137  4626 4627 10137  4526 4527 10138  4526 4627 10138  4527 4628 10138  4627 4628 10138  4527 4528 10139  4527 4628 10139  4528 4629 10139  4628 4629 10139  4528 4529 10140  4528 4629 10140  4529 4630 10140  4629 4630 10140  4529 4530 10141  4529 4630 10141  4530 4631 10141  4630 4631 10141  4530 4531 10142  4530 4631 10142  4531 4632 10142  4631 4632 10142  4531 4532 10143  4531 4632 10143  4532 4633 10143  4632 4633 10143  4532 4533 10144  4532 4633 10144  4533 4634 10144  4633 4634 10144  4533 4534 10145  4533 4634 10145  4534 4635 10145  4634 4635 10145  4534 4535 10146  4534 4635 10146  4535 4636 10146  4635 4636 10146  4535 4536 10147  4535 4636 10147  4536 4637 10147  4636 4637 10147  4536 4537 10148  4536 4637 10148  4537 4638 10148  4637 4638 10148  4537 4538 10149  4537 4638 10149  4538 4639 10149  4638 4639 10149  4538 4539 10150  4538 4639 10150  4539 4640 10150  4639 4640 10150  4539 4540 10151  4539 4640 10151  4540 4641 10151  4640 4641 10151  4540 4541 10152  4540 4641 10152  4541 4642 10152  4641 4642 10152  4541 4542 10153  4541 4642 10153  4542 4643 10153  4642 4643 10153  4542 4543 10154  4542 4643 10154  4543 4644 10154  4643 4644 10154  4543 4544 10155  4543 4644 10155  4544 4645 10155  4644 4645 10155  4545 4546 10156  4545 4646 10156  4546 4647 10156  4646 4647 10156  4546 4547 10157  4546 4647 10157  4547 4648 10157  4647 4648 10157  4547 4548 10158  4547 4648 10158  4548 4649 10158  4648 4649 10158  4548 4549 10159  4548 4649 10159  4549 4650 10159  4649 4650 10159  4549 4550 10160  4549 4650 10160  4550 4651 10160  4650 4651 10160  4550 4551 10161  4550 4651 10161  4551 4652 10161  4651 4652 10161  4551 4552 10162  4551 4652 10162  4552 4653 10162  4652 4653 10162  4552 4553 10163  4552 4653 10163  4553 4654 10163  4653 4654 10163  4553 4554 10164  4553 4654 10164  4554 4655 10164  4654 4655 10164  4554 4555 10165  4554 4655 10165  4555 4656 10165  4655 4656 10165  4555 4556 10166  4555 4656 10166  4556 4657 10166  4656 4657 10166  4556 4557 10167  4556 4657 10167  4557 4658 10167  4657 4658 10167  4557 4558 10168  4557 4658 10168  4558 4659 10168  4658 4659 10168  4558 4559 10169  4558 4659 10169  4559 4660 10169  4659 4660 10169  4559 4560 10170  4559 4660 10170  4560 4661 10170  4660 4661 10170  4560 4561 10171  4560 4661 10171  4561 4662 10171  4661 4662 10171  4561 4562 10172  4561 4662 10172  4562 4663 10172  4662 4663 10172  4562 4563 10173  4562 4663 10173  4563 4664 10173  4663 4664 10173  4563 4564 10174  4563 4664 10174  4564 4665 10174  4664 4665 10174  4564 4565 10175  4564 4665 10175  4565 4666 10175  4665 4666 10175  4565 4566 10176  4565 4666 10176  4566 4667 10176  4666 4667 10176  4566 4567 10177  4566 4667 10177  4567 4668 10177  4667 4668 10177  4567 4568 10178  4567 4668 10178  4568 4669 10178  4668 4669 10178  4568 4569 10179  4568 4669 10179  4569 4670 10179  4669 4670 10179  4569 4570 10180  4569 4670 10180  4570 4671 10180  4670 4671 10180  4570 4571 10181  4570 4671 10181  4571 4672 10181  4671 4672 10181  4571 4572 10182  4571 4672 10182  4572 4673 10182  4672 4673 10182  4572 4573 10183  4572 4673 10183  4573 4674 10183  4673 4674 10183  4573 4574 10184  4573 4674 10184  4574 4675 10184  4674 4675 10184  4574 4575 10185  4574 4675 10185  4575 4676 10185  4675 4676 10185  4575 4576 10186  4575 4676 10186  4576 4677 10186  4676 4677 10186  4576 4577 10187  4576 4677 10187  4577 4678 10187  4677 4678 10187  4577 4578 10188  4577 4678 10188  4578 4679 10188  4678 4679 10188  4578 4579 10189  4578 4679 10189  4579 4680 10189  4679 4680 10189  4579 4580 10190  4579 4680 10190  4580 4681 10190  4680 4681 10190  4580 4581 10191  4580 4681 10191  4581 4682 10191  4681 4682 10191  4581 4582 10192  4581 4682 10192  4582 4683 10192  4682 4683 10192  4582 4583 10193  4582 4683 10193  4583 4684 10193  4683 4684 10193  4583 4584 10194  4583 4684 10194  4584 4685 10194  4684 4685 10194  4584 4585 10195  4584 4685 10195  4585 4686 10195  4685 4686 10195  4585 4586 10196  4585 4686 10196  4586 4687 10196  4686 4687 10196  4586 4587 10197  4586 4687 10197  4587 4688 10197  4687 4688 10197  4587 4588 10198  4587 4688 10198  4588 4689 10198  4688 4689 10198  4588 4589 10199  4588 4689 10199  4589 4690 10199  4689 4690 10199  4589 4590 10200  4589 4690 10200  4590 4691 10200  4690 4691 10200  4590 4591 10201  4590 4691 10201  4591 4692 10201  4691 4692 10201  4591 4592 10202  4591 4692 10202  4592 4693 10202  4692 4693 10202  4592 4593 10203  4592 4693 10203  4593 4694 10203  4693 4694 10203  4593 4594 10204  4593 4694 10204  4594 4695 10204  4694 4695 10204  4594 4595 10205  4594 4695 10205  4595 4696 10205  4695 4696 10205  4595 4596 10206  4595 4696 10206  4596 4697 10206  4696 4697 10206  4596 4597 10207  4596 4697 10207  4597 4698 10207  4697 4698 10207  4597 4598 10208  4597 4698 10208  4598 4699 10208  4698 4699 10208  4598 4599 10209  4598 4699 10209  4599 4700 10209  4699 4700 10209  4599 4600 10210  4599 4700 10210  4600 4701 10210  4700 4701 10210  4600 4601 10211  4600 4701 10211  4601 4702 10211  4701 4702 10211  4601 4602 10212  4601 4702 10212  4602 4703 10212  4702 4703 10212  4602 4603 10213  4602 4703 10213  4603 4704 10213  4703 4704 10213  4603 4604 10214  4603 4704 10214  4604 4705 10214  4704 4705 10214  4604 4605 10215  4604 4705 10215  4605 4706 10215  4705 4706 10215  4605 4606 10216  4605 4706 10216  4606 4707 10216  4706 4707 10216  4606 4607 10217  4606 4707 10217  4607 4708 10217  4707 4708 10217  4607 4608 10218  4607 4708 10218  4608 4709 10218  4708 4709 10218  4608 4609 10219  4608 4709 10219  4609 4710 10219  4709 4710 10219  4609 4610 10220  4609 4710 10220  4610 4711 10220  4710 4711 10220  4610 4611 10221  4610 4711 10221  4611 4712 10221  4711 4712 10221  4611 4612 10222  4611 4712 10222  4612 4713 10222  4712 4713 10222  4612 4613 10223  4612 4713 10223  4613 4714 10223  4713 4714 10223  4613 4614 10224  4613 4714 10224  4614 4715 10224  4714 4715 10224  4614 4615 10225  4614 4715 10225  4615 4716 10225  4715 4716 10225  4615 4616 10226  4615 4716 10226  4616 4717 10226  4716 4717 10226  4616 4617 10227  4616 4717 10227  4617 4718 10227  4717 4718 10227  4617 4618 10228  4617 4718 10228  4618 4719 10228  4718 4719 10228  4618 4619 10229  4618 4719 10229  4619 4720 10229  4719 4720 10229  4619 4620 10230  4619 4720 10230  4620 4721 10230  4720 4721 10230  4620 4621 10231  4620 4721 10231  4621 4722 10231  4721 4722 10231  4621 4622 10232  4621 4722 10232  4622 4723 10232  4722 4723 10232  4622 4623 10233  4622 4723 10233  4623 4724 10233  4723 4724 10233  4623 4624 10234  4623 4724 10234  4624 4725 10234  4724 4725 10234  4624 4625 10235  4624 4725 10235  4625 4726 10235  4725 4726 10235  4625 4626 10236  4625 4726 10236  4626 4727 10236  4726 4727 10236  4626 4627 10237  4626 4727 10237  4627 4728 10237  4727 4728 10237  4627 4628 10238  4627 4728 10238  4628 4729 10238  4728 4729 10238  4628 4629 10239  4628 4729 10239  4629 4730 10239  4729 4730 10239  4629 4630 10240  4629 4730 10240  4630 4731 10240  4730 4731 10240  4630 4631 10241  4630 4731 10241  4631 4732 10241  4731 4732 10241  4631 4632 10242  4631 4732 10242  4632 4733 10242  4732 4733 10242  4632 4633 10243  4632 4733 10243  4633 4734 10243  4733 4734 10243  4633 4634 10244  4633 4734 10244  4634 4735 10244  4734 4735 10244  4634 4635 10245  4634 4735 10245  4635 4736 10245  4735 4736 10245  4635 4636 10246  4635 4736 10246  4636 4737 10246  4736 4737 10246  4636 4637 10247  4636 4737 10247  4637 4738 10247  4737 4738 10247  4637 4638 10248  4637 4738 10248  4638 4739 10248  4738 4739 10248  4638 4639 10249  4638 4739 10249  4639 4740 10249  4739 4740 10249  4639 4640 10250  4639 4740 10250  4640 4741 10250  4740 4741 10250  4640 4641 10251  4640 4741 10251  4641 4742 10251  4741 4742 10251  4641 4642 10252  4641 4742 10252  4642 4743 10252  4742 4743 10252  4642 4643 10253  4642 4743 10253  4643 4744 10253  4743 4744 10253  4643 4644 10254  4643 4744 10254  4644 4745 10254  4744 4745 10254  4644 4645 10255  4644 4745 10255  4645 4746 10255  4745 4746 10255  4646 4647 10256  4646 4747 10256  4647 4748 10256  4747 4748 10256  4647 4648 10257  4647 4748 10257  4648 4749 10257  4748 4749 10257  4648 4649 10258  4648 4749 10258  4649 4750 10258  4749 4750 10258  4649 4650 10259  4649 4750 10259  4650 4751 10259  4750 4751 10259  4650 4651 10260  4650 4751 10260  4651 4752 10260  4751 4752 10260  4651 4652 10261  4651 4752 10261  4652 4753 10261  4752 4753 10261  4652 4653 10262  4652 4753 10262  4653 4754 10262  4753 4754 10262  4653 4654 10263  4653 4754 10263  4654 4755 10263  4754 4755 10263  4654 4655 10264  4654 4755 10264  4655 4756 10264  4755 4756 10264  4655 4656 10265  4655 4756 10265  4656 4757 10265  4756 4757 10265  4656 4657 10266  4656 4757 10266  4657 4758 10266  4757 4758 10266  4657 4658 10267  4657 4758 10267  4658 4759 10267  4758 4759 10267  4658 4659 10268  4658 4759 10268  4659 4760 10268  4759 4760 10268  4659 4660 10269  4659 4760 10269  4660 4761 10269  4760 4761 10269  4660 4661 10270  4660 4761 10270  4661 4762 10270  4761 4762 10270  4661 4662 10271  4661 4762 10271  4662 4763 10271  4762 4763 10271  4662 4663 10272  4662 4763 10272  4663 4764 10272  4763 4764 10272  4663 4664 10273  4663 4764 10273  4664 4765 10273  4764 4765 10273  4664 4665 10274  4664 4765 10274  4665 4766 10274  4765 4766 10274  4665 4666 10275  4665 4766 10275  4666 4767 10275  4766 4767 10275  4666 4667 10276  4666 4767 10276  4667 4768 10276  4767 4768 10276  4667 4668 10277  4667 4768 10277  4668 4769 10277  4768 4769 10277  4668 4669 10278  4668 4769 10278  4669 4770 10278  4769 4770 10278  4669 4670 10279  4669 4770 10279  4670 4771 10279  4770 4771 10279  4670 4671 10280  4670 4771 10280  4671 4772 10280  4771 4772 10280  4671 4672 10281  4671 4772 10281  4672 4773 10281  4772 4773 10281  4672 4673 10282  4672 4773 10282  4673 4774 10282  4773 4774 10282  4673 4674 10283  4673 4774 10283  4674 4775 10283  4774 4775 10283  4674 4675 10284  4674 4775 10284  4675 4776 10284  4775 4776 10284  4675 4676 10285  4675 4776 10285  4676 4777 10285  4776 4777 10285  4676 4677 10286  4676 4777 10286  4677 4778 10286  4777 4778 10286  4677 4678 10287  4677 4778 10287  4678 4779 10287  4778 4779 10287  4678 4679 10288  4678 4779 10288  4679 4780 10288  4779 4780 10288  4679 4680 10289  4679 4780 10289  4680 4781 10289  4780 4781 10289  4680 4681 10290  4680 4781 10290  4681 4782 10290  4781 4782 10290  4681 4682 10291  4681 4782 10291  4682 4783 10291  4782 4783 10291  4682 4683 10292  4682 4783 10292  4683 4784 10292  4783 4784 10292  4683 4684 10293  4683 4784 10293  4684 4785 10293  4784 4785 10293  4684 4685 10294  4684 4785 10294  4685 4786 10294  4785 4786 10294  4685 4686 10295  4685 4786 10295  4686 4787 10295  4786 4787 10295  4686 4687 10296  4686 4787 10296  4687 4788 10296  4787 4788 10296  4687 4688 10297  4687 4788 10297  4688 4789 10297  4788 4789 10297  4688 4689 10298  4688 4789 10298  4689 4790 10298  4789 4790 10298  4689 4690 10299  4689 4790 10299  4690 4791 10299  4790 4791 10299  4690 4691 10300  4690 4791 10300  4691 4792 10300  4791 4792 10300  4691 4692 10301  4691 4792 10301  4692 4793 10301  4792 4793 10301  4692 4693 10302  4692 4793 10302  4693 4794 10302  4793 4794 10302  4693 4694 10303  4693 4794 10303  4694 4795 10303  4794 4795 10303  4694 4695 10304  4694 4795 10304  4695 4796 10304  4795 4796 10304  4695 4696 10305  4695 4796 10305  4696 4797 10305  4796 4797 10305  4696 4697 10306  4696 4797 10306  4697 4798 10306  4797 4798 10306  4697 4698 10307  4697 4798 10307  4698 4799 10307  4798 4799 10307  4698 4699 10308  4698 4799 10308  4699 4800 10308  4799 4800 10308  4699 4700 10309  4699 4800 10309  4700 4801 10309  4800 4801 10309  4700 4701 10310  4700 4801 10310  4701 4802 10310  4801 4802 10310  4701 4702 10311  4701 4802 10311  4702 4803 10311  4802 4803 10311  4702 4703 10312  4702 4803 10312  4703 4804 10312  4803 4804 10312  4703 4704 10313  4703 4804 10313  4704 4805 10313  4804 4805 10313  4704 4705 10314  4704 4805 10314  4705 4806 10314  4805 4806 10314  4705 4706 10315  4705 4806 10315  4706 4807 10315  4806 4807 10315  4706 4707 10316  4706 4807 10316  4707 4808 10316  4807 4808 10316  4707 4708 10317  4707 4808 10317  4708 4809 10317  4808 4809 10317  4708 4709 10318  4708 4809 10318  4709 4810 10318  4809 4810 10318  4709 4710 10319  4709 4810 10319  4710 4811 10319  4810 4811 10319  4710 4711 10320  4710 4811 10320  4711 4812 10320  4811 4812 10320  4711 4712 10321  4711 4812 10321  4712 4813 10321  4812 4813 10321  4712 4713 10322  4712 4813 10322  4713 4814 10322  4813 4814 10322  4713 4714 10323  4713 4814 10323  4714 4815 10323  4814 4815 10323  4714 4715 10324  4714 4815 10324  4715 4816 10324  4815 4816 10324  4715 4716 10325  4715 4816 10325  4716 4817 10325  4816 4817 10325  4716 4717 10326  4716 4817 10326  4717 4818 10326  4817 4818 10326  4717 4718 10327  4717 4818 10327  4718 4819 10327  4818 4819 10327  4718 4719 10328  4718 4819 10328  4719 4820 10328  4819 4820 10328  4719 4720 10329  4719 4820 10329  4720 4821 10329  4820 4821 10329  4720 4721 10330  4720 4821 10330  4721 4822 10330  4821 4822 10330  4721 4722 10331  4721 4822 10331  4722 4823 10331  4822 4823 10331  4722 4723 10332  4722 4823 10332  4723 4824 10332  4823 4824 10332  4723 4724 10333  4723 4824 10333  4724 4825 10333  4824 4825 10333  4724 4725 10334  4724 4825 10334  4725 4826 10334  4825 4826 10334  4725 4726 10335  4725 4826 10335  4726 4827 10335  4826 4827 10335  4726 4727 10336  4726 4827 10336  4727 4828 10336  4827 4828 10336  4727 4728 10337  4727 4828 10337  4728 4829 10337  4828 4829 10337  4728 4729 10338  4728 4829 10338  4729 4830 10338  4829 4830 10338  4729 4730 10339  4729 4830 10339  4730 4831 10339  4830 4831 10339  4730 4731 10340  4730 4831 10340  4731 4832 10340  4831 4832 10340  4731 4732 10341  4731 4832 10341  4732 4833 10341  4832 4833 10341  4732 4733 10342  4732 4833 10342  4733 4834 10342  4833 4834 10342  4733 4734 10343  4733 4834 10343  4734 4835 10343  4834 4835 10343  4734 4735 10344  4734 4835 10344  4735 4836 10344  4835 4836 10344  4735 4736 10345  4735 4836 10345  4736 4837 10345  4836 4837 10345  4736 4737 10346  4736 4837 10346  4737 4838 10346  4837 4838 10346  4737 4738 10347  4737 4838 10347  4738 4839 10347  4838 4839 10347  4738 4739 10348  4738 4839 10348  4739 4840 10348  4839 4840 10348  4739 4740 10349  4739 4840 10349  4740 4841 10349  4840 4841 10349  4740 4741 10350  4740 4841 10350  4741 4842 10350  4841 4842 10350  4741 4742 10351  4741 4842 10351  4742 4843 10351  4842 4843 10351  4742 4743 10352  4742 4843 10352  4743 4844 10352  4843 4844 10352  4743 4744 10353  4743 4844 10353  4744 4845 10353  4844 4845 10353  4744 4745 10354  4744 4845 10354  4745 4846 10354  4845 4846 10354  4745 4746 10355  4745 4846 10355  4746 4847 10355  4846 4847 10355  4747 4748 10356  4747 4848 10356  4748 4849 10356  4848 4849 10356  4748 4749 10357  4748 4849 10357  4749 4850 10357  4849 4850 10357  4749 4750 10358  4749 4850 10358  4750 4851 10358  4850 4851 10358  4750 4751 10359  4750 4851 10359  4751 4852 10359  4851 4852 10359  4751 4752 10360  4751 4852 10360  4752 4853 10360  4852 4853 10360  4752 4753 10361  4752 4853 10361  4753 4854 10361  4853 4854 10361  4753 4754 10362  4753 4854 10362  4754 4855 10362  4854 4855 10362  4754 4755 10363  4754 4855 10363  4755 4856 10363  4855 4856 10363  4755 4756 10364  4755 4856 10364  4756 4857 10364  4856 4857 10364  4756 4757 10365  4756 4857 10365  4757 4858 10365  4857 4858 10365  4757 4758 10366  4757 4858 10366  4758 4859 10366  4858 4859 10366  4758 4759 10367  4758 4859 10367  4759 4860 10367  4859 4860 10367  4759 4760 10368  4759 4860 10368  4760 4861 10368  4860 4861 10368  4760 4761 10369  4760 4861 10369  4761 4862 10369  4861 4862 10369  4761 4762 10370  4761 4862 10370  4762 4863 10370  4862 4863 10370  4762 4763 10371  4762 4863 10371  4763 4864 10371  4863 4864 10371  4763 4764 10372  4763 4864 10372  4764 4865 10372  4864 4865 10372  4764 4765 10373  4764 4865 10373  4765 4866 10373  4865 4866 10373  4765 4766 10374  4765 4866 10374  4766 4867 10374  4866 4867 10374  4766 4767 10375  4766 4867 10375  4767 4868 10375  4867 4868 10375  4767 4768 10376  4767 4868 10376  4768 4869 10376  4868 4869 10376  4768 4769 10377  4768 4869 10377  4769 4870 10377  4869 4870 10377  4769 4770 10378  4769 4870 10378  4770 4871 10378  4870 4871 10378  4770 4771 10379  4770 4871 10379  4771 4872 10379  4871 4872 10379  4771 4772 10380  4771 4872 10380  4772 4873 10380  4872 4873 10380  4772 4773 10381  4772 4873 10381  4773 4874 10381  4873 4874 10381  4773 4774 10382  4773 4874 10382  4774 4875 10382  4874 4875 10382  4774 4775 10383  4774 4875 10383  4775 4876 10383  4875 4876 10383  4775 4776 10384  4775 4876 10384  4776 4877 10384  4876 4877 10384  4776 4777 10385  4776 4877 10385  4777 4878 10385  4877 4878 10385  4777 4778 10386  4777 4878 10386  4778 4879 10386  4878 4879 10386  4778 4779 10387  4778 4879 10387  4779 4880 10387  4879 4880 10387  4779 4780 10388  4779 4880 10388  4780 4881 10388  4880 4881 10388  4780 4781 10389  4780 4881 10389  4781 4882 10389  4881 4882 10389  4781 4782 10390  4781 4882 10390  4782 4883 10390  4882 4883 10390  4782 4783 10391  4782 4883 10391  4783 4884 10391  4883 4884 10391  4783 4784 10392  4783 4884 10392  4784 4885 10392  4884 4885 10392  4784 4785 10393  4784 4885 10393  4785 4886 10393  4885 4886 10393  4785 4786 10394  4785 4886 10394  4786 4887 10394  4886 4887 10394  4786 4787 10395  4786 4887 10395  4787 4888 10395  4887 4888 10395  4787 4788 10396  4787 4888 10396  4788 4889 10396  4888 4889 10396  4788 4789 10397  4788 4889 10397  4789 4890 10397  4889 4890 10397  4789 4790 10398  4789 4890 10398  4790 4891 10398  4890 4891 10398  4790 4791 10399  4790 4891 10399  4791 4892 10399  4891 4892 10399  4791 4792 10400  4791 4892 10400  4792 4893 10400  4892 4893 10400  4792 4793 10401  4792 4893 10401  4793 4894 10401  4893 4894 10401  4793 4794 10402  4793 4894 10402  4794 4895 10402  4894 4895 10402  4794 4795 10403  4794 4895 10403  4795 4896 10403  4895 4896 10403  4795 4796 10404  4795 4896 10404  4796 4897 10404  4896 4897 10404  4796 4797 10405  4796 4897 10405  4797 4898 10405  4897 4898 10405  4797 4798 10406  4797 4898 10406  4798 4899 10406  4898 4899 10406  4798 4799 10407  4798 4899 10407  4799 4900 10407  4899 4900 10407  4799 4800 10408  4799 4900 10408  4800 4901 10408  4900 4901 10408  4800 4801 10409  4800 4901 10409  4801 4902 10409  4901 4902 10409  4801 4802 10410  4801 4902 10410  4802 4903 10410  4902 4903 10410  4802 4803 10411  4802 4903 10411  4803 4904 10411  4903 4904 10411  4803 4804 10412  4803 4904 10412  4804 4905 10412  4904 4905 10412  4804 4805 10413  4804 4905 10413  4805 4906 10413  4905 4906 10413  4805 4806 10414  4805 4906 10414  4806 4907 10414  4906 4907 10414  4806 4807 10415  4806 4907 10415  4807 4908 10415  4907 4908 10415  4807 4808 10416  4807 4908 10416  4808 4909 10416  4908 4909 10416  4808 4809 10417  4808 4909 10417  4809 4910 10417  4909 4910 10417  4809 4810 10418  4809 4910 10418  4810 4911 10418  4910 4911 10418  4810 4811 10419  4810 4911 10419  4811 4912 10419  4911 4912 10419  4811 4812 10420  4811 4912 10420  4812 4913 10420  4912 4913 10420  4812 4813 10421  4812 4913 10421  4813 4914 10421  4913 4914 10421  4813 4814 10422  4813 4914 10422  4814 4915 10422  4914 4915 10422  4814 4815 10423  4814 4915 10423  4815 4916 10423  4915 4916 10423  4815 4816 10424  4815 4916 10424  4816 4917 10424  4916 4917 10424  4816 4817 10425  4816 4917 10425  4817 4918 10425  4917 4918 10425  4817 4818 10426  4817 4918 10426  4818 4919 10426  4918 4919 10426  4818 4819 10427  4818 4919 10427  4819 4920 10427  4919 4920 10427  4819 4820 10428  4819 4920 10428  4820 4921 10428  4920 4921 10428  4820 4821 10429  4820 4921 10429  4821 4922 10429  4921 4922 10429  4821 4822 10430  4821 4922 10430  4822 4923 10430  4922 4923 10430  4822 4823 10431  4822 4923 10431  4823 4924 10431  4923 4924 10431  4823 4824 10432  4823 4924 10432  4824 4925 10432  4924 4925 10432  4824 4825 10433  4824 4925 10433  4825 4926 10433  4925 4926 10433  4825 4826 10434  4825 4926 10434  4826 4927 10434  4926 4927 10434  4826 4827 10435  4826 4927 10435  4827 4928 10435  4927 4928 10435  4827 4828 10436  4827 4928 10436  4828 4929 10436  4928 4929 10436  4828 4829 10437  4828 4929 10437  4829 4930 10437  4929 4930 10437  4829 4830 10438  4829 4930 10438  4830 4931 10438  4930 4931 10438  4830 4831 10439  4830 4931 10439  4831 4932 10439  4931 4932 10439  4831 4832 10440  4831 4932 10440  4832 4933 10440  4932 4933 10440  4832 4833 10441  4832 4933 10441  4833 4934 10441  4933 4934 10441  4833 4834 10442  4833 4934 10442  4834 4935 10442  4934 4935 10442  4834 4835 10443  4834 4935 10443  4835 4936 10443  4935 4936 10443  4835 4836 10444  4835 4936 10444  4836 4937 10444  4936 4937 10444  4836 4837 10445  4836 4937 10445  4837 4938 10445  4937 4938 10445  4837 4838 10446  4837 4938 10446  4838 4939 10446  4938 4939 10446  4838 4839 10447  4838 4939 10447  4839 4940 10447  4939 4940 10447  4839 4840 10448  4839 4940 10448  4840 4941 10448  4940 4941 10448  4840 4841 10449  4840 4941 10449  4841 4942 10449  4941 4942 10449  4841 4842 10450  4841 4942 10450  4842 4943 10450  4942 4943 10450  4842 4843 10451  4842 4943 10451  4843 4944 10451  4943 4944 10451  4843 4844 10452  4843 4944 10452  4844 4945 10452  4944 4945 10452  4844 4845 10453  4844 4945 10453  4845 4946 10453  4945 4946 10453  4845 4846 10454  4845 4946 10454  4846 4947 10454  4946 4947 10454  4846 4847 10455  4846 4947 10455  4847 4948 10455  4947 4948 10455  4848 4849 10456  4848 4949 10456  4849 4950 10456  4949 4950 10456  4849 4850 10457  4849 4950 10457  4850 4951 10457  4950 4951 10457  4850 4851 10458  4850 4951 10458  4851 4952 10458  4951 4952 10458  4851 4852 10459  4851 4952 10459  4852 4953 10459  4952 4953 10459  4852 4853 10460  4852 4953 10460  4853 4954 10460  4953 4954 10460  4853 4854 10461  4853 4954 10461  4854 4955 10461  4954 4955 10461  4854 4855 10462  4854 4955 10462  4855 4956 10462  4955 4956 10462  4855 4856 10463  4855 4956 10463  4856 4957 10463  4956 4957 10463  4856 4857 10464  4856 4957 10464  4857 4958 10464  4957 4958 10464  4857 4858 10465  4857 4958 10465  4858 4959 10465  4958 4959 10465  4858 4859 10466  4858 4959 10466  4859 4960 10466  4959 4960 10466  4859 4860 10467  4859 4960 10467  4860 4961 10467  4960 4961 10467  4860 4861 10468  4860 4961 10468  4861 4962 10468  4961 4962 10468  4861 4862 10469  4861 4962 10469  4862 4963 10469  4962 4963 10469  4862 4863 10470  4862 4963 10470  4863 4964 10470  4963 4964 10470  4863 4864 10471  4863 4964 10471  4864 4965 10471  4964 4965 10471  4864 4865 10472  4864 4965 10472  4865 4966 10472  4965 4966 10472  4865 4866 10473  4865 4966 10473  4866 4967 10473  4966 4967 10473  4866 4867 10474  4866 4967 10474  4867 4968 10474  4967 4968 10474  4867 4868 10475  4867 4968 10475  4868 4969 10475  4968 4969 10475  4868 4869 10476  4868 4969 10476  4869 4970 10476  4969 4970 10476  4869 4870 10477  4869 4970 10477  4870 4971 10477  4970 4971 10477  4870 4871 10478  4870 4971 10478  4871 4972 10478  4971 4972 10478  4871 4872 10479  4871 4972 10479  4872 4973 10479  4972 4973 10479  4872 4873 10480  4872 4973 10480  4873 4974 10480  4973 4974 10480  4873 4874 10481  4873 4974 10481  4874 4975 10481  4974 4975 10481  4874 4875 10482  4874 4975 10482  4875 4976 10482  4975 4976 10482  4875 4876 10483  4875 4976 10483  4876 4977 10483  4976 4977 10483  4876 4877 10484  4876 4977 10484  4877 4978 10484  4977 4978 10484  4877 4878 10485  4877 4978 10485  4878 4979 10485  4978 4979 10485  4878 4879 10486  4878 4979 10486  4879 4980 10486  4979 4980 10486  4879 4880 10487  4879 4980 10487  4880 4981 10487  4980 4981 10487  4880 4881 10488  4880 4981 10488  4881 4982 10488  4981 4982 10488  4881 4882 10489  4881 4982 10489  4882 4983 10489  4982 4983 10489  4882 4883 10490  4882 4983 10490  4883 4984 10490  4983 4984 10490  4883 4884 10491  4883 4984 10491  4884 4985 10491  4984 4985 10491  4884 4885 10492  4884 4985 10492  4885 4986 10492  4985 4986 10492  4885 4886 10493  4885 4986 10493  4886 4987 10493  4986 4987 10493  4886 4887 10494  4886 4987 10494  4887 4988 10494  4987 4988 10494  4887 4888 10495  4887 4988 10495  4888 4989 10495  4988 4989 10495  4888 4889 10496  4888 4989 10496  4889 4990 10496  4989 4990 10496  4889 4890 10497  4889 4990 10497  4890 4991 10497  4990 4991 10497  4890 4891 10498  4890 4991 10498  4891 4992 10498  4991 4992 10498  4891 4892 10499  4891 4992 10499  4892 4993 10499  4992 4993 10499  4892 4893 10500  4892 4993 10500  4893 4994 10500  4993 4994 10500  4893 4894 10501  4893 4994 10501  4894 4995 10501  4994 4995 10501  4894 4895 10502  4894 4995 10502  4895 4996 10502  4995 4996 10502  4895 4896 10503  4895 4996 10503  4896 4997 10503  4996 4997 10503  4896 4897 10504  4896 4997 10504  4897 4998 10504  4997 4998 10504  4897 4898 10505  4897 4998 10505  4898 4999 10505  4998 4999 10505  4898 4899 10506  4898 4999 10506  4899 5000 10506  4999 5000 10506  4899 4900 10507  4899 5000 10507  4900 5001 10507  5000 5001 10507  4900 4901 10508  4900 5001 10508  4901 5002 10508  5001 5002 10508  4901 4902 10509  4901 5002 10509  4902 5003 10509  5002 5003 10509  4902 4903 10510  4902 5003 10510  4903 5004 10510  5003 5004 10510  4903 4904 10511  4903 5004 10511  4904 5005 10511  5004 5005 10511  4904 4905 10512  4904 5005 10512  4905 5006 10512  5005 5006 10512  4905 4906 10513  4905 5006 10513  4906 5007 10513  5006 5007 10513  4906 4907 10514  4906 5007 10514  4907 5008 10514  5007 5008 10514  4907 4908 10515  4907 5008 10515  4908 5009 10515  5008 5009 10515  4908 4909 10516  4908 5009 10516  4909 5010 10516  5009 5010 10516  4909 4910 10517  4909 5010 10517  4910 5011 10517  5010 5011 10517  4910 4911 10518  4910 5011 10518  4911 5012 10518  5011 5012 10518  4911 4912 10519  4911 5012 10519  4912 5013 10519  5012 5013 10519  4912 4913 10520  4912 5013 10520  4913 5014 10520  5013 5014 10520  4913 4914 10521  4913 5014 10521  4914 5015 10521  5014 5015 10521  4914 4915 10522  4914 5015 10522  4915 5016 10522  5015 5016 10522  4915 4916 10523  4915 5016 10523  4916 5017 10523  5016 5017 10523  4916 4917 10524  4916 5017 10524  4917 5018 10524  5017 5018 10524  4917 4918 10525  4917 5018 10525  4918 5019 10525  5018 5019 10525  4918 4919 10526  4918 5019 10526  4919 5020 10526  5019 5020 10526  4919 4920 10527  4919 5020 10527  4920 5021 10527  5020 5021 10527  4920 4921 10528  4920 5021 10528  4921 5022 10528  5021 5022 10528  4921 4922 10529  4921 5022 10529  4922 5023 10529  5022 5023 10529  4922 4923 10530  4922 5023 10530  4923 5024 10530  5023 5024 10530  4923 4924 10531  4923 5024 10531  4924 5025 10531  5024 5025 10531  4924 4925 10532  4924 5025 10532  4925 5026 10532  5025 5026 10532  4925 4926 10533  4925 5026 10533  4926 5027 10533  5026 5027 10533  4926 4927 10534  4926 5027 10534  4927 5028 10534  5027 5028 10534  4927 4928 10535  4927 5028 10535  4928 5029 10535  5028 5029 10535  4928 4929 10536  4928 5029 10536  4929 5030 10536  5029 5030 10536  4929 4930 10537  4929 5030 10537  4930 5031 10537  5030 5031 10537  4930 4931 10538  4930 5031 10538  4931 5032 10538  5031 5032 10538  4931 4932 10539  4931 5032 10539  4932 5033 10539  5032 5033 10539  4932 4933 10540  4932 5033 10540  4933 5034 10540  5033 5034 10540  4933 4934 10541  4933 5034 10541  4934 5035 10541  5034 5035 10541  4934 4935 10542  4934 5035 10542  4935 5036 10542  5035 5036 10542  4935 4936 10543  4935 5036 10543  4936 5037 10543  5036 5037 10543  4936 4937 10544  4936 5037 10544  4937 5038 10544  5037 5038 10544  4937 4938 10545  4937 5038 10545  4938 5039 10545  5038 5039 10545  4938 4939 10546  4938 5039 10546  4939 5040 10546  5039 5040 10546  4939 4940 10547  4939 5040 10547  4940 5041 10547  5040 5041 10547  4940 4941 10548  4940 5041 10548  4941 5042 10548  5041 5042 10548  4941 4942 10549  4941 5042 10549  4942 5043 10549  5042 5043 10549  4942 4943 10550  4942 5043 10550  4943 5044 10550  5043 5044 10550  4943 4944 10551  4943 5044 10551  4944 5045 10551  5044 5045 10551  4944 4945 10552  4944 5045 10552  4945 5046 10552  5045 5046 10552  4945 4946 10553  4945 5046 10553  4946 5047 10553  5046 5047 10553  4946 4947 10554  4946 5047 10554  4947 5048 10554  5047 5048 10554  4947 4948 10555  4947 5048 10555  4948 5049 10555  5048 5049 10555  4949 4950 10556  4949 5050 10556  4950 5051 10556  5050 5051 10556  4950 4951 10557  4950 5051 10557  4951 5052 10557  5051 5052 10557  4951 4952 10558  4951 5052 10558  4952 5053 10558  5052 5053 10558  4952 4953 10559  4952 5053 10559  4953 5054 10559  5053 5054 10559  4953 4954 10560  4953 5054 10560  4954 5055 10560  5054 5055 10560  4954 4955 10561  4954 5055 10561  4955 5056 10561  5055 5056 10561  4955 4956 10562  4955 5056 10562  4956 5057 10562  5056 5057 10562  4956 4957 10563  4956 5057 10563  4957 5058 10563  5057 5058 10563  4957 4958 10564  4957 5058 10564  4958 5059 10564  5058 5059 10564  4958 4959 10565  4958 5059 10565  4959 5060 10565  5059 5060 10565  4959 4960 10566  4959 5060 10566  4960 5061 10566  5060 5061 10566  4960 4961 10567  4960 5061 10567  4961 5062 10567  5061 5062 10567  4961 4962 10568  4961 5062 10568  4962 5063 10568  5062 5063 10568  4962 4963 10569  4962 5063 10569  4963 5064 10569  5063 5064 10569  4963 4964 10570  4963 5064 10570  4964 5065 10570  5064 5065 10570  4964 4965 10571  4964 5065 10571  4965 5066 10571  5065 5066 10571  4965 4966 10572  4965 5066 10572  4966 5067 10572  5066 5067 10572  4966 4967 10573  4966 5067 10573  4967 5068 10573  5067 5068 10573  4967 4968 10574  4967 5068 10574  4968 5069 10574  5068 5069 10574  4968 4969 10575  4968 5069 10575  4969 5070 10575  5069 5070 10575  4969 4970 10576  4969 5070 10576  4970 5071 10576  5070 5071 10576  4970 4971 10577  4970 5071 10577  4971 5072 10577  5071 5072 10577  4971 4972 10578  4971 5072 10578  4972 5073 10578  5072 5073 10578  4972 4973 10579  4972 5073 10579  4973 5074 10579  5073 5074 10579  4973 4974 10580  4973 5074 10580  4974 5075 10580  5074 5075 10580  4974 4975 10581  4974 5075 10581  4975 5076 10581  5075 5076 10581  4975 4976 10582  4975 5076 10582  4976 5077 10582  5076 5077 10582  4976 4977 10583  4976 5077 10583  4977 5078 10583  5077 5078 10583  4977 4978 10584  4977 5078 10584  4978 5079 10584  5078 5079 10584  4978 4979 10585  4978 5079 10585  4979 5080 10585  5079 5080 10585  4979 4980 10586  4979 5080 10586  4980 5081 10586  5080 5081 10586  4980 4981 10587  4980 5081 10587  4981 5082 10587  5081 5082 10587  4981 4982 10588  4981 5082 10588  4982 5083 10588  5082 5083 10588  4982 4983 10589  4982 5083 10589  4983 5084 10589  5083 5084 10589  4983 4984 10590  4983 5084 10590  4984 5085 10590  5084 5085 10590  4984 4985 10591  4984 5085 10591  4985 5086 10591  5085 5086 10591  4985 4986 10592  4985 5086 10592  4986 5087 10592  5086 5087 10592  4986 4987 10593  4986 5087 10593  4987 5088 10593  5087 5088 10593  4987 4988 10594  4987 5088 10594  4988 5089 10594  5088 5089 10594  4988 4989 10595  4988 5089 10595  4989 5090 10595  5089 5090 10595  4989 4990 10596  4989 5090 10596  4990 5091 10596  5090 5091 10596  4990 4991 10597  4990 5091 10597  4991 5092 10597  5091 5092 10597  4991 4992 10598  4991 5092 10598  4992 5093 10598  5092 5093 10598  4992 4993 10599  4992 5093 10599  4993 5094 10599  5093 5094 10599  4993 4994 10600  4993 5094 10600  4994 5095 10600  5094 5095 10600  4994 4995 10601  4994 5095 10601  4995 5096 10601  5095 5096 10601  4995 4996 10602  4995 5096 10602  4996 5097 10602  5096 5097 10602  4996 4997 10603  4996 5097 10603  4997 5098 10603  5097 5098 10603  4997 4998 10604  4997 5098 10604  4998 5099 10604  5098 5099 10604  4998 4999 10605  4998 5099 10605  4999 5100 10605  5099 5100 10605  4999 5000 10606  4999 5100 10606  5000 5101 10606  5100 5101 10606  5000 5001 10607  5000 5101 10607  5001 5102 10607  5101 5102 10607  5001 5002 10608  5001 5102 10608  5002 5103 10608  5102 5103 10608  5002 5003 10609  5002 5103 10609  5003 5104 10609  5103 5104 10609  5003 5004 10610  5003 5104 10610  5004 5105 10610  5104 5105 10610  5004 5005 10611  5004 5105 10611  5005 5106 10611  5105 5106 10611  5005 5006 10612  5005 5106 10612  5006 5107 10612  5106 5107 10612  5006 5007 10613  5006 5107 10613  5007 5108 10613  5107 5108 10613  5007 5008 10614  5007 5108 10614  5008 5109 10614  5108 5109 10614  5008 5009 10615  5008 5109 10615  5009 5110 10615  5109 5110 10615  5009 5010 10616  5009 5110 10616  5010 5111 10616  5110 5111 10616  5010 5011 10617  5010 5111 10617  5011 5112 10617  5111 5112 10617  5011 5012 10618  5011 5112 10618  5012 5113 10618  5112 5113 10618  5012 5013 10619  5012 5113 10619  5013 5114 10619  5113 5114 10619  5013 5014 10620  5013 5114 10620  5014 5115 10620  5114 5115 10620  5014 5015 10621  5014 5115 10621  5015 5116 10621  5115 5116 10621  5015 5016 10622  5015 5116 10622  5016 5117 10622  5116 5117 10622  5016 5017 10623  5016 5117 10623  5017 5118 10623  5117 5118 10623  5017 5018 10624  5017 5118 10624  5018 5119 10624  5118 5119 10624  5018 5019 10625  5018 5119 10625  5019 5120 10625  5119 5120 10625  5019 5020 10626  5019 5120 10626  5020 5121 10626  5120 5121 10626  5020 5021 10627  5020 5121 10627  5021 5122 10627  5121 5122 10627  5021 5022 10628  5021 5122 10628  5022 5123 10628  5122 5123 10628  5022 5023 10629  5022 5123 10629  5023 5124 10629  5123 5124 10629  5023 5024 10630  5023 5124 10630  5024 5125 10630  5124 5125 10630  5024 5025 10631  5024 5125 10631  5025 5126 10631  5125 5126 10631  5025 5026 10632  5025 5126 10632  5026 5127 10632  5126 5127 10632  5026 5027 10633  5026 5127 10633  5027 5128 10633  5127 5128 10633  5027 5028 10634  5027 5128 10634  5028 5129 10634  5128 5129 10634  5028 5029 10635  5028 5129 10635  5029 5130 10635  5129 5130 10635  5029 5030 10636  5029 5130 10636  5030 5131 10636  5130 5131 10636  5030 5031 10637  5030 5131 10637  5031 5132 10637  5131 5132 10637  5031 5032 10638  5031 5132 10638  5032 5133 10638  5132 5133 10638  5032 5033 10639  5032 5133 10639  5033 5134 10639  5133 5134 10639  5033 5034 10640  5033 5134 10640  5034 5135 10640  5134 5135 10640  5034 5035 10641  5034 5135 10641  5035 5136 10641  5135 5136 10641  5035 5036 10642  5035 5136 10642  5036 5137 10642  5136 5137 10642  5036 5037 10643  5036 5137 10643  5037 5138 10643  5137 5138 10643  5037 5038 10644  5037 5138 10644  5038 5139 10644  5138 5139 10644  5038 5039 10645  5038 5139 10645  5039 5140 10645  5139 5140 10645  5039 5040 10646  5039 5140 10646  5040 5141 10646  5140 5141 10646  5040 5041 10647  5040 5141 10647  5041 5142 10647  5141 5142 10647  5041 5042 10648  5041 5142 10648  5042 5143 10648  5142 5143 10648  5042 5043 10649  5042 5143 10649  5043 5144 10649  5143 5144 10649  5043 5044 10650  5043 5144 10650  5044 5145 10650  5144 5145 10650  5044 5045 10651  5044 5145 10651  5045 5146 10651  5145 5146 10651  5045 5046 10652  5045 5146 10652  5046 5147 10652  5146 5147 10652  5046 5047 10653  5046 5147 10653  5047 5148 10653  5147 5148 10653  5047 5048 10654  5047 5148 10654  5048 5149 10654  5148 5149 10654  5048 5049 10655  5048 5149 10655  5049 5150 10655  5149 5150 10655  5050 5051 10656  5050 5151 10656  5051 5152 10656  5151 5152 10656  5051 5052 10657  5051 5152 10657  5052 5153 10657  5152 5153 10657  5052 5053 10658  5052 5153 10658  5053 5154 10658  5153 5154 10658  5053 5054 10659  5053 5154 10659  5054 5155 10659  5154 5155 10659  5054 5055 10660  5054 5155 10660  5055 5156 10660  5155 5156 10660  5055 5056 10661  5055 5156 10661  5056 5157 10661  5156 5157 10661  5056 5057 10662  5056 5157 10662  5057 5158 10662  5157 5158 10662  5057 5058 10663  5057 5158 10663  5058 5159 10663  5158 5159 10663  5058 5059 10664  5058 5159 10664  5059 5160 10664  5159 5160 10664  5059 5060 10665  5059 5160 10665  5060 5161 10665  5160 5161 10665  5060 5061 10666  5060 5161 10666  5061 5162 10666  5161 5162 10666  5061 5062 10667  5061 5162 10667  5062 5163 10667  5162 5163 10667  5062 5063 10668  5062 5163 10668  5063 5164 10668  5163 5164 10668  5063 5064 10669  5063 5164 10669  5064 5165 10669  5164 5165 10669  5064 5065 10670  5064 5165 10670  5065 5166 10670  5165 5166 10670  5065 5066 10671  5065 5166 10671  5066 5167 10671  5166 5167 10671  5066 5067 10672  5066 5167 10672  5067 5168 10672  5167 5168 10672  5067 5068 10673  5067 5168 10673  5068 5169 10673  5168 5169 10673  5068 5069 10674  5068 5169 10674  5069 5170 10674  5169 5170 10674  5069 5070 10675  5069 5170 10675  5070 5171 10675  5170 5171 10675  5070 5071 10676  5070 5171 10676  5071 5172 10676  5171 5172 10676  5071 5072 10677  5071 5172 10677  5072 5173 10677  5172 5173 10677  5072 5073 10678  5072 5173 10678  5073 5174 10678  5173 5174 10678  5073 5074 10679  5073 5174 10679  5074 5175 10679  5174 5175 10679  5074 5075 10680  5074 5175 10680  5075 5176 10680  5175 5176 10680  5075 5076 10681  5075 5176 10681  5076 5177 10681  5176 5177 10681  5076 5077 10682  5076 5177 10682  5077 5178 10682  5177 5178 10682  5077 5078 10683  5077 5178 10683  5078 5179 10683  5178 5179 10683  5078 5079 10684  5078 5179 10684  5079 5180 10684  5179 5180 10684  5079 5080 10685  5079 5180 10685  5080 5181 10685  5180 5181 10685  5080 5081 10686  5080 5181 10686  5081 5182 10686  5181 5182 10686  5081 5082 10687  5081 5182 10687  5082 5183 10687  5182 5183 10687  5082 5083 10688  5082 5183 10688  5083 5184 10688  5183 5184 10688  5083 5084 10689  5083 5184 10689  5084 5185 10689  5184 5185 10689  5084 5085 10690  5084 5185 10690  5085 5186 10690  5185 5186 10690  5085 5086 10691  5085 5186 10691  5086 5187 10691  5186 5187 10691  5086 5087 10692  5086 5187 10692  5087 5188 10692  5187 5188 10692  5087 5088 10693  5087 5188 10693  5088 5189 10693  5188 5189 10693  5088 5089 10694  5088 5189 10694  5089 5190 10694  5189 5190 10694  5089 5090 10695  5089 5190 10695  5090 5191 10695  5190 5191 10695  5090 5091 10696  5090 5191 10696  5091 5192 10696  5191 5192 10696  5091 5092 10697  5091 5192 10697  5092 5193 10697  5192 5193 10697  5092 5093 10698  5092 5193 10698  5093 5194 10698  5193 5194 10698  5093 5094 10699  5093 5194 10699  5094 5195 10699  5194 5195 10699  5094 5095 10700  5094 5195 10700  5095 5196 10700  5195 5196 10700  5095 5096 10701  5095 5196 10701  5096 5197 10701  5196 5197 10701  5096 5097 10702  5096 5197 10702  5097 5198 10702  5197 5198 10702  5097 5098 10703  5097 5198 10703  5098 5199 10703  5198 5199 10703  5098 5099 10704  5098 5199 10704  5099 5200 10704  5199 5200 10704  5099 5100 10705  5099 5200 10705  5100 5201 10705  5200 5201 10705  5100 5101 10706  5100 5201 10706  5101 5202 10706  5201 5202 10706  5101 5102 10707  5101 5202 10707  5102 5203 10707  5202 5203 10707  5102 5103 10708  5102 5203 10708  5103 5204 10708  5203 5204 10708  5103 5104 10709  5103 5204 10709  5104 5205 10709  5204 5205 10709  5104 5105 10710  5104 5205 10710  5105 5206 10710  5205 5206 10710  5105 5106 10711  5105 5206 10711  5106 5207 10711  5206 5207 10711  5106 5107 10712  5106 5207 10712  5107 5208 10712  5207 5208 10712  5107 5108 10713  5107 5208 10713  5108 5209 10713  5208 5209 10713  5108 5109 10714  5108 5209 10714  5109 5210 10714  5209 5210 10714  5109 5110 10715  5109 5210 10715  5110 5211 10715  5210 5211 10715  5110 5111 10716  5110 5211 10716  5111 5212 10716  5211 5212 10716  5111 5112 10717  5111 5212 10717  5112 5213 10717  5212 5213 10717  5112 5113 10718  5112 5213 10718  5113 5214 10718  5213 5214 10718  5113 5114 10719  5113 5214 10719  5114 5215 10719  5214 5215 10719  5114 5115 10720  5114 5215 10720  5115 5216 10720  5215 5216 10720  5115 5116 10721  5115 5216 10721  5116 5217 10721  5216 5217 10721  5116 5117 10722  5116 5217 10722  5117 5218 10722  5217 5218 10722  5117 5118 10723  5117 5218 10723  5118 5219 10723  5218 5219 10723  5118 5119 10724  5118 5219 10724  5119 5220 10724  5219 5220 10724  5119 5120 10725  5119 5220 10725  5120 5221 10725  5220 5221 10725  5120 5121 10726  5120 5221 10726  5121 5222 10726  5221 5222 10726  5121 5122 10727  5121 5222 10727  5122 5223 10727  5222 5223 10727  5122 5123 10728  5122 5223 10728  5123 5224 10728  5223 5224 10728  5123 5124 10729  5123 5224 10729  5124 5225 10729  5224 5225 10729  5124 5125 10730  5124 5225 10730  5125 5226 10730  5225 5226 10730  5125 5126 10731  5125 5226 10731  5126 5227 10731  5226 5227 10731  5126 5127 10732  5126 5227 10732  5127 5228 10732  5227 5228 10732  5127 5128 10733  5127 5228 10733  5128 5229 10733  5228 5229 10733  5128 5129 10734  5128 5229 10734  5129 5230 10734  5229 5230 10734  5129 5130 10735  5129 5230 10735  5130 5231 10735  5230 5231 10735  5130 5131 10736  5130 5231 10736  5131 5232 10736  5231 5232 10736  5131 5132 10737  5131 5232 10737  5132 5233 10737  5232 5233 10737  5132 5133 10738  5132 5233 10738  5133 5234 10738  5233 5234 10738  5133 5134 10739  5133 5234 10739  5134 5235 10739  5234 5235 10739  5134 5135 10740  5134 5235 10740  5135 5236 10740  5235 5236 10740  5135 5136 10741  5135 5236 10741  5136 5237 10741  5236 5237 10741  5136 5137 10742  5136 5237 10742  5137 5238 10742  5237 5238 10742  5137 5138 10743  5137 5238 10743  5138 5239 10743  5238 5239 10743  5138 5139 10744  5138 5239 10744  5139 5240 10744  5239 5240 10744  5139 5140 10745  5139 5240 10745  5140 5241 10745  5240 5241 10745  5140 5141 10746  5140 5241 10746  5141 5242 10746  5241 5242 10746  5141 5142 10747  5141 5242 10747  5142 5243 10747  5242 5243 10747  5142 5143 10748  5142 5243 10748  5143 5244 10748  5243 5244 10748  5143 5144 10749  5143 5244 10749  5144 5245 10749  5244 5245 10749  5144 5145 10750  5144 5245 10750  5145 5246 10750  5245 5246 10750  5145 5146 10751  5145 5246 10751  5146 5247 10751  5246 5247 10751  5146 5147 10752  5146 5247 10752  5147 5248 10752  5247 5248 10752  5147 5148 10753  5147 5248 10753  5148 5249 10753  5248 5249 10753  5148 5149 10754  5148 5249 10754  5149 5250 10754  5249 5250 10754  5149 5150 10755  5149 5250 10755  5150 5251 10755  5250 5251 10755  5151 5152 10756  5151 5252 10756  5152 5253 10756  5252 5253 10756  5152 5153 10757  5152 5253 10757  5153 5254 10757  5253 5254 10757  5153 5154 10758  5153 5254 10758  5154 5255 10758  5254 5255 10758  5154 5155 10759  5154 5255 10759  5155 5256 10759  5255 5256 10759  5155 5156 10760  5155 5256 10760  5156 5257 10760  5256 5257 10760  5156 5157 10761  5156 5257 10761  5157 5258 10761  5257 5258 10761  5157 5158 10762  5157 5258 10762  5158 5259 10762  5258 5259 10762  5158 5159 10763  5158 5259 10763  5159 5260 10763  5259 5260 10763  5159 5160 10764  5159 5260 10764  5160 5261 10764  5260 5261 10764  5160 5161 10765  5160 5261 10765  5161 5262 10765  5261 5262 10765  5161 5162 10766  5161 5262 10766  5162 5263 10766  5262 5263 10766  5162 5163 10767  5162 5263 10767  5163 5264 10767  5263 5264 10767  5163 5164 10768  5163 5264 10768  5164 5265 10768  5264 5265 10768  5164 5165 10769  5164 5265 10769  5165 5266 10769  5265 5266 10769  5165 5166 10770  5165 5266 10770  5166 5267 10770  5266 5267 10770  5166 5167 10771  5166 5267 10771  5167 5268 10771  5267 5268 10771  5167 5168 10772  5167 5268 10772  5168 5269 10772  5268 5269 10772  5168 5169 10773  5168 5269 10773  5169 5270 10773  5269 5270 10773  5169 5170 10774  5169 5270 10774  5170 5271 10774  5270 5271 10774  5170 5171 10775  5170 5271 10775  5171 5272 10775  5271 5272 10775  5171 5172 10776  5171 5272 10776  5172 5273 10776  5272 5273 10776  5172 5173 10777  5172 5273 10777  5173 5274 10777  5273 5274 10777  5173 5174 10778  5173 5274 10778  5174 5275 10778  5274 5275 10778  5174 5175 10779  5174 5275 10779  5175 5276 10779  5275 5276 10779  5175 5176 10780  5175 5276 10780  5176 5277 10780  5276 5277 10780  5176 5177 10781  5176 5277 10781  5177 5278 10781  5277 5278 10781  5177 5178 10782  5177 5278 10782  5178 5279 10782  5278 5279 10782  5178 5179 10783  5178 5279 10783  5179 5280 10783  5279 5280 10783  5179 5180 10784  5179 5280 10784  5180 5281 10784  5280 5281 10784  5180 5181 10785  5180 5281 10785  5181 5282 10785  5281 5282 10785  5181 5182 10786  5181 5282 10786  5182 5283 10786  5282 5283 10786  5182 5183 10787  5182 5283 10787  5183 5284 10787  5283 5284 10787  5183 5184 10788  5183 5284 10788  5184 5285 10788  5284 5285 10788  5184 5185 10789  5184 5285 10789  5185 5286 10789  5285 5286 10789  5185 5186 10790  5185 5286 10790  5186 5287 10790  5286 5287 10790  5186 5187 10791  5186 5287 10791  5187 5288 10791  5287 5288 10791  5187 5188 10792  5187 5288 10792  5188 5289 10792  5288 5289 10792  5188 5189 10793  5188 5289 10793  5189 5290 10793  5289 5290 10793  5189 5190 10794  5189 5290 10794  5190 5291 10794  5290 5291 10794  5190 5191 10795  5190 5291 10795  5191 5292 10795  5291 5292 10795  5191 5192 10796  5191 5292 10796  5192 5293 10796  5292 5293 10796  5192 5193 10797  5192 5293 10797  5193 5294 10797  5293 5294 10797  5193 5194 10798  5193 5294 10798  5194 5295 10798  5294 5295 10798  5194 5195 10799  5194 5295 10799  5195 5296 10799  5295 5296 10799  5195 5196 10800  5195 5296 10800  5196 5297 10800  5296 5297 10800  5196 5197 10801  5196 5297 10801  5197 5298 10801  5297 5298 10801  5197 5198 10802  5197 5298 10802  5198 5299 10802  5298 5299 10802  5198 5199 10803  5198 5299 10803  5199 5300 10803  5299 5300 10803  5199 5200 10804  5199 5300 10804  5200 5301 10804  5300 5301 10804  5200 5201 10805  5200 5301 10805  5201 5302 10805  5301 5302 10805  5201 5202 10806  5201 5302 10806  5202 5303 10806  5302 5303 10806  5202 5203 10807  5202 5303 10807  5203 5304 10807  5303 5304 10807  5203 5204 10808  5203 5304 10808  5204 5305 10808  5304 5305 10808  5204 5205 10809  5204 5305 10809  5205 5306 10809  5305 5306 10809  5205 5206 10810  5205 5306 10810  5206 5307 10810  5306 5307 10810  5206 5207 10811  5206 5307 10811  5207 5308 10811  5307 5308 10811  5207 5208 10812  5207 5308 10812  5208 5309 10812  5308 5309 10812  5208 5209 10813  5208 5309 10813  5209 5310 10813  5309 5310 10813  5209 5210 10814  5209 5310 10814  5210 5311 10814  5310 5311 10814  5210 5211 10815  5210 5311 10815  5211 5312 10815  5311 5312 10815  5211 5212 10816  5211 5312 10816  5212 5313 10816  5312 5313 10816  5212 5213 10817  5212 5313 10817  5213 5314 10817  5313 5314 10817  5213 5214 10818  5213 5314 10818  5214 5315 10818  5314 5315 10818  5214 5215 10819  5214 5315 10819  5215 5316 10819  5315 5316 10819  5215 5216 10820  5215 5316 10820  5216 5317 10820  5316 5317 10820  5216 5217 10821  5216 5317 10821  5217 5318 10821  5317 5318 10821  5217 5218 10822  5217 5318 10822  5218 5319 10822  5318 5319 10822  5218 5219 10823  5218 5319 10823  5219 5320 10823  5319 5320 10823  5219 5220 10824  5219 5320 10824  5220 5321 10824  5320 5321 10824  5220 5221 10825  5220 5321 10825  5221 5322 10825  5321 5322 10825  5221 5222 10826  5221 5322 10826  5222 5323 10826  5322 5323 10826  5222 5223 10827  5222 5323 10827  5223 5324 10827  5323 5324 10827  5223 5224 10828  5223 5324 10828  5224 5325 10828  5324 5325 10828  5224 5225 10829  5224 5325 10829  5225 5326 10829  5325 5326 10829  5225 5226 10830  5225 5326 10830  5226 5327 10830  5326 5327 10830  5226 5227 10831  5226 5327 10831  5227 5328 10831  5327 5328 10831  5227 5228 10832  5227 5328 10832  5228 5329 10832  5328 5329 10832  5228 5229 10833  5228 5329 10833  5229 5330 10833  5329 5330 10833  5229 5230 10834  5229 5330 10834  5230 5331 10834  5330 5331 10834  5230 5231 10835  5230 5331 10835  5231 5332 10835  5331 5332 10835  5231 5232 10836  5231 5332 10836  5232 5333 10836  5332 5333 10836  5232 5233 10837  5232 5333 10837  5233 5334 10837  5333 5334 10837  5233 5234 10838  5233 5334 10838  5234 5335 10838  5334 5335 10838  5234 5235 10839  5234 5335 10839  5235 5336 10839  5335 5336 10839  5235 5236 10840  5235 5336 10840  5236 5337 10840  5336 5337 10840  5236 5237 10841  5236 5337 10841  5237 5338 10841  5337 5338 10841  5237 5238 10842  5237 5338 10842  5238 5339 10842  5338 5339 10842  5238 5239 10843  5238 5339 10843  5239 5340 10843  5339 5340 10843  5239 5240 10844  5239 5340 10844  5240 5341 10844  5340 5341 10844  5240 5241 10845  5240 5341 10845  5241 5342 10845  5341 5342 10845  5241 5242 10846  5241 5342 10846  5242 5343 10846  5342 5343 10846  5242 5243 10847  5242 5343 10847  5243 5344 10847  5343 5344 10847  5243 5244 10848  5243 5344 10848  5244 5345 10848  5344 5345 10848  5244 5245 10849  5244 5345 10849  5245 5346 10849  5345 5346 10849  5245 5246 10850  5245 5346 10850  5246 5347 10850  5346 5347 10850  5246 5247 10851  5246 5347 10851  5247 5348 10851  5347 5348 10851  5247 5248 10852  5247 5348 10852  5248 5349 10852  5348 5349 10852  5248 5249 10853  5248 5349 10853  5249 5350 10853  5349 5350 10853  5249 5250 10854  5249 5350 10854  5250 5351 10854  5350 5351 10854  5250 5251 10855  5250 5351 10855  5251 5352 10855  5351 5352 10855  5252 5253 10856  5252 5353 10856  5253 5354 10856  5353 5354 10856  5253 5254 10857  5253 5354 10857  5254 5355 10857  5354 5355 10857  5254 5255 10858  5254 5355 10858  5255 5356 10858  5355 5356 10858  5255 5256 10859  5255 5356 10859  5256 5357 10859  5356 5357 10859  5256 5257 10860  5256 5357 10860  5257 5358 10860  5357 5358 10860  5257 5258 10861  5257 5358 10861  5258 5359 10861  5358 5359 10861  5258 5259 10862  5258 5359 10862  5259 5360 10862  5359 5360 10862  5259 5260 10863  5259 5360 10863  5260 5361 10863  5360 5361 10863  5260 5261 10864  5260 5361 10864  5261 5362 10864  5361 5362 10864  5261 5262 10865  5261 5362 10865  5262 5363 10865  5362 5363 10865  5262 5263 10866  5262 5363 10866  5263 5364 10866  5363 5364 10866  5263 5264 10867  5263 5364 10867  5264 5365 10867  5364 5365 10867  5264 5265 10868  5264 5365 10868  5265 5366 10868  5365 5366 10868  5265 5266 10869  5265 5366 10869  5266 5367 10869  5366 5367 10869  5266 5267 10870  5266 5367 10870  5267 5368 10870  5367 5368 10870  5267 5268 10871  5267 5368 10871  5268 5369 10871  5368 5369 10871  5268 5269 10872  5268 5369 10872  5269 5370 10872  5369 5370 10872  5269 5270 10873  5269 5370 10873  5270 5371 10873  5370 5371 10873  5270 5271 10874  5270 5371 10874  5271 5372 10874  5371 5372 10874  5271 5272 10875  5271 5372 10875  5272 5373 10875  5372 5373 10875  5272 5273 10876  5272 5373 10876  5273 5374 10876  5373 5374 10876  5273 5274 10877  5273 5374 10877  5274 5375 10877  5374 5375 10877  5274 5275 10878  5274 5375 10878  5275 5376 10878  5375 5376 10878  5275 5276 10879  5275 5376 10879  5276 5377 10879  5376 5377 10879  5276 5277 10880  5276 5377 10880  5277 5378 10880  5377 5378 10880  5277 5278 10881  5277 5378 10881  5278 5379 10881  5378 5379 10881  5278 5279 10882  5278 5379 10882  5279 5380 10882  5379 5380 10882  5279 5280 10883  5279 5380 10883  5280 5381 10883  5380 5381 10883  5280 5281 10884  5280 5381 10884  5281 5382 10884  5381 5382 10884  5281 5282 10885  5281 5382 10885  5282 5383 10885  5382 5383 10885  5282 5283 10886  5282 5383 10886  5283 5384 10886  5383 5384 10886  5283 5284 10887  5283 5384 10887  5284 5385 10887  5384 5385 10887  5284 5285 10888  5284 5385 10888  5285 5386 10888  5385 5386 10888  5285 5286 10889  5285 5386 10889  5286 5387 10889  5386 5387 10889  5286 5287 10890  5286 5387 10890  5287 5388 10890  5387 5388 10890  5287 5288 10891  5287 5388 10891  5288 5389 10891  5388 5389 10891  5288 5289 10892  5288 5389 10892  5289 5390 10892  5389 5390 10892  5289 5290 10893  5289 5390 10893  5290 5391 10893  5390 5391 10893  5290 5291 10894  5290 5391 10894  5291 5392 10894  5391 5392 10894  5291 5292 10895  5291 5392 10895  5292 5393 10895  5392 5393 10895  5292 5293 10896  5292 5393 10896  5293 5394 10896  5393 5394 10896  5293 5294 10897  5293 5394 10897  5294 5395 10897  5394 5395 10897  5294 5295 10898  5294 5395 10898  5295 5396 10898  5395 5396 10898  5295 5296 10899  5295 5396 10899  5296 5397 10899  5396 5397 10899  5296 5297 10900  5296 5397 10900  5297 5398 10900  5397 5398 10900  5297 5298 10901  5297 5398 10901  5298 5399 10901  5398 5399 10901  5298 5299 10902  5298 5399 10902  5299 5400 10902  5399 5400 10902  5299 5300 10903  5299 5400 10903  5300 5401 10903  5400 5401 10903  5300 5301 10904  5300 5401 10904  5301 5402 10904  5401 5402 10904  5301 5302 10905  5301 5402 10905  5302 5403 10905  5402 5403 10905  5302 5303 10906  5302 5403 10906  5303 5404 10906  5403 5404 10906  5303 5304 10907  5303 5404 10907  5304 5405 10907  5404 5405 10907  5304 5305 10908  5304 5405 10908  5305 5406 10908  5405 5406 10908  5305 5306 10909  5305 5406 10909  5306 5407 10909  5406 5407 10909  5306 5307 10910  5306 5407 10910  5307 5408 10910  5407 5408 10910  5307 5308 10911  5307 5408 10911  5308 5409 10911  5408 5409 10911  5308 5309 10912  5308 5409 10912  5309 5410 10912  5409 5410 10912  5309 5310 10913  5309 5410 10913  5310 5411 10913  5410 5411 10913  5310 5311 10914  5310 5411 10914  5311 5412 10914  5411 5412 10914  5311 5312 10915  5311 5412 10915  5312 5413 10915  5412 5413 10915  5312 5313 10916  5312 5413 10916  5313 5414 10916  5413 5414 10916  5313 5314 10917  5313 5414 10917  5314 5415 10917  5414 5415 10917  5314 5315 10918  5314 5415 10918  5315 5416 10918  5415 5416 10918  5315 5316 10919  5315 5416 10919  5316 5417 10919  5416 5417 10919  5316 5317 10920  5316 5417 10920  5317 5418 10920  5417 5418 10920  5317 5318 10921  5317 5418 10921  5318 5419 10921  5418 5419 10921  5318 5319 10922  5318 5419 10922  5319 5420 10922  5419 5420 10922  5319 5320 10923  5319 5420 10923  5320 5421 10923  5420 5421 10923  5320 5321 10924  5320 5421 10924  5321 5422 10924  5421 5422 10924  5321 5322 10925  5321 5422 10925  5322 5423 10925  5422 5423 10925  5322 5323 10926  5322 5423 10926  5323 5424 10926  5423 5424 10926  5323 5324 10927  5323 5424 10927  5324 5425 10927  5424 5425 10927  5324 5325 10928  5324 5425 10928  5325 5426 10928  5425 5426 10928  5325 5326 10929  5325 5426 10929  5326 5427 10929  5426 5427 10929  5326 5327 10930  5326 5427 10930  5327 5428 10930  5427 5428 10930  5327 5328 10931  5327 5428 10931  5328 5429 10931  5428 5429 10931  5328 5329 10932  5328 5429 10932  5329 5430 10932  5429 5430 10932  5329 5330 10933  5329 5430 10933  5330 5431 10933  5430 5431 10933  5330 5331 10934  5330 5431 10934  5331 5432 10934  5431 5432 10934  5331 5332 10935  5331 5432 10935  5332 5433 10935  5432 5433 10935  5332 5333 10936  5332 5433 10936  5333 5434 10936  5433 5434 10936  5333 5334 10937  5333 5434 10937  5334 5435 10937  5434 5435 10937  5334 5335 10938  5334 5435 10938  5335 5436 10938  5435 5436 10938  5335 5336 10939  5335 5436 10939  5336 5437 10939  5436 5437 10939  5336 5337 10940  5336 5437 10940  5337 5438 10940  5437 5438 10940  5337 5338 10941  5337 5438 10941  5338 5439 10941  5438 5439 10941  5338 5339 10942  5338 5439 10942  5339 5440 10942  5439 5440 10942  5339 5340 10943  5339 5440 10943  5340 5441 10943  5440 5441 10943  5340 5341 10944  5340 5441 10944  5341 5442 10944  5441 5442 10944  5341 5342 10945  5341 5442 10945  5342 5443 10945  5442 5443 10945  5342 5343 10946  5342 5443 10946  5343 5444 10946  5443 5444 10946  5343 5344 10947  5343 5444 10947  5344 5445 10947  5444 5445 10947  5344 5345 10948  5344 5445 10948  5345 5446 10948  5445 5446 10948  5345 5346 10949  5345 5446 10949  5346 5447 10949  5446 5447 10949  5346 5347 10950  5346 5447 10950  5347 5448 10950  5447 5448 10950  5347 5348 10951  5347 5448 10951  5348 5449 10951  5448 5449 10951  5348 5349 10952  5348 5449 10952  5349 5450 10952  5449 5450 10952  5349 5350 10953  5349 5450 10953  5350 5451 10953  5450 5451 10953  5350 5351 10954  5350 5451 10954  5351 5452 10954  5451 5452 10954  5351 5352 10955  5351 5452 10955  5352 5453 10955  5452 5453 10955  5353 5354 10956  5353 5454 10956  5354 5455 10956  5454 5455 10956  5354 5355 10957  5354 5455 10957  5355 5456 10957  5455 5456 10957  5355 5356 10958  5355 5456 10958  5356 5457 10958  5456 5457 10958  5356 5357 10959  5356 5457 10959  5357 5458 10959  5457 5458 10959  5357 5358 10960  5357 5458 10960  5358 5459 10960  5458 5459 10960  5358 5359 10961  5358 5459 10961  5359 5460 10961  5459 5460 10961  5359 5360 10962  5359 5460 10962  5360 5461 10962  5460 5461 10962  5360 5361 10963  5360 5461 10963  5361 5462 10963  5461 5462 10963  5361 5362 10964  5361 5462 10964  5362 5463 10964  5462 5463 10964  5362 5363 10965  5362 5463 10965  5363 5464 10965  5463 5464 10965  5363 5364 10966  5363 5464 10966  5364 5465 10966  5464 5465 10966  5364 5365 10967  5364 5465 10967  5365 5466 10967  5465 5466 10967  5365 5366 10968  5365 5466 10968  5366 5467 10968  5466 5467 10968  5366 5367 10969  5366 5467 10969  5367 5468 10969  5467 5468 10969  5367 5368 10970  5367 5468 10970  5368 5469 10970  5468 5469 10970  5368 5369 10971  5368 5469 10971  5369 5470 10971  5469 5470 10971  5369 5370 10972  5369 5470 10972  5370 5471 10972  5470 5471 10972  5370 5371 10973  5370 5471 10973  5371 5472 10973  5471 5472 10973  5371 5372 10974  5371 5472 10974  5372 5473 10974  5472 5473 10974  5372 5373 10975  5372 5473 10975  5373 5474 10975  5473 5474 10975  5373 5374 10976  5373 5474 10976  5374 5475 10976  5474 5475 10976  5374 5375 10977  5374 5475 10977  5375 5476 10977  5475 5476 10977  5375 5376 10978  5375 5476 10978  5376 5477 10978  5476 5477 10978  5376 5377 10979  5376 5477 10979  5377 5478 10979  5477 5478 10979  5377 5378 10980  5377 5478 10980  5378 5479 10980  5478 5479 10980  5378 5379 10981  5378 5479 10981  5379 5480 10981  5479 5480 10981  5379 5380 10982  5379 5480 10982  5380 5481 10982  5480 5481 10982  5380 5381 10983  5380 5481 10983  5381 5482 10983  5481 5482 10983  5381 5382 10984  5381 5482 10984  5382 5483 10984  5482 5483 10984  5382 5383 10985  5382 5483 10985  5383 5484 10985  5483 5484 10985  5383 5384 10986  5383 5484 10986  5384 5485 10986  5484 5485 10986  5384 5385 10987  5384 5485 10987  5385 5486 10987  5485 5486 10987  5385 5386 10988  5385 5486 10988  5386 5487 10988  5486 5487 10988  5386 5387 10989  5386 5487 10989  5387 5488 10989  5487 5488 10989  5387 5388 10990  5387 5488 10990  5388 5489 10990  5488 5489 10990  5388 5389 10991  5388 5489 10991  5389 5490 10991  5489 5490 10991  5389 5390 10992  5389 5490 10992  5390 5491 10992  5490 5491 10992  5390 5391 10993  5390 5491 10993  5391 5492 10993  5491 5492 10993  5391 5392 10994  5391 5492 10994  5392 5493 10994  5492 5493 10994  5392 5393 10995  5392 5493 10995  5393 5494 10995  5493 5494 10995  5393 5394 10996  5393 5494 10996  5394 5495 10996  5494 5495 10996  5394 5395 10997  5394 5495 10997  5395 5496 10997  5495 5496 10997  5395 5396 10998  5395 5496 10998  5396 5497 10998  5496 5497 10998  5396 5397 10999  5396 5497 10999  5397 5498 10999  5497 5498 10999  5397 5398 11000  5397 5498 11000  5398 5499 11000  5498 5499 11000  5398 5399 11001  5398 5499 11001  5399 5500 11001  5499 5500 11001  5399 5400 11002  5399 5500 11002  5400 5501 11002  5500 5501 11002  5400 5401 11003  5400 5501 11003  5401 5502 11003  5501 5502 11003  5401 5402 11004  5401 5502 11004  5402 5503 11004  5502 5503 11004  5402 5403 11005  5402 5503 11005  5403 5504 11005  5503 5504 11005  5403 5404 11006  5403 5504 11006  5404 5505 11006  5504 5505 11006  5404 5405 11007  5404 5505 11007  5405 5506 11007  5505 5506 11007  5405 5406 11008  5405 5506 11008  5406 5507 11008  5506 5507 11008  5406 5407 11009  5406 5507 11009  5407 5508 11009  5507 5508 11009  5407 5408 11010  5407 5508 11010  5408 5509 11010  5508 5509 11010  5408 5409 11011  5408 5509 11011  5409 5510 11011  5509 5510 11011  5409 5410 11012  5409 5510 11012  5410 5511 11012  5510 5511 11012  5410 5411 11013  5410 5511 11013  5411 5512 11013  5511 5512 11013  5411 5412 11014  5411 5512 11014  5412 5513 11014  5512 5513 11014  5412 5413 11015  5412 5513 11015  5413 5514 11015  5513 5514 11015  5413 5414 11016  5413 5514 11016  5414 5515 11016  5514 5515 11016  5414 5415 11017  5414 5515 11017  5415 5516 11017  5515 5516 11017  5415 5416 11018  5415 5516 11018  5416 5517 11018  5516 5517 11018  5416 5417 11019  5416 5517 11019  5417 5518 11019  5517 5518 11019  5417 5418 11020  5417 5518 11020  5418 5519 11020  5518 5519 11020  5418 5419 11021  5418 5519 11021  5419 5520 11021  5519 5520 11021  5419 5420 11022  5419 5520 11022  5420 5521 11022  5520 5521 11022  5420 5421 11023  5420 5521 11023  5421 5522 11023  5521 5522 11023  5421 5422 11024  5421 5522 11024  5422 5523 11024  5522 5523 11024  5422 5423 11025  5422 5523 11025  5423 5524 11025  5523 5524 11025  5423 5424 11026  5423 5524 11026  5424 5525 11026  5524 5525 11026  5424 5425 11027  5424 5525 11027  5425 5526 11027  5525 5526 11027  5425 5426 11028  5425 5526 11028  5426 5527 11028  5526 5527 11028  5426 5427 11029  5426 5527 11029  5427 5528 11029  5527 5528 11029  5427 5428 11030  5427 5528 11030  5428 5529 11030  5528 5529 11030  5428 5429 11031  5428 5529 11031  5429 5530 11031  5529 5530 11031  5429 5430 11032  5429 5530 11032  5430 5531 11032  5530 5531 11032  5430 5431 11033  5430 5531 11033  5431 5532 11033  5531 5532 11033  5431 5432 11034  5431 5532 11034  5432 5533 11034  5532 5533 11034  5432 5433 11035  5432 5533 11035  5433 5534 11035  5533 5534 11035  5433 5434 11036  5433 5534 11036  5434 5535 11036  5534 5535 11036  5434 5435 11037  5434 5535 11037  5435 5536 11037  5535 5536 11037  5435 5436 11038  5435 5536 11038  5436 5537 11038  5536 5537 11038  5436 5437 11039  5436 5537 11039  5437 5538 11039  5537 5538 11039  5437 5438 11040  5437 5538 11040  5438 5539 11040  5538 5539 11040  5438 5439 11041  5438 5539 11041  5439 5540 11041  5539 5540 11041  5439 5440 11042  5439 5540 11042  5440 5541 11042  5540 5541 11042  5440 5441 11043  5440 5541 11043  5441 5542 11043  5541 5542 11043  5441 5442 11044  5441 5542 11044  5442 5543 11044  5542 5543 11044  5442 5443 11045  5442 5543 11045  5443 5544 11045  5543 5544 11045  5443 5444 11046  5443 5544 11046  5444 5545 11046  5544 5545 11046  5444 5445 11047  5444 5545 11047  5445 5546 11047  5545 5546 11047  5445 5446 11048  5445 5546 11048  5446 5547 11048  5546 5547 11048  5446 5447 11049  5446 5547 11049  5447 5548 11049  5547 5548 11049  5447 5448 11050  5447 5548 11050  5448 5549 11050  5548 5549 11050  5448 5449 11051  5448 5549 11051  5449 5550 11051  5549 5550 11051  5449 5450 11052  5449 5550 11052  5450 5551 11052  5550 5551 11052  5450 5451 11053  5450 5551 11053  5451 5552 11053  5551 5552 11053  5451 5452 11054  5451 5552 11054  5452 5553 11054  5552 5553 11054  5452 5453 11055  5452 5553 11055  5453 5554 11055  5553 5554 11055  5454 5455 11056  5454 5555 11056  5455 5556 11056  5555 5556 11056  5455 5456 11057  5455 5556 11057  5456 5557 11057  5556 5557 11057  5456 5457 11058  5456 5557 11058  5457 5558 11058  5557 5558 11058  5457 5458 11059  5457 5558 11059  5458 5559 11059  5558 5559 11059  5458 5459 11060  5458 5559 11060  5459 5560 11060  5559 5560 11060  5459 5460 11061  5459 5560 11061  5460 5561 11061  5560 5561 11061  5460 5461 11062  5460 5561 11062  5461 5562 11062  5561 5562 11062  5461 5462 11063  5461 5562 11063  5462 5563 11063  5562 5563 11063  5462 5463 11064  5462 5563 11064  5463 5564 11064  5563 5564 11064  5463 5464 11065  5463 5564 11065  5464 5565 11065  5564 5565 11065  5464 5465 11066  5464 5565 11066  5465 5566 11066  5565 5566 11066  5465 5466 11067  5465 5566 11067  5466 5567 11067  5566 5567 11067  5466 5467 11068  5466 5567 11068  5467 5568 11068  5567 5568 11068  5467 5468 11069  5467 5568 11069  5468 5569 11069  5568 5569 11069  5468 5469 11070  5468 5569 11070  5469 5570 11070  5569 5570 11070  5469 5470 11071  5469 5570 11071  5470 5571 11071  5570 5571 11071  5470 5471 11072  5470 5571 11072  5471 5572 11072  5571 5572 11072  5471 5472 11073  5471 5572 11073  5472 5573 11073  5572 5573 11073  5472 5473 11074  5472 5573 11074  5473 5574 11074  5573 5574 11074  5473 5474 11075  5473 5574 11075  5474 5575 11075  5574 5575 11075  5474 5475 11076  5474 5575 11076  5475 5576 11076  5575 5576 11076  5475 5476 11077  5475 5576 11077  5476 5577 11077  5576 5577 11077  5476 5477 11078  5476 5577 11078  5477 5578 11078  5577 5578 11078  5477 5478 11079  5477 5578 11079  5478 5579 11079  5578 5579 11079  5478 5479 11080  5478 5579 11080  5479 5580 11080  5579 5580 11080  5479 5480 11081  5479 5580 11081  5480 5581 11081  5580 5581 11081  5480 5481 11082  5480 5581 11082  5481 5582 11082  5581 5582 11082  5481 5482 11083  5481 5582 11083  5482 5583 11083  5582 5583 11083  5482 5483 11084  5482 5583 11084  5483 5584 11084  5583 5584 11084  5483 5484 11085  5483 5584 11085  5484 5585 11085  5584 5585 11085  5484 5485 11086  5484 5585 11086  5485 5586 11086  5585 5586 11086  5485 5486 11087  5485 5586 11087  5486 5587 11087  5586 5587 11087  5486 5487 11088  5486 5587 11088  5487 5588 11088  5587 5588 11088  5487 5488 11089  5487 5588 11089  5488 5589 11089  5588 5589 11089  5488 5489 11090  5488 5589 11090  5489 5590 11090  5589 5590 11090  5489 5490 11091  5489 5590 11091  5490 5591 11091  5590 5591 11091  5490 5491 11092  5490 5591 11092  5491 5592 11092  5591 5592 11092  5491 5492 11093  5491 5592 11093  5492 5593 11093  5592 5593 11093  5492 5493 11094  5492 5593 11094  5493 5594 11094  5593 5594 11094  5493 5494 11095  5493 5594 11095  5494 5595 11095  5594 5595 11095  5494 5495 11096  5494 5595 11096  5495 5596 11096  5595 5596 11096  5495 5496 11097  5495 5596 11097  5496 5597 11097  5596 5597 11097  5496 5497 11098  5496 5597 11098  5497 5598 11098  5597 5598 11098  5497 5498 11099  5497 5598 11099  5498 5599 11099  5598 5599 11099  5498 5499 11100  5498 5599 11100  5499 5600 11100  5599 5600 11100  5499 5500 11101  5499 5600 11101  5500 5601 11101  5600 5601 11101  5500 5501 11102  5500 5601 11102  5501 5602 11102  5601 5602 11102  5501 5502 11103  5501 5602 11103  5502 5603 11103  5602 5603 11103  5502 5503 11104  5502 5603 11104  5503 5604 11104  5603 5604 11104  5503 5504 11105  5503 5604 11105  5504 5605 11105  5604 5605 11105  5504 5505 11106  5504 5605 11106  5505 5606 11106  5605 5606 11106  5505 5506 11107  5505 5606 11107  5506 5607 11107  5606 5607 11107  5506 5507 11108  5506 5607 11108  5507 5608 11108  5607 5608 11108  5507 5508 11109  5507 5608 11109  5508 5609 11109  5608 5609 11109  5508 5509 11110  5508 5609 11110  5509 5610 11110  5609 5610 11110  5509 5510 11111  5509 5610 11111  5510 5611 11111  5610 5611 11111  5510 5511 11112  5510 5611 11112  5511 5612 11112  5611 5612 11112  5511 5512 11113  5511 5612 11113  5512 5613 11113  5612 5613 11113  5512 5513 11114  5512 5613 11114  5513 5614 11114  5613 5614 11114  5513 5514 11115  5513 5614 11115  5514 5615 11115  5614 5615 11115  5514 5515 11116  5514 5615 11116  5515 5616 11116  5615 5616 11116  5515 5516 11117  5515 5616 11117  5516 5617 11117  5616 5617 11117  5516 5517 11118  5516 5617 11118  5517 5618 11118  5617 5618 11118  5517 5518 11119  5517 5618 11119  5518 5619 11119  5618 5619 11119  5518 5519 11120  5518 5619 11120  5519 5620 11120  5619 5620 11120  5519 5520 11121  5519 5620 11121  5520 5621 11121  5620 5621 11121  5520 5521 11122  5520 5621 11122  5521 5622 11122  5621 5622 11122  5521 5522 11123  5521 5622 11123  5522 5623 11123  5622 5623 11123  5522 5523 11124  5522 5623 11124  5523 5624 11124  5623 5624 11124  5523 5524 11125  5523 5624 11125  5524 5625 11125  5624 5625 11125  5524 5525 11126  5524 5625 11126  5525 5626 11126  5625 5626 11126  5525 5526 11127  5525 5626 11127  5526 5627 11127  5626 5627 11127  5526 5527 11128  5526 5627 11128  5527 5628 11128  5627 5628 11128  5527 5528 11129  5527 5628 11129  5528 5629 11129  5628 5629 11129  5528 5529 11130  5528 5629 11130  5529 5630 11130  5629 5630 11130  5529 5530 11131  5529 5630 11131  5530 5631 11131  5630 5631 11131  5530 5531 11132  5530 5631 11132  5531 5632 11132  5631 5632 11132  5531 5532 11133  5531 5632 11133  5532 5633 11133  5632 5633 11133  5532 5533 11134  5532 5633 11134  5533 5634 11134  5633 5634 11134  5533 5534 11135  5533 5634 11135  5534 5635 11135  5634 5635 11135  5534 5535 11136  5534 5635 11136  5535 5636 11136  5635 5636 11136  5535 5536 11137  5535 5636 11137  5536 5637 11137  5636 5637 11137  5536 5537 11138  5536 5637 11138  5537 5638 11138  5637 5638 11138  5537 5538 11139  5537 5638 11139  5538 5639 11139  5638 5639 11139  5538 5539 11140  5538 5639 11140  5539 5640 11140  5639 5640 11140  5539 5540 11141  5539 5640 11141  5540 5641 11141  5640 5641 11141  5540 5541 11142  5540 5641 11142  5541 5642 11142  5641 5642 11142  5541 5542 11143  5541 5642 11143  5542 5643 11143  5642 5643 11143  5542 5543 11144  5542 5643 11144  5543 5644 11144  5643 5644 11144  5543 5544 11145  5543 5644 11145  5544 5645 11145  5644 5645 11145  5544 5545 11146  5544 5645 11146  5545 5646 11146  5645 5646 11146  5545 5546 11147  5545 5646 11147  5546 5647 11147  5646 5647 11147  5546 5547 11148  5546 5647 11148  5547 5648 11148  5647 5648 11148  5547 5548 11149  5547 5648 11149  5548 5649 11149  5648 5649 11149  5548 5549 11150  5548 5649 11150  5549 5650 11150  5649 5650 11150  5549 5550 11151  5549 5650 11151  5550 5651 11151  5650 5651 11151  5550 5551 11152  5550 5651 11152  5551 5652 11152  5651 5652 11152  5551 5552 11153  5551 5652 11153  5552 5653 11153  5652 5653 11153  5552 5553 11154  5552 5653 11154  5553 5654 11154  5653 5654 11154  5553 5554 11155  5553 5654 11155  5554 5655 11155  5654 5655 11155  </DataArray>
<DataArray  type="UInt32"  Name="offsets"  format="ascii">3 6 9 12 15 18 21 24 27 30 33 36 39 42 45 48 51 54 57 60 63 66 69 72 75 78 81 84 87 90 93 96 99 102 105 108 111 114 117 120 123 126 129 132 135 138 141 144 147 150 153 156 159 162 165 168 171 174 177 180 183 186 189 192 195 198 201 204 207 210 213 216 219 222 225 228 231 234 237 240 243 246 249 252 255 258 261 264 267 270 273 276 279 282 285 288 291 294 297 300 303 306 309 312 315 318 321 324 327 330 333 336 339 342 345 348 351 354 357 360 363 366 369 372 375 378 381 384 387 390 393 396 399 402 405 408 411 414 417 420 423 426 429 432 435 438 441 444 447 450 453 456 459 462 465 468 471 474 477 480 483 486 489 492 495 498 501 504 507 510 513 516 519 522 525 528 531 534 537 540 543 546 549 552 555 558 561 564 567 570 573 576 579 582 585 588 591 594 597 600 603 606 609 612 615 618 621 624 627 630 633 636 639 642 645 648 651 654 657 660 663 666 669 672 675 678 681 684 687 690 693 696 699 702 705 708 711 714 717 720 723 726 729 732 735 738 741 744 747 750 753 756 759 762 765 768 771 774 777 780 783 786 789 792 795 798 801 804 807 810 813 816 819 822 825 828 831 834 837 840 843 846 849 852 855 858 861 864 867 870 873 876 879 882 885 888 891 894 897 900 903 906 909 912 915 918 921 924 927 930 933 936 939 942 945 948 951 954 957 960 963 966 969 972 975 978 981 984 987 990 993 996 999 1002 1005 1008 1011 1014 1017 1020 1023 1026 1029 1032 1035 1038 1041 1044 1047 1050 1053 1056 1059 1062 1065 1068 1071 1074 1077 1080 1083 1086 1089 1092 1095 1098 1101 1104 1107 1110 1113 1116 1119 1122 1125 1128 1131 1134 1137 1140 1143 1146 1149 1152 1155 1158 1161 1164 1167 1170 1173 1176 1179 1182 1185 1188 1191 1194 1197 1200 1203 1206 1209 1212 1215 1218 1221 1224 1227 1230 1233 1236 1239 1242 1245 1248 1251 1254 1257 1260 1263 1266 1269 1272 1275 1278 1281 1284 1287 1290 1293 1296 1299 1302 1305 1308 1311 1314 1317 1320 1323 1326 1329 1332 1335 1338 1341 1344 1347 1350 1353 1356 1359 1362 1365 1368 1371 1374 1377 1380 1383 1386 1389 1392 1395 1398 1401 1404 1407 1410 1413 1416 1419 1422 1425 1428 1431 1434 1437 1440 1443 1446 1449 1452 1455 1458 1461 1464 1467 1470 1473 1476 1479 1482 1485 1488 1491 1494 1497 1500 1503 1506 1509 1512 1515 1518 1521 1524 1527 1530 1533 1536 1539 1542 1545 1548 1551 1554 1557 1560 1563 1566 1569 1572 1575 1578 1581 1584 1587 1590 1593 1596 1599 1602 1605 1608 1611 1614 1617 1620 1623 1626 1629 1632 1635 1638 1641 1644 1647 1650 1653 1656 1659 1662 1665 1668 1671 1674 1677 1680 1683 1686 1689 1692 1695 1698 1701 1704 1707 1710 1713 1716 1719 1722 1725 1728 1731 1734 1737 1740 1743 1746 1749 1752 1755 1758 1761 1764 1767 1770 1773 1776 1779 1782 1785 1788 1791 1794 1797 1800 1803 1806 1809 1812 1815 1818 1821 1824 1827 1830 1833 1836 1839 1842 1845 1848 1851 1854 1857 1860 1863 1866 1869 1872 1875 1878 1881 1884 1887 1890 1893 1896 1899 1902 1905 1908 1911 1914 1917 1920 1923 1926 1929 1932 1935 1938 1941 1944 1947 1950 1953 1956 1959 1962 1965 1968 1971 1974 1977 1980 1983 1986 1989 1992 1995 1998 2001 2004 2007 2010 2013 2016 2019 2022 2025 2028 2031 2034 2037 2040 2043 2046 2049 2052 2055 2058 2061 2064 2067 2070 2073 2076 2079 2082 2085 2088 2091 2094 2097 2100 2103 2106 2109 2112 2115 2118 2121 2124 2127 2130 2133 2136 2139 2142 2145 2148 2151 2154 2157 2160 2163 2166 2169 2172 2175 2178 2181 2184 2187 2190 2193 2196 2199 2202 2205 2208 2211 2214 2217 2220 2223 2226 2229 2232 2235 2238 2241 2244 2247 2250 2253 2256 2259 2262 2265 2268 2271 2274 2277 2280 2283 2286 2289 2292 2295 2298 2301 2304 2307 2310 2313 2316 2319 2322 2325 2328 2331 2334 2337 2340 2343 2346 2349 2352 2355 2358 2361 2364 2367 2370 2373 2376 2379 2382 2385 2388 2391 2394 2397 2400 2403 2406 2409 2412 2415 2418 2421 2424 2427 2430 2433 2436 2439 2442 2445 2448 2451 2454 2457 2460 2463 2466 2469 2472 2475 2478 2481 2484 2487 2490 2493 2496 2499 2502 2505 2508 2511 2514 2517 2520 2523 2526 2529 2532 2535 2538 2541 2544 2547 2550 2553 2556 2559 2562 2565 2568 2571 2574 2577 2580 2583 2586 2589 2592 2595 2598 2601 2604 2607 2610 2613 2616 2619 2622 2625 2628 2631 2634 2637 2640 2643 2646 2649 2652 2655 2658 2661 2664 2667 2670 2673 2676 2679 2682 2685 2688 2691 2694 2697 2700 2703 2706 2709 2712 2715 2718 2721 2724 2727 2730 2733 2736 2739 2742 2745 2748 2751 2754 2757 2760 2763 2766 2769 2772 2775 2778 2781 2784 2787 2790 2793 2796 2799 2802 2805 2808 2811 2814 2817 2820 2823 2826 2829 2832 2835 2838 2841 2844 2847 2850 2853 2856 2859 2862 2865 2868 2871 2874 2877 2880 2883 2886 2889 2892 2895 2898 2901 2904 2907 2910 2913 2916 2919 2922 2925 2928 2931 2934 2937 2940 2943 2946 2949 2952 2955 2958 2961 2964 2967 2970 2973 2976 2979 2982 2985 2988 2991 2994 2997 3000 3003 3006 3009 3012 3015 3018 3021 3024 3027 3030 3033 3036 3039 3042 3045 3048 3051 3054 3057 3060 3063 3066 3069 3072 3075 3078 3081 3084 3087 3090 3093 3096 3099 3102 3105 3108 3111 3114 3117 3120 3123 3126 3129 3132 3135 3138 3141 3144 3147 3150 3153 3156 3159 3162 3165 3168 3171 3174 3177 3180 3183 3186 3189 3192 3195 3198 3201 3204 3207 3210 3213 3216 3219 3222 3225 3228 3231 3234 3237 3240 3243 3246 3249 3252 3255 3258 3261 3264 3267 3270 3273 3276 3279 3282 3285 3288 3291 3294 3297 3300 3303 3306 3309 3312 3315 3318 3321 3324 3327 3330 3333 3336 3339 3342 3345 3348 3351 3354 3357 3360 3363 3366 3369 3372 3375 3378 3381 3384 3387 3390 3393 3396 3399 3402 3405 3408 3411 3414 3417 3420 3423 3426 3429 3432 3435 3438 3441 3444 3447 3450 3453 3456 3459 3462 3465 3468 3471 3474 3477 3480 3483 3486 3489 3492 3495 3498 3501 3504 3507 3510 3513 3516 3519 3522 3525 3528 3531 3534 3537 3540 3543 3546 3549 3552 3555 3558 3561 3564 3567 3570 3573 3576 3579 3582 3585 3588 3591 3594 3597 3600 3603 3606 3609 3612 3615 3618 3621 3624 3627 3630 3633 3636 3639 3642 3645 3648 3651 3654 3657 3660 3663 3666 3669 3672 3675 3678 3681 3684 3687 3690 3693 3696 3699 3702 3705 3708 3711 3714 3717 3720 3723 3726 3729 3732 3735 3738 3741 3744 3747 3750 3753 3756 3759 3762 3765 3768 3771 3774 3777 3780 3783 3786 3789 3792 3795 3798 3801 3804 3807 3810 3813 3816 3819 3822 3825 3828 3831 3834 3837 3840 3843 3846 3849 3852 3855 3858 3861 3864 3867 3870 3873 3876 3879 3882 3885 3888 3891 3894 3897 3900 3903 3906 3909 3912 3915 3918 3921 3924 3927 3930 3933 3936 3939 3942 3945 3948 3951 3954 3957 3960 3963 3966 3969 3972 3975 3978 3981 3984 3987 3990 3993 3996 3999 4002 4005 4008 4011 4014 4017 4020 4023 4026 4029 4032 4035 4038 4041 4044 4047 4050 4053 4056 4059 4062 4065 4068 4071 4074 4077 4080 4083 4086 4089 4092 4095 4098 4101 4104 4107 4110 4113 4116 4119 4122 4125 4128 4131 4134 4137 4140 4143 4146 4149 4152 4155 4158 4161 4164 4167 4170 4173 4176 4179 4182 4185 4188 4191 4194 4197 4200 4203 4206 4209 4212 4215 4218 4221 4224 4227 4230 4233 4236 4239 4242 4245 4248 4251 4254 4257 4260 4263 4266 4269 4272 4275 4278 4281 4284 4287 4290 4293 4296 4299 4302 4305 4308 4311 4314 4317 4320 4323 4326 4329 4332 4335 4338 4341 4344 4347 4350 4353 4356 4359 4362 4365 4368 4371 4374 4377 4380 4383 4386 4389 4392 4395 4398 4401 4404 4407 4410 4413 4416 4419 4422 4425 4428 4431 4434 4437 4440 4443 4446 4449 4452 4455 4458 4461 4464 4467 4470 4473 4476 4479 4482 4485 4488 4491 4494 4497 4500 4503 4506 4509 4512 4515 4518 4521 4524 4527 4530 4533 4536 4539 4542 4545 4548 4551 4554 4557 4560 4563 4566 4569 4572 4575 4578 4581 4584 4587 4590 4593 4596 4599 4602 4605 4608 4611 4614 4617 4620 4623 4626 4629 4632 4635 4638 4641 4644 4647 4650 4653 4656 4659 4662 4665 4668 4671 4674 4677 4680 4683 4686 4689 4692 4695 4698 4701 4704 4707 4710 4713 4716 4719 4722 4725 4728 4731 4734 4737 4740 4743 4746 4749 4752 4755 4758 4761 4764 4767 4770 4773 4776 4779 4782 4785 4788 4791 4794 4797 4800 4803 4806 4809 4812 4815 4818 4821 4824 4827 4830 4833 4836 4839 4842 4845 4848 4851 4854 4857 4860 4863 4866 4869 4872 4875 4878 4881 4884 4887 4890 4893 4896 4899 4902 4905 4908 4911 4914 4917 4920 4923 4926 4929 4932 4935 4938 4941 4944 4947 4950 4953 4956 4959 4962 4965 4968 4971 4974 4977 4980 4983 4986 4989 4992 4995 4998 5001 5004 5007 5010 5013 5016 5019 5022 5025 5028 5031 5034 5037 5040 5043 5046 5049 5052 5055 5058 5061 5064 5067 5070 5073 5076 5079 5082 5085 5088 5091 5094 5097 5100 5103 5106 5109 5112 5115 5118 5121 5124 5127 5130 5133 5136 5139 5142 5145 5148 5151 5154 5157 5160 5163 5166 5169 5172 5175 5178 5181 5184 5187 5190 5193 5196 5199 5202 5205 5208 5211 5214 5217 5220 5223 5226 5229 5232 5235 5238 5241 5244 5247 5250 5253 5256 5259 5262 5265 5268 5271 5274 5277 5280 5283 5286 5289 5292 5295 5298 5301 5304 5307 5310 5313 5316 5319 5322 5325 5328 5331 5334 5337 5340 5343 5346 5349 5352 5355 5358 5361 5364 5367 5370 5373 5376 5379 5382 5385 5388 5391 5394 5397 5400 5403 5406 5409 5412 5415 5418 5421 5424 5427 5430 5433 5436 5439 5442 5445 5448 5451 5454 5457 5460 5463 5466 5469 5472 5475 5478 5481 5484 5487 5490 5493 5496 5499 5502 5505 5508 5511 5514 5517 5520 5523 5526 5529 5532 5535 5538 5541 5544 5547 5550 5553 5556 5559 5562 5565 5568 5571 5574 5577 5580 5583 5586 5589 5592 5595 5598 5601 5604 5607 5610 5613 5616 5619 5622 5625 5628 5631 5634 5637 5640 5643 5646 5649 5652 5655 5658 5661 5664 5667 5670 5673 5676 5679 5682 5685 5688 5691 5694 5697 5700 5703 5706 5709 5712 5715 5718 5721 5724 5727 5730 5733 5736 5739 5742 5745 5748 5751 5754 5757 5760 5763 5766 5769 5772 5775 5778 5781 5784 5787 5790 5793 5796 5799 5802 5805 5808 5811 5814 5817 5820 5823 5826 5829 5832 5835 5838 5841 5844 5847 5850 5853 5856 5859 5862 5865 5868 5871 5874 5877 5880 5883 5886 5889 5892 5895 5898 5901 5904 5907 5910 5913 5916 5919 5922 5925 5928 5931 5934 5937 5940 5943 5946 5949 5952 5955 5958 5961 5964 5967 5970 5973 5976 5979 5982 5985 5988 5991 5994 5997 6000 6003 6006 6009 6012 6015 6018 6021 6024 6027 6030 6033 6036 6039 6042 6045 6048 6051 6054 6057 6060 6063 6066 6069 6072 6075 6078 6081 6084 6087 6090 6093 6096 6099 6102 6105 6108 6111 6114 6117 6120 6123 6126 6129 6132 6135 6138 6141 6144 6147 6150 6153 6156 6159 6162 6165 6168 6171 6174 6177 6180 6183 6186 6189 6192 6195 6198 6201 6204 6207 6210 6213 6216 6219 6222 6225 6228 6231 6234 6237 6240 6243 6246 6249 6252 6255 6258 6261 6264 6267 6270 6273 6276 6279 6282 6285 6288 6291 6294 6297 6300 6303 6306 6309 6312 6315 6318 6321 6324 6327 6330 6333 6336 6339 6342 6345 6348 6351 6354 6357 6360 6363 6366 6369 6372 6375 6378 6381 6384 6387 6390 6393 6396 6399 6402 6405 6408 6411 6414 6417 6420 6423 6426 6429 6432 6435 6438 6441 6444 6447 6450 6453 6456 6459 6462 6465 6468 6471 6474 6477 6480 6483 6486 6489 6492 6495 6498 6501 6504 6507 6510 6513 6516 6519 6522 6525 6528 6531 6534 6537 6540 6543 6546 6549 6552 6555 6558 6561 6564 6567 6570 6573 6576 6579 6582 6585 6588 6591 6594 6597 6600 6603 6606 6609 6612 6615 6618 6621 6624 6627 6630 6633 6636 6639 6642 6645 6648 6651 6654 6657 6660 6663 6666 6669 6672 6675 6678 6681 6684 6687 6690 6693 6696 6699 6702 6705 6708 6711 6714 6717 6720 6723 6726 6729 6732 6735 6738 6741 6744 6747 6750 6753 6756 6759 6762 6765 6768 6771 6774 6777 6780 6783 6786 6789 6792 6795 6798 6801 6804 6807 6810 6813 6816 6819 6822 6825 6828 6831 6834 6837 6840 6843 6846 6849 6852 6855 6858 6861 6864 6867 6870 6873 6876 6879 6882 6885 6888 6891 6894 6897 6900 6903 6906 6909 6912 6915 6918 6921 6924 6927 6930 6933 6936 6939 6942 6945 6948 6951 6954 6957 6960 6963 6966 6969 6972 6975 6978 6981 6984 6987 6990 6993 6996 6999 7002 7005 7008 7011 7014 7017 7020 7023 7026 7029 7032 7035 7038 7041 7044 7047 7050 7053 7056 7059 7062 7065 7068 7071 7074 7077 7080 7083 7086 7089 7092 7095 7098 7101 7104 7107 7110 7113 7116 7119 7122 7125 7128 7131 7134 7137 7140 7143 7146 7149 7152 7155 7158 7161 7164 7167 7170 7173 7176 7179 7182 7185 7188 7191 7194 7197 7200 7203 7206 7209 7212 7215 7218 7221 7224 7227 7230 7233 7236 7239 7242 7245 7248 7251 7254 7257 7260 7263 7266 7269 7272 7275 7278 7281 7284 7287 7290 7293 7296 7299 7302 7305 7308 7311 7314 7317 7320 7323 7326 7329 7332 7335 7338 7341 7344 7347 7350 7353 7356 7359 7362 7365 7368 7371 7374 7377 7380 7383 7386 7389 7392 7395 7398 7401 7404 7407 7410 7413 7416 7419 7422 7425 7428 7431 7434 7437 7440 7443 7446 7449 7452 7455 7458 7461 7464 7467 7470 7473 7476 7479 7482 7485 7488 7491 7494 7497 7500 7503 7506 7509 7512 7515 7518 7521 7524 7527 7530 7533 7536 7539 7542 7545 7548 7551 7554 7557 7560 7563 7566 7569 7572 7575 7578 7581 7584 7587 7590 7593 7596 7599 7602 7605 7608 7611 7614 7617 7620 7623 7626 7629 7632 7635 7638 7641 7644 7647 7650 7653 7656 7659 7662 7665 7668 7671 7674 7677 7680 7683 7686 7689 7692 7695 7698 7701 7704 7707 7710 7713 7716 7719 7722 7725 7728 7731 7734 7737 7740 7743 7746 7749 7752 7755 7758 7761 7764 7767 7770 7773 7776 7779 7782 7785 7788 7791 7794 7797 7800 7803 7806 7809 7812 7815 7818 7821 7824 7827 7830 7833 7836 7839 7842 7845 7848 7851 7854 7857 7860 7863 7866 7869 7872 7875 7878 7881 7884 7887 7890 7893 7896 7899 7902 7905 7908 7911 7914 7917 7920 7923 7926 7929 7932 7935 7938 7941 7944 7947 7950 7953 7956 7959 7962 7965 7968 7971 7974 7977 7980 7983 7986 7989 7992 7995 7998 8001 8004 8007 8010 8013 8016 8019 8022 8025 8028 8031 8034 8037 8040 8043 8046 8049 8052 8055 8058 8061 8064 8067 8070 8073 8076 8079 8082 8085 8088 8091 8094 8097 8100 8103 8106 8109 8112 8115 8118 8121 8124 8127 8130 8133 8136 8139 8142 8145 8148 8151 8154 8157 8160 8163 8166 8169 8172 8175 8178 8181 8184 8187 8190 8193 8196 8199 8202 8205 8208 8211 8214 8217 8220 8223 8226 8229 8232 8235 8238 8241 8244 8247 8250 8253 8256 8259 8262 8265 8268 8271 8274 8277 8280 8283 8286 8289 8292 8295 8298 8301 8304 8307 8310 8313 8316 8319 8322 8325 8328 8331 8334 8337 8340 8343 8346 8349 8352 8355 8358 8361 8364 8367 8370 8373 8376 8379 8382 8385 8388 8391 8394 8397 8400 8403 8406 8409 8412 8415 8418 8421 8424 8427 8430 8433 8436 8439 8442 8445 8448 8451 8454 8457 8460 8463 8466 8469 8472 8475 8478 8481 8484 8487 8490 8493 8496 8499 8502 8505 8508 8511 8514 8517 8520 8523 8526 8529 8532 8535 8538 8541 8544 8547 8550 8553 8556 8559 8562 8565 8568 8571 8574 8577 8580 8583 8586 8589 8592 8595 8598 8601 8604 8607 8610 8613 8616 8619 8622 8625 8628 8631 8634 8637 8640 8643 8646 8649 8652 8655 8658 8661 8664 8667 8670 8673 8676 8679 8682 8685 8688 8691 8694 8697 8700 8703 8706 8709 8712 8715 8718 8721 8724 8727 8730 8733 8736 8739 8742 8745 8748 8751 8754 8757 8760 8763 8766 8769 8772 8775 8778 8781 8784 8787 8790 8793 8796 8799 8802 8805 8808 8811 8814 8817 8820 8823 8826 8829 8832 8835 8838 8841 8844 8847 8850 8853 8856 8859 8862 8865 8868 8871 8874 8877 8880 8883 8886 8889 8892 8895 8898 8901 8904 8907 8910 8913 8916 8919 8922 8925 8928 8931 8934 8937 8940 8943 8946 8949 8952 8955 8958 8961 8964 8967 8970 8973 8976 8979 8982 8985 8988 8991 8994 8997 9000 9003 9006 9009 9012 9015 9018 9021 9024 9027 9030 9033 9036 9039 9042 9045 9048 9051 9054 9057 9060 9063 9066 9069 9072 9075 9078 9081 9084 9087 9090 9093 9096 9099 9102 9105 9108 9111 9114 9117 9120 9123 9126 9129 9132 9135 9138 9141 9144 9147 9150 9153 9156 9159 9162 9165 9168 9171 9174 9177 9180 9183 9186 9189 9192 9195 9198 9201 9204 9207 9210 9213 9216 9219 9222 9225 9228 9231 9234 9237 9240 9243 9246 9249 9252 9255 9258 9261 9264 9267 9270 9273 9276 9279 9282 9285 9288 9291 9294 9297 9300 9303 9306 9309 9312 9315 9318 9321 9324 9327 9330 9333 9336 9339 9342 9345 9348 9351 9354 9357 9360 9363 9366 9369 9372 9375 9378 9381 9384 9387 9390 9393 9396 9399 9402 9405 9408 9411 9414 9417 9420 9423 9426 9429 9432 9435 9438 9441 9444 9447 9450 9453 9456 9459 9462 9465 9468 9471 9474 9477 9480 9483 9486 9489 9492 9495 9498 9501 9504 9507 9510 9513 9516 9519 9522 9525 9528 9531 9534 9537 9540 9543 9546 9549 9552 9555 9558 9561 9564 9567 9570 9573 9576 9579 9582 9585 9588 9591 9594 9597 9600 9603 9606 9609 9612 9615 9618 9621 9624 9627 9630 9633 9636 9639 9642 9645 9648 9651 9654 9657 9660 9663 9666 9669 9672 9675 9678 9681 9684 9687 9690 9693 9696 9699 9702 9705 9708 9711 9714 9717 9720 9723 9726 9729 9732 9735 9738 9741 9744 9747 9750 9753 9756 9759 9762 9765 9768 9771 9774 9777 9780 9783 9786 9789 9792 9795 9798 9801 9804 9807 9810 9813 9816 9819 9822 9825 9828 9831 9834 9837 9840 9843 9846 9849 9852 9855 9858 9861 9864 9867 9870 9873 9876 9879 9882 9885 9888 9891 9894 9897 9900 9903 9906 9909 9912 9915 9918 9921 9924 9927 9930 9933 9936 9939 9942 9945 9948 9951 9954 9957 9960 9963 9966 9969 9972 9975 9978 9981 9984 9987 9990 9993 9996 9999 10002 10005 10008 10011 10014 10017 10020 10023 10026 10029 10032 10035 10038 10041 10044 10047 10050 10053 10056 10059 10062 10065 10068 10071 10074 10077 10080 10083 10086 10089 10092 10095 10098 10101 10104 10107 10110 10113 10116 10119 10122 10125 10128 10131 10134 10137 10140 10143 10146 10149 10152 10155 10158 10161 10164 10167 10170 10173 10176 10179 10182 10185 10188 10191 10194 10197 10200 10203 10206 10209 10212 10215 10218 10221 10224 10227 10230 10233 10236 10239 10242 10245 10248 10251 10254 10257 10260 10263 10266 10269 10272 10275 10278 10281 10284 10287 10290 10293 10296 10299 10302 10305 10308 10311 10314 10317 10320 10323 10326 10329 10332 10335 10338 10341 10344 10347 10350 10353 10356 10359 10362 10365 10368 10371 10374 10377 10380 10383 10386 10389 10392 10395 10398 10401 10404 10407 10410 10413 10416 10419 10422 10425 10428 10431 10434 10437 10440 10443 10446 10449 10452 10455 10458 10461 10464 10467 10470 10473 10476 10479 10482 10485 10488 10491 10494 10497 10500 10503 10506 10509 10512 10515 10518 10521 10524 10527 10530 10533 10536 10539 10542 10545 10548 10551 10554 10557 10560 10563 10566 10569 10572 10575 10578 10581 10584 10587 10590 10593 10596 10599 10602 10605 10608 10611 10614 10617 10620 10623 10626 10629 10632 10635 10638 10641 10644 10647 10650 10653 10656 10659 10662 10665 10668 10671 10674 10677 10680 10683 10686 10689 10692 10695 10698 10701 10704 10707 10710 10713 10716 10719 10722 10725 10728 10731 10734 10737 10740 10743 10746 10749 10752 10755 10758 10761 10764 10767 10770 10773 10776 10779 10782 10785 10788 10791 10794 10797 10800 10803 10806 10809 10812 10815 10818 10821 10824 10827 10830 10833 10836 10839 10842 10845 10848 10851 10854 10857 10860 10863 10866 10869 10872 10875 10878 10881 10884 10887 10890 10893 10896 10899 10902 10905 10908 10911 10914 10917 10920 10923 10926 10929 10932 10935 10938 10941 10944 10947 10950 10953 10956 10959 10962 10965 10968 10971 10974 10977 10980 10983 10986 10989 10992 10995 10998 11001 11004 11007 11010 11013 11016 11019 11022 11025 11028 11031 11034 11037 11040 11043 11046 11049 11052 11055 11058 11061 11064 11067 11070 11073 11076 11079 11082 11085 11088 11091 11094 11097 11100 11103 11106 11109 11112 11115 11118 11121 11124 11127 11130 11133 11136 11139 11142 11145 11148 11151 11154 11157 11160 11163 11166 11169 11172 11175 11178 11181 11184 11187 11190 11193 11196 11199 11202 11205 11208 11211 11214 11217 11220 11223 11226 11229 11232 11235 11238 11241 11244 11247 11250 11253 11256 11259 11262 11265 11268 11271 11274 11277 11280 11283 11286 11289 11292 11295 11298 11301 11304 11307 11310 11313 11316 11319 11322 11325 11328 11331 11334 11337 11340 11343 11346 11349 11352 11355 11358 11361 11364 11367 11370 11373 11376 11379 11382 11385 11388 11391 11394 11397 11400 11403 11406 11409 11412 11415 11418 11421 11424 11427 11430 11433 11436 11439 11442 11445 11448 11451 11454 11457 11460 11463 11466 11469 11472 11475 11478 11481 11484 11487 11490 11493 11496 11499 11502 11505 11508 11511 11514 11517 11520 11523 11526 11529 11532 11535 11538 11541 11544 11547 11550 11553 11556 11559 11562 11565 11568 11571 11574 11577 11580 11583 11586 11589 11592 11595 11598 11601 11604 11607 11610 11613 11616 11619 11622 11625 11628 11631 11634 11637 11640 11643 11646 11649 11652 11655 11658 11661 11664 11667 11670 11673 11676 11679 11682 11685 11688 11691 11694 11697 11700 11703 11706 11709 11712 11715 11718 11721 11724 11727 11730 11733 11736 11739 11742 11745 11748 11751 11754 11757 11760 11763 11766 11769 11772 11775 11778 11781 11784 11787 11790 11793 11796 11799 11802 11805 11808 11811 11814 11817 11820 11823 11826 11829 11832 11835 11838 11841 11844 11847 11850 11853 11856 11859 11862 11865 11868 11871 11874 11877 11880 11883 11886 11889 11892 11895 11898 11901 11904 11907 11910 11913 11916 11919 11922 11925 11928 11931 11934 11937 11940 11943 11946 11949 11952 11955 11958 11961 11964 11967 11970 11973 11976 11979 11982 11985 11988 11991 11994 11997 12000 12003 12006 12009 12012 12015 12018 12021 12024 12027 12030 12033 12036 12039 12042 12045 12048 12051 12054 12057 12060 12063 12066 12069 12072 12075 12078 12081 12084 12087 12090 12093 12096 12099 12102 12105 12108 12111 12114 12117 12120 12123 12126 12129 12132 12135 12138 12141 12144 12147 12150 12153 12156 12159 12162 12165 12168 12171 12174 12177 12180 12183 12186 12189 12192 12195 12198 12201 12204 12207 12210 12213 12216 12219 12222 12225 12228 12231 12234 12237 12240 12243 12246 12249 12252 12255 12258 12261 12264 12267 12270 12273 12276 12279 12282 12285 12288 12291 12294 12297 12300 12303 12306 12309 12312 12315 12318 12321 12324 12327 12330 12333 12336 12339 12342 12345 12348 12351 12354 12357 12360 12363 12366 12369 12372 12375 12378 12381 12384 12387 12390 12393 12396 12399 12402 12405 12408 12411 12414 12417 12420 12423 12426 12429 12432 12435 12438 12441 12444 12447 12450 12453 12456 12459 12462 12465 12468 12471 12474 12477 12480 12483 12486 12489 12492 12495 12498 12501 12504 12507 12510 12513 12516 12519 12522 12525 12528 12531 12534 12537 12540 12543 12546 12549 12552 12555 12558 12561 12564 12567 12570 12573 12576 12579 12582 12585 12588 12591 12594 12597 12600 12603 12606 12609 12612 12615 12618 12621 12624 12627 12630 12633 12636 12639 12642 12645 12648 12651 12654 12657 12660 12663 12666 12669 12672 12675 12678 12681 12684 12687 12690 12693 12696 12699 12702 12705 12708 12711 12714 12717 12720 12723 12726 12729 12732 12735 12738 12741 12744 12747 12750 12753 12756 12759 12762 12765 12768 12771 12774 12777 12780 12783 12786 12789 12792 12795 12798 12801 12804 12807 12810 12813 12816 12819 12822 12825 12828 12831 12834 12837 12840 12843 12846 12849 12852 12855 12858 12861 12864 12867 12870 12873 12876 12879 12882 12885 12888 12891 12894 12897 12900 12903 12906 12909 12912 12915 12918 12921 12924 12927 12930 12933 12936 12939 12942 12945 12948 12951 12954 12957 12960 12963 12966 12969 12972 12975 12978 12981 12984 12987 12990 12993 12996 12999 13002 13005 13008 13011 13014 13017 13020 13023 13026 13029 13032 13035 13038 13041 13044 13047 13050 13053 13056 13059 13062 13065 13068 13071 13074 13077 13080 13083 13086 13089 13092 13095 13098 13101 13104 13107 13110 13113 13116 13119 13122 13125 13128 13131 13134 13137 13140 13143 13146 13149 13152 13155 13158 13161 13164 13167 13170 13173 13176 13179 13182 13185 13188 13191 13194 13197 13200 13203 13206 13209 13212 13215 13218 13221 13224 13227 13230 13233 13236 13239 13242 13245 13248 13251 13254 13257 13260 13263 13266 13269 13272 13275 13278 13281 13284 13287 13290 13293 13296 13299 13302 13305 13308 13311 13314 13317 13320 13323 13326 13329 13332 13335 13338 13341 13344 13347 13350 13353 13356 13359 13362 13365 13368 13371 13374 13377 13380 13383 13386 13389 13392 13395 13398 13401 13404 13407 13410 13413 13416 13419 13422 13425 13428 13431 13434 13437 13440 13443 13446 13449 13452 13455 13458 13461 13464 13467 13470 13473 13476 13479 13482 13485 13488 13491 13494 13497 13500 13503 13506 13509 13512 13515 13518 13521 13524 13527 13530 13533 13536 13539 13542 13545 13548 13551 13554 13557 13560 13563 13566 13569 13572 13575 13578 13581 13584 13587 13590 13593 13596 13599 13602 13605 13608 13611 13614 13617 13620 13623 13626 13629 13632 13635 13638 13641 13644 13647 13650 13653 13656 13659 13662 13665 13668 13671 13674 13677 13680 13683 13686 13689 13692 13695 13698 13701 13704 13707 13710 13713 13716 13719 13722 13725 13728 13731 13734 13737 13740 13743 13746 13749 13752 13755 13758 13761 13764 13767 13770 13773 13776 13779 13782 13785 13788 13791 13794 13797 13800 13803 13806 13809 13812 13815 13818 13821 13824 13827 13830 13833 13836 13839 13842 13845 13848 13851 13854 13857 13860 13863 13866 13869 13872 13875 13878 13881 13884 13887 13890 13893 13896 13899 13902 13905 13908 13911 13914 13917 13920 13923 13926 13929 13932 13935 13938 13941 13944 13947 13950 13953 13956 13959 13962 13965 13968 13971 13974 13977 13980 13983 13986 13989 13992 13995 13998 14001 14004 14007 14010 14013 14016 14019 14022 14025 14028 14031 14034 14037 14040 14043 14046 14049 14052 14055 14058 14061 14064 14067 14070 14073 14076 14079 14082 14085 14088 14091 14094 14097 14100 14103 14106 14109 14112 14115 14118 14121 14124 14127 14130 14133 14136 14139 14142 14145 14148 14151 14154 14157 14160 14163 14166 14169 14172 14175 14178 14181 14184 14187 14190 14193 14196 14199 14202 14205 14208 14211 14214 14217 14220 14223 14226 14229 14232 14235 14238 14241 14244 14247 14250 14253 14256 14259 14262 14265 14268 14271 14274 14277 14280 14283 14286 14289 14292 14295 14298 14301 14304 14307 14310 14313 14316 14319 14322 14325 14328 14331 14334 14337 14340 14343 14346 14349 14352 14355 14358 14361 14364 14367 14370 14373 14376 14379 14382 14385 14388 14391 14394 14397 14400 14403 14406 14409 14412 14415 14418 14421 14424 14427 14430 14433 14436 14439 14442 14445 14448 14451 14454 14457 14460 14463 14466 14469 14472 14475 14478 14481 14484 14487 14490 14493 14496 14499 14502 14505 14508 14511 14514 14517 14520 14523 14526 14529 14532 14535 14538 14541 14544 14547 14550 14553 14556 14559 14562 14565 14568 14571 14574 14577 14580 14583 14586 14589 14592 14595 14598 14601 14604 14607 14610 14613 14616 14619 14622 14625 14628 14631 14634 14637 14640 14643 14646 14649 14652 14655 14658 14661 14664 14667 14670 14673 14676 14679 14682 14685 14688 14691 14694 14697 14700 14703 14706 14709 14712 14715 14718 14721 14724 14727 14730 14733 14736 14739 14742 14745 14748 14751 14754 14757 14760 14763 14766 14769 14772 14775 14778 14781 14784 14787 14790 14793 14796 14799 14802 14805 14808 14811 14814 14817 14820 14823 14826 14829 14832 14835 14838 14841 14844 14847 14850 14853 14856 14859 14862 14865 14868 14871 14874 14877 14880 14883 14886 14889 14892 14895 14898 14901 14904 14907 14910 14913 14916 14919 14922 14925 14928 14931 14934 14937 14940 14943 14946 14949 14952 14955 14958 14961 14964 14967 14970 14973 14976 14979 14982 14985 14988 14991 14994 14997 15000 15003 15006 15009 15012 15015 15018 15021 15024 15027 15030 15033 15036 15039 15042 15045 15048 15051 15054 15057 15060 15063 15066 15069 15072 15075 15078 15081 15084 15087 15090 15093 15096 15099 15102 15105 15108 15111 15114 15117 15120 15123 15126 15129 15132 15135 15138 15141 15144 15147 15150 15153 15156 15159 15162 15165 15168 15171 15174 15177 15180 15183 15186 15189 15192 15195 15198 15201 15204 15207 15210 15213 15216 15219 15222 15225 15228 15231 15234 15237 15240 15243 15246 15249 15252 15255 15258 15261 15264 15267 15270 15273 15276 15279 15282 15285 15288 15291 15294 15297 15300 15303 15306 15309 15312 15315 15318 15321 15324 15327 15330 15333 15336 15339 15342 15345 15348 15351 15354 15357 15360 15363 15366 15369 15372 15375 15378 15381 15384 15387 15390 15393 15396 15399 15402 15405 15408 15411 15414 15417 15420 15423 15426 15429 15432 15435 15438 15441 15444 15447 15450 15453 15456 15459 15462 15465 15468 15471 15474 15477 15480 15483 15486 15489 15492 15495 15498 15501 15504 15507 15510 15513 15516 15519 15522 15525 15528 15531 15534 15537 15540 15543 15546 15549 15552 15555 15558 15561 15564 15567 15570 15573 15576 15579 15582 15585 15588 15591 15594 15597 15600 15603 15606 15609 15612 15615 15618 15621 15624 15627 15630 15633 15636 15639 15642 15645 15648 15651 15654 15657 15660 15663 15666 15669 15672 15675 15678 15681 15684 15687 15690 15693 15696 15699 15702 15705 15708 15711 15714 15717 15720 15723 15726 15729 15732 15735 15738 15741 15744 15747 15750 15753 15756 15759 15762 15765 15768 15771 15774 15777 15780 15783 15786 15789 15792 15795 15798 15801 15804 15807 15810 15813 15816 15819 15822 15825 15828 15831 15834 15837 15840 15843 15846 15849 15852 15855 15858 15861 15864 15867 15870 15873 15876 15879 15882 15885 15888 15891 15894 15897 15900 15903 15906 15909 15912 15915 15918 15921 15924 15927 15930 15933 15936 15939 15942 15945 15948 15951 15954 15957 15960 15963 15966 15969 15972 15975 15978 15981 15984 15987 15990 15993 15996 15999 16002 16005 16008 16011 16014 16017 16020 16023 16026 16029 16032 16035 16038 16041 16044 16047 16050 16053 16056 16059 16062 16065 16068 16071 16074 16077 16080 16083 16086 16089 16092 16095 16098 16101 16104 16107 16110 16113 16116 16119 16122 16125 16128 16131 16134 16137 16140 16143 16146 16149 16152 16155 16158 16161 16164 16167 16170 16173 16176 16179 16182 16185 16188 16191 16194 16197 16200 16203 16206 16209 16212 16215 16218 16221 16224 16227 16230 16233 16236 16239 16242 16245 16248 16251 16254 16257 16260 16263 16266 16269 16272 16275 16278 16281 16284 16287 16290 16293 16296 16299 16302 16305 16308 16311 16314 16317 16320 16323 16326 16329 16332 16335 16338 16341 16344 16347 16350 16353 16356 16359 16362 16365 16368 16371 16374 16377 16380 16383 16386 16389 16392 16395 16398 16401 16404 16407 16410 16413 16416 16419 16422 16425 16428 16431 16434 16437 16440 16443 16446 16449 16452 16455 16458 16461 16464 16467 16470 16473 16476 16479 16482 16485 16488 16491 16494 16497 16500 16503 16506 16509 16512 16515 16518 16521 16524 16527 16530 16533 16536 16539 16542 16545 16548 16551 16554 16557 16560 16563 16566 16569 16572 16575 16578 16581 16584 16587 16590 16593 16596 16599 16602 16605 16608 16611 16614 16617 16620 16623 16626 16629 16632 16635 16638 16641 16644 16647 16650 16653 16656 16659 16662 16665 16668 16671 16674 16677 16680 16683 16686 16689 16692 16695 16698 16701 16704 16707 16710 16713 16716 16719 16722 16725 16728 16731 16734 16737 16740 16743 16746 16749 16752 16755 16758 16761 16764 16767 16770 16773 16776 16779 16782 16785 16788 16791 16794 16797 16800 16803 16806 16809 16812 16815 16818 16821 16824 16827 16830 16833 16836 16839 16842 16845 16848 16851 16854 16857 16860 16863 16866 16869 16872 16875 16878 16881 16884 16887 16890 16893 16896 16899 16902 16905 16908 16911 16914 16917 16920 16923 16926 16929 16932 16935 16938 16941 16944 16947 16950 16953 16956 16959 16962 16965 16968 16971 16974 16977 16980 16983 16986 16989 16992 16995 16998 17001 17004 17007 17010 17013 17016 17019 17022 17025 17028 17031 17034 17037 17040 17043 17046 17049 17052 17055 17058 17061 17064 17067 17070 17073 17076 17079 17082 17085 17088 17091 17094 17097 17100 17103 17106 17109 17112 17115 17118 17121 17124 17127 17130 17133 17136 17139 17142 17145 17148 17151 17154 17157 17160 17163 17166 17169 17172 17175 17178 17181 17184 17187 17190 17193 17196 17199 17202 17205 17208 17211 17214 17217 17220 17223 17226 17229 17232 17235 17238 17241 17244 17247 17250 17253 17256 17259 17262 17265 17268 17271 17274 17277 17280 17283 17286 17289 17292 17295 17298 17301 17304 17307 17310 17313 17316 17319 17322 17325 17328 17331 17334 17337 17340 17343 17346 17349 17352 17355 17358 17361 17364 17367 17370 17373 17376 17379 17382 17385 17388 17391 17394 17397 17400 17403 17406 17409 17412 17415 17418 17421 17424 17427 17430 17433 17436 17439 17442 17445 17448 17451 17454 17457 17460 17463 17466 17469 17472 17475 17478 17481 17484 17487 17490 17493 17496 17499 17502 17505 17508 17511 17514 17517 17520 17523 17526 17529 17532 17535 17538 17541 17544 17547 17550 17553 17556 17559 17562 17565 17568 17571 17574 17577 17580 17583 17586 17589 17592 17595 17598 17601 17604 17607 17610 17613 17616 17619 17622 17625 17628 17631 17634 17637 17640 17643 17646 17649 17652 17655 17658 17661 17664 17667 17670 17673 17676 17679 17682 17685 17688 17691 17694 17697 17700 17703 17706 17709 17712 17715 17718 17721 17724 17727 17730 17733 17736 17739 17742 17745 17748 17751 17754 17757 17760 17763 17766 17769 17772 17775 17778 17781 17784 17787 17790 17793 17796 17799 17802 17805 17808 17811 17814 17817 17820 17823 17826 17829 17832 17835 17838 17841 17844 17847 17850 17853 17856 17859 17862 17865 17868 17871 17874 17877 17880 17883 17886 17889 17892 17895 17898 17901 17904 17907 17910 17913 17916 17919 17922 17925 17928 17931 17934 17937 17940 17943 17946 17949 17952 17955 17958 17961 17964 17967 17970 17973 17976 17979 17982 17985 17988 17991 17994 17997 18000 18003 18006 18009 18012 18015 18018 18021 18024 18027 18030 18033 18036 18039 18042 18045 18048 18051 18054 18057 18060 18063 18066 18069 18072 18075 18078 18081 18084 18087 18090 18093 18096 18099 18102 18105 18108 18111 18114 18117 18120 18123 18126 18129 18132 18135 18138 18141 18144 18147 18150 18153 18156 18159 18162 18165 18168 18171 18174 18177 18180 18183 18186 18189 18192 18195 18198 18201 18204 18207 18210 18213 18216 18219 18222 18225 18228 18231 18234 18237 18240 18243 18246 18249 18252 18255 18258 18261 18264 18267 18270 18273 18276 18279 18282 18285 18288 18291 18294 18297 18300 18303 18306 18309 18312 18315 18318 18321 18324 18327 18330 18333 18336 18339 18342 18345 18348 18351 18354 18357 18360 18363 18366 18369 18372 18375 18378 18381 18384 18387 18390 18393 18396 18399 18402 18405 18408 18411 18414 18417 18420 18423 18426 18429 18432 18435 18438 18441 18444 18447 18450 18453 18456 18459 18462 18465 18468 18471 18474 18477 18480 18483 18486 18489 18492 18495 18498 18501 18504 18507 18510 18513 18516 18519 18522 18525 18528 18531 18534 18537 18540 18543 18546 18549 18552 18555 18558 18561 18564 18567 18570 18573 18576 18579 18582 18585 18588 18591 18594 18597 18600 18603 18606 18609 18612 18615 18618 18621 18624 18627 18630 18633 18636 18639 18642 18645 18648 18651 18654 18657 18660 18663 18666 18669 18672 18675 18678 18681 18684 18687 18690 18693 18696 18699 18702 18705 18708 18711 18714 18717 18720 18723 18726 18729 18732 18735 18738 18741 18744 18747 18750 18753 18756 18759 18762 18765 18768 18771 18774 18777 18780 18783 18786 18789 18792 18795 18798 18801 18804 18807 18810 18813 18816 18819 18822 18825 18828 18831 18834 18837 18840 18843 18846 18849 18852 18855 18858 18861 18864 18867 18870 18873 18876 18879 18882 18885 18888 18891 18894 18897 18900 18903 18906 18909 18912 18915 18918 18921 18924 18927 18930 18933 18936 18939 18942 18945 18948 18951 18954 18957 18960 18963 18966 18969 18972 18975 18978 18981 18984 18987 18990 18993 18996 18999 19002 19005 19008 19011 19014 19017 19020 19023 19026 19029 19032 19035 19038 19041 19044 19047 19050 19053 19056 19059 19062 19065 19068 19071 19074 19077 19080 19083 19086 19089 19092 19095 19098 19101 19104 19107 19110 19113 19116 19119 19122 19125 19128 19131 19134 19137 19140 19143 19146 19149 19152 19155 19158 19161 19164 19167 19170 19173 19176 19179 19182 19185 19188 19191 19194 19197 19200 19203 19206 19209 19212 19215 19218 19221 19224 19227 19230 19233 19236 19239 19242 19245 19248 19251 19254 19257 19260 19263 19266 19269 19272 19275 19278 19281 19284 19287 19290 19293 19296 19299 19302 19305 19308 19311 19314 19317 19320 19323 19326 19329 19332 19335 19338 19341 19344 19347 19350 19353 19356 19359 19362 19365 19368 19371 19374 19377 19380 19383 19386 19389 19392 19395 19398 19401 19404 19407 19410 19413 19416 19419 19422 19425 19428 19431 19434 19437 19440 19443 19446 19449 19452 19455 19458 19461 19464 19467 19470 19473 19476 19479 19482 19485 19488 19491 19494 19497 19500 19503 19506 19509 19512 19515 19518 19521 19524 19527 19530 19533 19536 19539 19542 19545 19548 19551 19554 19557 19560 19563 19566 19569 19572 19575 19578 19581 19584 19587 19590 19593 19596 19599 19602 19605 19608 19611 19614 19617 19620 19623 19626 19629 19632 19635 19638 19641 19644 19647 19650 19653 19656 19659 19662 19665 19668 19671 19674 19677 19680 19683 19686 19689 19692 19695 19698 19701 19704 19707 19710 19713 19716 19719 19722 19725 19728 19731 19734 19737 19740 19743 19746 19749 19752 19755 19758 19761 19764 19767 19770 19773 19776 19779 19782 19785 19788 19791 19794 19797 19800 19803 19806 19809 19812 19815 19818 19821 19824 19827 19830 19833 19836 19839 19842 19845 19848 19851 19854 19857 19860 19863 19866 19869 19872 19875 19878 19881 19884 19887 19890 19893 19896 19899 19902 19905 19908 19911 19914 19917 19920 19923 19926 19929 19932 19935 19938 19941 19944 19947 19950 19953 19956 19959 19962 19965 19968 19971 19974 19977 19980 19983 19986 19989 19992 19995 19998 20001 20004 20007 20010 20013 20016 20019 20022 20025 20028 20031 20034 20037 20040 20043 20046 20049 20052 20055 20058 20061 20064 20067 20070 20073 20076 20079 20082 20085 20088 20091 20094 20097 20100 20103 20106 20109 20112 20115 20118 20121 20124 20127 20130 20133 20136 20139 20142 20145 20148 20151 20154 20157 20160 20163 20166 20169 20172 20175 20178 20181 20184 20187 20190 20193 20196 20199 20202 20205 20208 20211 20214 20217 20220 20223 20226 20229 20232 20235 20238 20241 20244 20247 20250 20253 20256 20259 20262 20265 20268 20271 20274 20277 20280 20283 20286 20289 20292 20295 20298 20301 20304 20307 20310 20313 20316 20319 20322 20325 20328 20331 20334 20337 20340 20343 20346 20349 20352 20355 20358 20361 20364 20367 20370 20373 20376 20379 20382 20385 20388 20391 20394 20397 20400 20403 20406 20409 20412 20415 20418 20421 20424 20427 20430 20433 20436 20439 20442 20445 20448 20451 20454 20457 20460 20463 20466 20469 20472 20475 20478 20481 20484 20487 20490 20493 20496 20499 20502 20505 20508 20511 20514 20517 20520 20523 20526 20529 20532 20535 20538 20541 20544 20547 20550 20553 20556 20559 20562 20565 20568 20571 20574 20577 20580 20583 20586 20589 20592 20595 20598 20601 20604 20607 20610 20613 20616 20619 20622 20625 20628 20631 20634 20637 20640 20643 20646 20649 20652 20655 20658 20661 20664 20667 20670 20673 20676 20679 20682 20685 20688 20691 20694 20697 20700 20703 20706 20709 20712 20715 20718 20721 20724 20727 20730 20733 20736 20739 20742 20745 20748 20751 20754 20757 20760 20763 20766 20769 20772 20775 20778 20781 20784 20787 20790 20793 20796 20799 20802 20805 20808 20811 20814 20817 20820 20823 20826 20829 20832 20835 20838 20841 20844 20847 20850 20853 20856 20859 20862 20865 20868 20871 20874 20877 20880 20883 20886 20889 20892 20895 20898 20901 20904 20907 20910 20913 20916 20919 20922 20925 20928 20931 20934 20937 20940 20943 20946 20949 20952 20955 20958 20961 20964 20967 20970 20973 20976 20979 20982 20985 20988 20991 20994 20997 21000 21003 21006 21009 21012 21015 21018 21021 21024 21027 21030 21033 21036 21039 21042 21045 21048 21051 21054 21057 21060 21063 21066 21069 21072 21075 21078 21081 21084 21087 21090 21093 21096 21099 21102 21105 21108 21111 21114 21117 21120 21123 21126 21129 21132 21135 21138 21141 21144 21147 21150 21153 21156 21159 21162 21165 21168 21171 21174 21177 21180 21183 21186 21189 21192 21195 21198 21201 21204 21207 21210 21213 21216 21219 21222 21225 21228 21231 21234 21237 21240 21243 21246 21249 21252 21255 21258 21261 21264 21267 21270 21273 21276 21279 21282 21285 21288 21291 21294 21297 21300 21303 21306 21309 21312 21315 21318 21321 21324 21327 21330 21333 21336 21339 21342 21345 21348 21351 21354 21357 21360 21363 21366 21369 21372 21375 21378 21381 21384 21387 21390 21393 21396 21399 21402 21405 21408 21411 21414 21417 21420 21423 21426 21429 21432 21435 21438 21441 21444 21447 21450 21453 21456 21459 21462 21465 21468 21471 21474 21477 21480 21483 21486 21489 21492 21495 21498 21501 21504 21507 21510 21513 21516 21519 21522 21525 21528 21531 21534 21537 21540 21543 21546 21549 21552 21555 21558 21561 21564 21567 21570 21573 21576 21579 21582 21585 21588 21591 21594 21597 21600 21603 21606 21609 21612 21615 21618 21621 21624 21627 21630 21633 21636 21639 21642 21645 21648 21651 21654 21657 21660 21663 21666 21669 21672 21675 21678 21681 21684 21687 21690 21693 21696 21699 21702 21705 21708 21711 21714 21717 21720 21723 21726 21729 21732 21735 21738 21741 21744 21747 21750 21753 21756 21759 21762 21765 21768 21771 21774 21777 21780 21783 21786 21789 21792 21795 21798 21801 21804 21807 21810 21813 21816 21819 21822 21825 21828 21831 21834 21837 21840 21843 21846 21849 21852 21855 21858 21861 21864 21867 21870 21873 21876 21879 21882 21885 21888 21891 21894 21897 21900 21903 21906 21909 21912 21915 21918 21921 21924 21927 21930 21933 21936 21939 21942 21945 21948 21951 21954 21957 21960 21963 21966 21969 21972 21975 21978 21981 21984 21987 21990 21993 21996 21999 22002 22005 22008 22011 22014 22017 22020 22023 22026 22029 22032 22035 22038 22041 22044 22047 22050 22053 22056 22059 22062 22065 22068 22071 22074 22077 22080 22083 22086 22089 22092 22095 22098 22101 22104 22107 22110 22113 22116 22119 22122 22125 22128 22131 22134 22137 22140 22143 22146 22149 22152 22155 22158 22161 22164 22167 22170 22173 22176 22179 22182 22185 22188 22191 22194 22197 22200 22203 22206 22209 22212 22215 22218 22221 22224 22227 22230 22233 22236 22239 22242 22245 22248 22251 22254 22257 22260 22263 22266 22269 22272 22275 22278 22281 22284 22287 22290 22293 22296 22299 22302 22305 22308 22311 22314 22317 22320 22323 22326 22329 22332 22335 22338 22341 22344 22347 22350 22353 22356 22359 22362 22365 22368 22371 22374 22377 22380 22383 22386 22389 22392 22395 22398 22401 22404 22407 22410 22413 22416 22419 22422 22425 22428 22431 22434 22437 22440 22443 22446 22449 22452 22455 22458 22461 22464 22467 22470 22473 22476 22479 22482 22485 22488 22491 22494 22497 22500 22503 22506 22509 22512 22515 22518 22521 22524 22527 22530 22533 22536 22539 22542 22545 22548 22551 22554 22557 22560 22563 22566 22569 22572 22575 22578 22581 22584 22587 22590 22593 22596 22599 22602 22605 22608 22611 22614 22617 22620 22623 22626 22629 22632 22635 22638 22641 22644 22647 22650 22653 22656 22659 22662 22665 22668 22671 22674 22677 22680 22683 22686 22689 22692 22695 22698 22701 22704 22707 22710 22713 22716 22719 22722 22725 22728 22731 22734 22737 22740 22743 22746 22749 22752 22755 22758 22761 22764 22767 22770 22773 22776 22779 22782 22785 22788 22791 22794 22797 22800 22803 22806 22809 22812 22815 22818 22821 22824 22827 22830 22833 22836 22839 22842 22845 22848 22851 22854 22857 22860 22863 22866 22869 22872 22875 22878 22881 22884 22887 22890 22893 22896 22899 22902 22905 22908 22911 22914 22917 22920 22923 22926 22929 22932 22935 22938 22941 22944 22947 22950 22953 22956 22959 22962 22965 22968 22971 22974 22977 22980 22983 22986 22989 22992 22995 22998 23001 23004 23007 23010 23013 23016 23019 23022 23025 23028 23031 23034 23037 23040 23043 23046 23049 23052 23055 23058 23061 23064 23067 23070 23073 23076 23079 23082 23085 23088 23091 23094 23097 23100 23103 23106 23109 23112 23115 23118 23121 23124 23127 23130 23133 23136 23139 23142 23145 23148 23151 23154 23157 23160 23163 23166 23169 23172 23175 23178 23181 23184 23187 23190 23193 23196 23199 23202 23205 23208 23211 23214 23217 23220 23223 23226 23229 23232 23235 23238 23241 23244 23247 23250 23253 23256 23259 23262 23265 23268 23271 23274 23277 23280 23283 23286 23289 23292 23295 23298 23301 23304 23307 23310 23313 23316 23319 23322 23325 23328 23331 23334 23337 23340 23343 23346 23349 23352 23355 23358 23361 23364 23367 23370 23373 23376 23379 23382 23385 23388 23391 23394 23397 23400 23403 23406 23409 23412 23415 23418 23421 23424 23427 23430 23433 23436 23439 23442 23445 23448 23451 23454 23457 23460 23463 23466 23469 23472 23475 23478 23481 23484 23487 23490 23493 23496 23499 23502 23505 23508 23511 23514 23517 23520 23523 23526 23529 23532 23535 23538 23541 23544 23547 23550 23553 23556 23559 23562 23565 23568 23571 23574 23577 23580 23583 23586 23589 23592 23595 23598 23601 23604 23607 23610 23613 23616 23619 23622 23625 23628 23631 23634 23637 23640 23643 23646 23649 23652 23655 23658 23661 23664 23667 23670 23673 23676 23679 23682 23685 23688 23691 23694 23697 23700 23703 23706 23709 23712 23715 23718 23721 23724 23727 23730 23733 23736 23739 23742 23745 23748 23751 23754 23757 23760 23763 23766 23769 23772 23775 23778 23781 23784 23787 23790 23793 23796 23799 23802 23805 23808 23811 23814 23817 23820 23823 23826 23829 23832 23835 23838 23841 23844 23847 23850 23853 23856 23859 23862 23865 23868 23871 23874 23877 23880 23883 23886 23889 23892 23895 23898 23901 23904 23907 23910 23913 23916 23919 23922 23925 23928 23931 23934 23937 23940 23943 23946 23949 23952 23955 23958 23961 23964 23967 23970 23973 23976 23979 23982 23985 23988 23991 23994 23997 24000 24003 24006 24009 24012 24015 24018 24021 24024 24027 24030 24033 24036 24039 24042 24045 24048 24051 24054 24057 24060 24063 24066 24069 24072 24075 24078 24081 24084 24087 24090 24093 24096 24099 24102 24105 24108 24111 24114 24117 24120 24123 24126 24129 24132 24135 24138 24141 24144 24147 24150 24153 24156 24159 24162 24165 24168 24171 24174 24177 24180 24183 24186 24189 24192 24195 24198 24201 24204 24207 24210 24213 24216 24219 24222 24225 24228 24231 24234 24237 24240 24243 24246 24249 24252 24255 24258 24261 24264 24267 24270 24273 24276 24279 24282 24285 24288 24291 24294 24297 24300 24303 24306 24309 24312 24315 24318 24321 24324 24327 24330 24333 24336 24339 24342 24345 24348 24351 24354 24357 24360 24363 24366 24369 24372 24375 24378 24381 24384 24387 24390 24393 24396 24399 24402 24405 24408 24411 24414 24417 24420 24423 24426 24429 24432 24435 24438 24441 24444 24447 24450 24453 24456 24459 24462 24465 24468 24471 24474 24477 24480 24483 24486 24489 24492 24495 24498 24501 24504 24507 24510 24513 24516 24519 24522 24525 24528 24531 24534 24537 24540 24543 24546 24549 24552 24555 24558 24561 24564 24567 24570 24573 24576 24579 24582 24585 24588 24591 24594 24597 24600 24603 24606 24609 24612 24615 24618 24621 24624 24627 24630 24633 24636 24639 24642 24645 24648 24651 24654 24657 24660 24663 24666 24669 24672 24675 24678 24681 24684 24687 24690 24693 24696 24699 24702 24705 24708 24711 24714 24717 24720 24723 24726 24729 24732 24735 24738 24741 24744 24747 24750 24753 24756 24759 24762 24765 24768 24771 24774 24777 24780 24783 24786 24789 24792 24795 24798 24801 24804 24807 24810 24813 24816 24819 24822 24825 24828 24831 24834 24837 24840 24843 24846 24849 24852 24855 24858 24861 24864 24867 24870 24873 24876 24879 24882 24885 24888 24891 24894 24897 24900 24903 24906 24909 24912 24915 24918 24921 24924 24927 24930 24933 24936 24939 24942 24945 24948 24951 24954 24957 24960 24963 24966 24969 24972 24975 24978 24981 24984 24987 24990 24993 24996 24999 25002 25005 25008 25011 25014 25017 25020 25023 25026 25029 25032 25035 25038 25041 25044 25047 25050 25053 25056 25059 25062 25065 25068 25071 25074 25077 25080 25083 25086 25089 25092 25095 25098 25101 25104 25107 25110 25113 25116 25119 25122 25125 25128 25131 25134 25137 25140 25143 25146 25149 25152 25155 25158 25161 25164 25167 25170 25173 25176 25179 25182 25185 25188 25191 25194 25197 25200 25203 25206 25209 25212 25215 25218 25221 25224 25227 25230 25233 25236 25239 25242 25245 25248 25251 25254 25257 25260 25263 25266 25269 25272 25275 25278 25281 25284 25287 25290 25293 25296 25299 25302 25305 25308 25311 25314 25317 25320 25323 25326 25329 25332 25335 25338 25341 25344 25347 25350 25353 25356 25359 25362 25365 25368 25371 25374 25377 25380 25383 25386 25389 25392 25395 25398 25401 25404 25407 25410 25413 25416 25419 25422 25425 25428 25431 25434 25437 25440 25443 25446 25449 25452 25455 25458 25461 25464 25467 25470 25473 25476 25479 25482 25485 25488 25491 25494 25497 25500 25503 25506 25509 25512 25515 25518 25521 25524 25527 25530 25533 25536 25539 25542 25545 25548 25551 25554 25557 25560 25563 25566 25569 25572 25575 25578 25581 25584 25587 25590 25593 25596 25599 25602 25605 25608 25611 25614 25617 25620 25623 25626 25629 25632 25635 25638 25641 25644 25647 25650 25653 25656 25659 25662 25665 25668 25671 25674 25677 25680 25683 25686 25689 25692 25695 25698 25701 25704 25707 25710 25713 25716 25719 25722 25725 25728 25731 25734 25737 25740 25743 25746 25749 25752 25755 25758 25761 25764 25767 25770 25773 25776 25779 25782 25785 25788 25791 25794 25797 25800 25803 25806 25809 25812 25815 25818 25821 25824 25827 25830 25833 25836 25839 25842 25845 25848 25851 25854 25857 25860 25863 25866 25869 25872 25875 25878 25881 25884 25887 25890 25893 25896 25899 25902 25905 25908 25911 25914 25917 25920 25923 25926 25929 25932 25935 25938 25941 25944 25947 25950 25953 25956 25959 25962 25965 25968 25971 25974 25977 25980 25983 25986 25989 25992 25995 25998 26001 26004 26007 26010 26013 26016 26019 26022 26025 26028 26031 26034 26037 26040 26043 26046 26049 26052 26055 26058 26061 26064 26067 26070 26073 26076 26079 26082 26085 26088 26091 26094 26097 26100 26103 26106 26109 26112 26115 26118 26121 26124 26127 26130 26133 26136 26139 26142 26145 26148 26151 26154 26157 26160 26163 26166 26169 26172 26175 26178 26181 26184 26187 26190 26193 26196 26199 26202 26205 26208 26211 26214 26217 26220 26223 26226 26229 26232 26235 26238 26241 26244 26247 26250 26253 26256 26259 26262 26265 26268 26271 26274 26277 26280 26283 26286 26289 26292 26295 26298 26301 26304 26307 26310 26313 26316 26319 26322 26325 26328 26331 26334 26337 26340 26343 26346 26349 26352 26355 26358 26361 26364 26367 26370 26373 26376 26379 26382 26385 26388 26391 26394 26397 26400 26403 26406 26409 26412 26415 26418 26421 26424 26427 26430 26433 26436 26439 26442 26445 26448 26451 26454 26457 26460 26463 26466 26469 26472 26475 26478 26481 26484 26487 26490 26493 26496 26499 26502 26505 26508 26511 26514 26517 26520 26523 26526 26529 26532 26535 26538 26541 26544 26547 26550 26553 26556 26559 26562 26565 26568 26571 26574 26577 26580 26583 26586 26589 26592 26595 26598 26601 26604 26607 26610 26613 26616 26619 26622 26625 26628 26631 26634 26637 26640 26643 26646 26649 26652 26655 26658 26661 26664 26667 26670 26673 26676 26679 26682 26685 26688 26691 26694 26697 26700 26703 26706 26709 26712 26715 26718 26721 26724 26727 26730 26733 26736 26739 26742 26745 26748 26751 26754 26757 26760 26763 26766 26769 26772 26775 26778 26781 26784 26787 26790 26793 26796 26799 26802 26805 26808 26811 26814 26817 26820 26823 26826 26829 26832 26835 26838 26841 26844 26847 26850 26853 26856 26859 26862 26865 26868 26871 26874 26877 26880 26883 26886 26889 26892 26895 26898 26901 26904 26907 26910 26913 26916 26919 26922 26925 26928 26931 26934 26937 26940 26943 26946 26949 26952 26955 26958 26961 26964 26967 26970 26973 26976 26979 26982 26985 26988 26991 26994 26997 27000 27003 27006 27009 27012 27015 27018 27021 27024 27027 27030 27033 27036 27039 27042 27045 27048 27051 27054 27057 27060 27063 27066 27069 27072 27075 27078 27081 27084 27087 27090 27093 27096 27099 27102 27105 27108 27111 27114 27117 27120 27123 27126 27129 27132 27135 27138 27141 27144 27147 27150 27153 27156 27159 27162 27165 27168 27171 27174 27177 27180 27183 27186 27189 27192 27195 27198 27201 27204 27207 27210 27213 27216 27219 27222 27225 27228 27231 27234 27237 27240 27243 27246 27249 27252 27255 27258 27261 27264 27267 27270 27273 27276 27279 27282 27285 27288 27291 27294 27297 27300 27303 27306 27309 27312 27315 27318 27321 27324 27327 27330 27333 27336 27339 27342 27345 27348 27351 27354 27357 27360 27363 27366 27369 27372 27375 27378 27381 27384 27387 27390 27393 27396 27399 27402 27405 27408 27411 27414 27417 27420 27423 27426 27429 27432 27435 27438 27441 27444 27447 27450 27453 27456 27459 27462 27465 27468 27471 27474 27477 27480 27483 27486 27489 27492 27495 27498 27501 27504 27507 27510 27513 27516 27519 27522 27525 27528 27531 27534 27537 27540 27543 27546 27549 27552 27555 27558 27561 27564 27567 27570 27573 27576 27579 27582 27585 27588 27591 27594 27597 27600 27603 27606 27609 27612 27615 27618 27621 27624 27627 27630 27633 27636 27639 27642 27645 27648 27651 27654 27657 27660 27663 27666 27669 27672 27675 27678 27681 27684 27687 27690 27693 27696 27699 27702 27705 27708 27711 27714 27717 27720 27723 27726 27729 27732 27735 27738 27741 27744 27747 27750 27753 27756 27759 27762 27765 27768 27771 27774 27777 27780 27783 27786 27789 27792 27795 27798 27801 27804 27807 27810 27813 27816 27819 27822 27825 27828 27831 27834 27837 27840 27843 27846 27849 27852 27855 27858 27861 27864 27867 27870 27873 27876 27879 27882 27885 27888 27891 27894 27897 27900 27903 27906 27909 27912 27915 27918 27921 27924 27927 27930 27933 27936 27939 27942 27945 27948 27951 27954 27957 27960 27963 27966 27969 27972 27975 27978 27981 27984 27987 27990 27993 27996 27999 28002 28005 28008 28011 28014 28017 28020 28023 28026 28029 28032 28035 28038 28041 28044 28047 28050 28053 28056 28059 28062 28065 28068 28071 28074 28077 28080 28083 28086 28089 28092 28095 28098 28101 28104 28107 28110 28113 28116 28119 28122 28125 28128 28131 28134 28137 28140 28143 28146 28149 28152 28155 28158 28161 28164 28167 28170 28173 28176 28179 28182 28185 28188 28191 28194 28197 28200 28203 28206 28209 28212 28215 28218 28221 28224 28227 28230 28233 28236 28239 28242 28245 28248 28251 28254 28257 28260 28263 28266 28269 28272 28275 28278 28281 28284 28287 28290 28293 28296 28299 28302 28305 28308 28311 28314 28317 28320 28323 28326 28329 28332 28335 28338 28341 28344 28347 28350 28353 28356 28359 28362 28365 28368 28371 28374 28377 28380 28383 28386 28389 28392 28395 28398 28401 28404 28407 28410 28413 28416 28419 28422 28425 28428 28431 28434 28437 28440 28443 28446 28449 28452 28455 28458 28461 28464 28467 28470 28473 28476 28479 28482 28485 28488 28491 28494 28497 28500 28503 28506 28509 28512 28515 28518 28521 28524 28527 28530 28533 28536 28539 28542 28545 28548 28551 28554 28557 28560 28563 28566 28569 28572 28575 28578 28581 28584 28587 28590 28593 28596 28599 28602 28605 28608 28611 28614 28617 28620 28623 28626 28629 28632 28635 28638 28641 28644 28647 28650 28653 28656 28659 28662 28665 28668 28671 28674 28677 28680 28683 28686 28689 28692 28695 28698 28701 28704 28707 28710 28713 28716 28719 28722 28725 28728 28731 28734 28737 28740 28743 28746 28749 28752 28755 28758 28761 28764 28767 28770 28773 28776 28779 28782 28785 28788 28791 28794 28797 28800 28803 28806 28809 28812 28815 28818 28821 28824 28827 28830 28833 28836 28839 28842 28845 28848 28851 28854 28857 28860 28863 28866 28869 28872 28875 28878 28881 28884 28887 28890 28893 28896 28899 28902 28905 28908 28911 28914 28917 28920 28923 28926 28929 28932 28935 28938 28941 28944 28947 28950 28953 28956 28959 28962 28965 28968 28971 28974 28977 28980 28983 28986 28989 28992 28995 28998 29001 29004 29007 29010 29013 29016 29019 29022 29025 29028 29031 29034 29037 29040 29043 29046 29049 29052 29055 29058 29061 29064 29067 29070 29073 29076 29079 29082 29085 29088 29091 29094 29097 29100 29103 29106 29109 29112 29115 29118 29121 29124 29127 29130 29133 29136 29139 29142 29145 29148 29151 29154 29157 29160 29163 29166 29169 29172 29175 29178 29181 29184 29187 29190 29193 29196 29199 29202 29205 29208 29211 29214 29217 29220 29223 29226 29229 29232 29235 29238 29241 29244 29247 29250 29253 29256 29259 29262 29265 29268 29271 29274 29277 29280 29283 29286 29289 29292 29295 29298 29301 29304 29307 29310 29313 29316 29319 29322 29325 29328 29331 29334 29337 29340 29343 29346 29349 29352 29355 29358 29361 29364 29367 29370 29373 29376 29379 29382 29385 29388 29391 29394 29397 29400 29403 29406 29409 29412 29415 29418 29421 29424 29427 29430 29433 29436 29439 29442 29445 29448 29451 29454 29457 29460 29463 29466 29469 29472 29475 29478 29481 29484 29487 29490 29493 29496 29499 29502 29505 29508 29511 29514 29517 29520 29523 29526 29529 29532 29535 29538 29541 29544 29547 29550 29553 29556 29559 29562 29565 29568 29571 29574 29577 29580 29583 29586 29589 29592 29595 29598 29601 29604 29607 29610 29613 29616 29619 29622 29625 29628 29631 29634 29637 29640 29643 29646 29649 29652 29655 29658 29661 29664 29667 29670 29673 29676 29679 29682 29685 29688 29691 29694 29697 29700 29703 29706 29709 29712 29715 29718 29721 29724 29727 29730 29733 29736 29739 29742 29745 29748 29751 29754 29757 29760 29763 29766 29769 29772 29775 29778 29781 29784 29787 29790 29793 29796 29799 29802 29805 29808 29811 29814 29817 29820 29823 29826 29829 29832 29835 29838 29841 29844 29847 29850 29853 29856 29859 29862 29865 29868 29871 29874 29877 29880 29883 29886 29889 29892 29895 29898 29901 29904 29907 29910 29913 29916 29919 29922 29925 29928 29931 29934 29937 29940 29943 29946 29949 29952 29955 29958 29961 29964 29967 29970 29973 29976 29979 29982 29985 29988 29991 29994 29997 30000 30003 30006 30009 30012 30015 30018 30021 30024 30027 30030 30033 30036 30039 30042 30045 30048 30051 30054 30057 30060 30063 30066 30069 30072 30075 30078 30081 30084 30087 30090 30093 30096 30099 30102 30105 30108 30111 30114 30117 30120 30123 30126 30129 30132 30135 30138 30141 30144 30147 30150 30153 30156 30159 30162 30165 30168 30171 30174 30177 30180 30183 30186 30189 30192 30195 30198 30201 30204 30207 30210 30213 30216 30219 30222 30225 30228 30231 30234 30237 30240 30243 30246 30249 30252 30255 30258 30261 30264 30267 30270 30273 30276 30279 30282 30285 30288 30291 30294 30297 30300 30303 30306 30309 30312 30315 30318 30321 30324 30327 30330 30333 30336 30339 30342 30345 30348 30351 30354 30357 30360 30363 30366 30369 30372 30375 30378 30381 30384 30387 30390 30393 30396 30399 30402 30405 30408 30411 30414 30417 30420 30423 30426 30429 30432 30435 30438 30441 30444 30447 30450 30453 30456 30459 30462 30465 30468 30471 30474 30477 30480 30483 30486 30489 30492 30495 30498 30501 30504 30507 30510 30513 30516 30519 30522 30525 30528 30531 30534 30537 30540 30543 30546 30549 30552 30555 30558 30561 30564 30567 30570 30573 30576 30579 30582 30585 30588 30591 30594 30597 30600 30603 30606 30609 30612 30615 30618 30621 30624 30627 30630 30633 30636 30639 30642 30645 30648 30651 30654 30657 30660 30663 30666 30669 30672 30675 30678 30681 30684 30687 30690 30693 30696 30699 30702 30705 30708 30711 30714 30717 30720 30723 30726 30729 30732 30735 30738 30741 30744 30747 30750 30753 30756 30759 30762 30765 30768 30771 30774 30777 30780 30783 30786 30789 30792 30795 30798 30801 30804 30807 30810 30813 30816 30819 30822 30825 30828 30831 30834 30837 30840 30843 30846 30849 30852 30855 30858 30861 30864 30867 30870 30873 30876 30879 30882 30885 30888 30891 30894 30897 30900 30903 30906 30909 30912 30915 30918 30921 30924 30927 30930 30933 30936 30939 30942 30945 30948 30951 30954 30957 30960 30963 30966 30969 30972 30975 30978 30981 30984 30987 30990 30993 30996 30999 31002 31005 31008 31011 31014 31017 31020 31023 31026 31029 31032 31035 31038 31041 31044 31047 31050 31053 31056 31059 31062 31065 31068 31071 31074 31077 31080 31083 31086 31089 31092 31095 31098 31101 31104 31107 31110 31113 31116 31119 31122 31125 31128 31131 31134 31137 31140 31143 31146 31149 31152 31155 31158 31161 31164 31167 31170 31173 31176 31179 31182 31185 31188 31191 31194 31197 31200 31203 31206 31209 31212 31215 31218 31221 31224 31227 31230 31233 31236 31239 31242 31245 31248 31251 31254 31257 31260 31263 31266 31269 31272 31275 31278 31281 31284 31287 31290 31293 31296 31299 31302 31305 31308 31311 31314 31317 31320 31323 31326 31329 31332 31335 31338 31341 31344 31347 31350 31353 31356 31359 31362 31365 31368 31371 31374 31377 31380 31383 31386 31389 31392 31395 31398 31401 31404 31407 31410 31413 31416 31419 31422 31425 31428 31431 31434 31437 31440 31443 31446 31449 31452 31455 31458 31461 31464 31467 31470 31473 31476 31479 31482 31485 31488 31491 31494 31497 31500 31503 31506 31509 31512 31515 31518 31521 31524 31527 31530 31533 31536 31539 31542 31545 31548 31551 31554 31557 31560 31563 31566 31569 31572 31575 31578 31581 31584 31587 31590 31593 31596 31599 31602 31605 31608 31611 31614 31617 31620 31623 31626 31629 31632 31635 31638 31641 31644 31647 31650 31653 31656 31659 31662 31665 31668 31671 31674 31677 31680 31683 31686 31689 31692 31695 31698 31701 31704 31707 31710 31713 31716 31719 31722 31725 31728 31731 31734 31737 31740 31743 31746 31749 31752 31755 31758 31761 31764 31767 31770 31773 31776 31779 31782 31785 31788 31791 31794 31797 31800 31803 31806 31809 31812 31815 31818 31821 31824 31827 31830 31833 31836 31839 31842 31845 31848 31851 31854 31857 31860 31863 31866 31869 31872 31875 31878 31881 31884 31887 31890 31893 31896 31899 31902 31905 31908 31911 31914 31917 31920 31923 31926 31929 31932 31935 31938 31941 31944 31947 31950 31953 31956 31959 31962 31965 31968 31971 31974 31977 31980 31983 31986 31989 31992 31995 31998 32001 32004 32007 32010 32013 32016 32019 32022 32025 32028 32031 32034 32037 32040 32043 32046 32049 32052 32055 32058 32061 32064 32067 32070 32073 32076 32079 32082 32085 32088 32091 32094 32097 32100 32103 32106 32109 32112 32115 32118 32121 32124 32127 32130 32133 32136 32139 32142 32145 32148 32151 32154 32157 32160 32163 32166 32169 32172 32175 32178 32181 32184 32187 32190 32193 32196 32199 32202 32205 32208 32211 32214 32217 32220 32223 32226 32229 32232 32235 32238 32241 32244 32247 32250 32253 32256 32259 32262 32265 32268 32271 32274 32277 32280 32283 32286 32289 32292 32295 32298 32301 32304 32307 32310 32313 32316 32319 32322 32325 32328 32331 32334 32337 32340 32343 32346 32349 32352 32355 32358 32361 32364 32367 32370 32373 32376 32379 32382 32385 32388 32391 32394 32397 32400 32403 32406 32409 32412 32415 32418 32421 32424 32427 32430 32433 32436 32439 32442 32445 32448 32451 32454 32457 32460 32463 32466 32469 32472 32475 32478 32481 32484 32487 32490 32493 32496 32499 32502 32505 32508 32511 32514 32517 32520 32523 32526 32529 32532 32535 32538 32541 32544 32547 32550 32553 32556 32559 32562 32565 32568 32571 32574 32577 32580 32583 32586 32589 32592 32595 32598 32601 32604 32607 32610 32613 32616 32619 32622 32625 32628 32631 32634 32637 32640 32643 32646 32649 32652 32655 32658 32661 32664 32667 32670 32673 32676 32679 32682 32685 32688 32691 32694 32697 32700 32703 32706 32709 32712 32715 32718 32721 32724 32727 32730 32733 32736 32739 32742 32745 32748 32751 32754 32757 32760 32763 32766 32769 32772 32775 32778 32781 32784 32787 32790 32793 32796 32799 32802 32805 32808 32811 32814 32817 32820 32823 32826 32829 32832 32835 32838 32841 32844 32847 32850 32853 32856 32859 32862 32865 32868 32871 32874 32877 32880 32883 32886 32889 32892 32895 32898 32901 32904 32907 32910 32913 32916 32919 32922 32925 32928 32931 32934 32937 32940 32943 32946 32949 32952 32955 32958 32961 32964 32967 32970 32973 32976 32979 32982 32985 32988 32991 32994 32997 33000 33003 33006 33009 33012 33015 33018 33021 33024 33027 33030 33033 33036 33039 33042 33045 33048 33051 33054 33057 33060 33063 33066 33069 33072 33075 33078 33081 33084 33087 33090 33093 33096 33099 33102 33105 33108 33111 33114 33117 33120 33123 33126 33129 33132 33135 33138 33141 33144 33147 33150 33153 33156 33159 33162 33165 33168 33171 33174 33177 33180 33183 33186 33189 33192 33195 33198 33201 33204 33207 33210 33213 33216 33219 33222 33225 33228 33231 33234 33237 33240 33243 33246 33249 33252 33255 33258 33261 33264 33267 33270 33273 33276 33279 33282 33285 33288 33291 33294 33297 33300 33303 33306 33309 33312 33315 33318 33321 33324 33327 33330 33333 33336 33339 33342 33345 33348 33351 33354 33357 33360 33363 33366 33369 33372 33375 33378 33381 33384 33387 33390 33393 33396 33399 33402 33405 33408 33411 33414 33417 33420 33423 33426 33429 33432 33435 33438 33441 33444 33447 33450 33453 33456 33459 33462 33465 33468 33471 33474 33477 33480 33483 33486 33489 33492 33495 33498 33501 33504 33507 33510 33513 33516 33519 33522 33525 33528 33531 33534 33537 33540 33543 33546 33549 33552 33555 33558 33561 33564 33567 33570 33573 33576 33579 33582 33585 33588 33591 33594 33597 33600 33603 33606 33609 33612 33615 33618 33621 33624 33627 33630 33633 33636 33639 33642 33645 33648 33651 33654 33657 33660 33663 33666 33669 33672 33675 33678 33681 33684 33687 33690 33693 33696 33699 33702 33705 33708 33711 33714 33717 33720 33723 33726 33729 33732 33735 33738 33741 33744 33747 33750 33753 33756 33759 33762 33765 33768 33771 33774 33777 33780 33783 33786 33789 33792 33795 33798 33801 33804 33807 33810 33813 33816 33819 33822 33825 33828 33831 33834 33837 33840 33843 33846 33849 33852 33855 33858 33861 33864 33867 33870 33873 33876 33879 33882 33885 33888 33891 33894 33897 33900 33903 33906 33909 33912 33915 33918 33921 33924 33927 33930 33933 33936 33939 33942 33945 33948 33951 33954 33957 33960 33963 33966 33969 33972 33975 33978 33981 33984 33987 33990 33993 33996 33999 34002 34005 34008 34011 34014 34017 34020 34023 34026 34029 34032 34035 34038 34041 34044 34047 34050 34053 34056 34059 34062 34065 34068 34071 34074 34077 34080 34083 34086 34089 34092 34095 34098 34101 34104 34107 34110 34113 34116 34119 34122 34125 34128 34131 34134 34137 34140 34143 34146 34149 34152 34155 34158 34161 34164 34167 34170 34173 34176 34179 34182 34185 34188 34191 34194 34197 34200 34203 34206 34209 34212 34215 34218 34221 34224 34227 34230 34233 34236 34239 34242 34245 34248 34251 34254 34257 34260 34263 34266 34269 34272 34275 34278 34281 34284 34287 34290 34293 34296 34299 34302 34305 34308 34311 34314 34317 34320 34323 34326 34329 34332 34335 34338 34341 34344 34347 34350 34353 34356 34359 34362 34365 34368 34371 34374 34377 34380 34383 34386 34389 34392 34395 34398 34401 34404 34407 34410 34413 34416 34419 34422 34425 34428 34431 34434 34437 34440 34443 34446 34449 34452 34455 34458 34461 34464 34467 34470 34473 34476 34479 34482 34485 34488 34491 34494 34497 34500 34503 34506 34509 34512 34515 34518 34521 34524 34527 34530 34533 34536 34539 34542 34545 34548 34551 34554 34557 34560 34563 34566 34569 34572 34575 34578 34581 34584 34587 34590 34593 34596 34599 34602 34605 34608 34611 34614 34617 34620 34623 34626 34629 34632 34635 34638 34641 34644 34647 34650 34653 34656 34659 34662 34665 34668 34671 34674 34677 34680 34683 34686 34689 34692 34695 34698 34701 34704 34707 34710 34713 34716 34719 34722 34725 34728 34731 34734 34737 34740 34743 34746 34749 34752 34755 34758 34761 34764 34767 34770 34773 34776 34779 34782 34785 34788 34791 34794 34797 34800 34803 34806 34809 34812 34815 34818 34821 34824 34827 34830 34833 34836 34839 34842 34845 34848 34851 34854 34857 34860 34863 34866 34869 34872 34875 34878 34881 34884 34887 34890 34893 34896 34899 34902 34905 34908 34911 34914 34917 34920 34923 34926 34929 34932 34935 34938 34941 34944 34947 34950 34953 34956 34959 34962 34965 34968 34971 34974 34977 34980 34983 34986 34989 34992 34995 34998 35001 35004 35007 35010 35013 35016 35019 35022 35025 35028 35031 35034 35037 35040 35043 35046 35049 35052 35055 35058 35061 35064 35067 35070 35073 35076 35079 35082 35085 35088 35091 35094 35097 35100 35103 35106 35109 35112 35115 35118 35121 35124 35127 35130 35133 35136 35139 35142 35145 35148 35151 35154 35157 35160 35163 35166 35169 35172 35175 35178 35181 35184 35187 35190 35193 35196 35199 35202 35205 35208 35211 35214 35217 35220 35223 35226 35229 35232 35235 35238 35241 35244 35247 35250 35253 35256 35259 35262 35265 35268 35271 35274 35277 35280 35283 35286 35289 35292 35295 35298 35301 35304 35307 35310 35313 35316 35319 35322 35325 35328 35331 35334 35337 35340 35343 35346 35349 35352 35355 35358 35361 35364 35367 35370 35373 35376 35379 35382 35385 35388 35391 35394 35397 35400 35403 35406 35409 35412 35415 35418 35421 35424 35427 35430 35433 35436 35439 35442 35445 35448 35451 35454 35457 35460 35463 35466 35469 35472 35475 35478 35481 35484 35487 35490 35493 35496 35499 35502 35505 35508 35511 35514 35517 35520 35523 35526 35529 35532 35535 35538 35541 35544 35547 35550 35553 35556 35559 35562 35565 35568 35571 35574 35577 35580 35583 35586 35589 35592 35595 35598 35601 35604 35607 35610 35613 35616 35619 35622 35625 35628 35631 35634 35637 35640 35643 35646 35649 35652 35655 35658 35661 35664 35667 35670 35673 35676 35679 35682 35685 35688 35691 35694 35697 35700 35703 35706 35709 35712 35715 35718 35721 35724 35727 35730 35733 35736 35739 35742 35745 35748 35751 35754 35757 35760 35763 35766 35769 35772 35775 35778 35781 35784 35787 35790 35793 35796 35799 35802 35805 35808 35811 35814 35817 35820 35823 35826 35829 35832 35835 35838 35841 35844 35847 35850 35853 35856 35859 35862 35865 35868 35871 35874 35877 35880 35883 35886 35889 35892 35895 35898 35901 35904 35907 35910 35913 35916 35919 35922 35925 35928 35931 35934 35937 35940 35943 35946 35949 35952 35955 35958 35961 35964 35967 35970 35973 35976 35979 35982 35985 35988 35991 35994 35997 36000 36003 36006 36009 36012 36015 36018 36021 36024 36027 36030 36033 36036 36039 36042 36045 36048 36051 36054 36057 36060 36063 36066 36069 36072 36075 36078 36081 36084 36087 36090 36093 36096 36099 36102 36105 36108 36111 36114 36117 36120 36123 36126 36129 36132 36135 36138 36141 36144 36147 36150 36153 36156 36159 36162 36165 36168 36171 36174 36177 36180 36183 36186 36189 36192 36195 36198 36201 36204 36207 36210 36213 36216 36219 36222 36225 36228 36231 36234 36237 36240 36243 36246 36249 36252 36255 36258 36261 36264 36267 36270 36273 36276 36279 36282 36285 36288 36291 36294 36297 36300 36303 36306 36309 36312 36315 36318 36321 36324 36327 36330 36333 36336 36339 36342 36345 36348 36351 36354 36357 36360 36363 36366 36369 36372 36375 36378 36381 36384 36387 36390 36393 36396 36399 36402 36405 36408 36411 36414 36417 36420 36423 36426 36429 36432 36435 36438 36441 36444 36447 36450 36453 36456 36459 36462 36465 36468 36471 36474 36477 36480 36483 36486 36489 36492 36495 36498 36501 36504 36507 36510 36513 36516 36519 36522 36525 36528 36531 36534 36537 36540 36543 36546 36549 36552 36555 36558 36561 36564 36567 36570 36573 36576 36579 36582 36585 36588 36591 36594 36597 36600 36603 36606 36609 36612 36615 36618 36621 36624 36627 36630 36633 36636 36639 36642 36645 36648 36651 36654 36657 36660 36663 36666 36669 36672 36675 36678 36681 36684 36687 36690 36693 36696 36699 36702 36705 36708 36711 36714 36717 36720 36723 36726 36729 36732 36735 36738 36741 36744 36747 36750 36753 36756 36759 36762 36765 36768 36771 36774 36777 36780 36783 36786 36789 36792 36795 36798 36801 36804 36807 36810 36813 36816 36819 36822 36825 36828 36831 36834 36837 36840 36843 36846 36849 36852 36855 36858 36861 36864 36867 36870 36873 36876 36879 36882 36885 36888 36891 36894 36897 36900 36903 36906 36909 36912 36915 36918 36921 36924 36927 36930 36933 36936 36939 36942 36945 36948 36951 36954 36957 36960 36963 36966 36969 36972 36975 36978 36981 36984 36987 36990 36993 36996 36999 37002 37005 37008 37011 37014 37017 37020 37023 37026 37029 37032 37035 37038 37041 37044 37047 37050 37053 37056 37059 37062 37065 37068 37071 37074 37077 37080 37083 37086 37089 37092 37095 37098 37101 37104 37107 37110 37113 37116 37119 37122 37125 37128 37131 37134 37137 37140 37143 37146 37149 37152 37155 37158 37161 37164 37167 37170 37173 37176 37179 37182 37185 37188 37191 37194 37197 37200 37203 37206 37209 37212 37215 37218 37221 37224 37227 37230 37233 37236 37239 37242 37245 37248 37251 37254 37257 37260 37263 37266 37269 37272 37275 37278 37281 37284 37287 37290 37293 37296 37299 37302 37305 37308 37311 37314 37317 37320 37323 37326 37329 37332 37335 37338 37341 37344 37347 37350 37353 37356 37359 37362 37365 37368 37371 37374 37377 37380 37383 37386 37389 37392 37395 37398 37401 37404 37407 37410 37413 37416 37419 37422 37425 37428 37431 37434 37437 37440 37443 37446 37449 37452 37455 37458 37461 37464 37467 37470 37473 37476 37479 37482 37485 37488 37491 37494 37497 37500 37503 37506 37509 37512 37515 37518 37521 37524 37527 37530 37533 37536 37539 37542 37545 37548 37551 37554 37557 37560 37563 37566 37569 37572 37575 37578 37581 37584 37587 37590 37593 37596 37599 37602 37605 37608 37611 37614 37617 37620 37623 37626 37629 37632 37635 37638 37641 37644 37647 37650 37653 37656 37659 37662 37665 37668 37671 37674 37677 37680 37683 37686 37689 37692 37695 37698 37701 37704 37707 37710 37713 37716 37719 37722 37725 37728 37731 37734 37737 37740 37743 37746 37749 37752 37755 37758 37761 37764 37767 37770 37773 37776 37779 37782 37785 37788 37791 37794 37797 37800 37803 37806 37809 37812 37815 37818 37821 37824 37827 37830 37833 37836 37839 37842 37845 37848 37851 37854 37857 37860 37863 37866 37869 37872 37875 37878 37881 37884 37887 37890 37893 37896 37899 37902 37905 37908 37911 37914 37917 37920 37923 37926 37929 37932 37935 37938 37941 37944 37947 37950 37953 37956 37959 37962 37965 37968 37971 37974 37977 37980 37983 37986 37989 37992 37995 37998 38001 38004 38007 38010 38013 38016 38019 38022 38025 38028 38031 38034 38037 38040 38043 38046 38049 38052 38055 38058 38061 38064 38067 38070 38073 38076 38079 38082 38085 38088 38091 38094 38097 38100 38103 38106 38109 38112 38115 38118 38121 38124 38127 38130 38133 38136 38139 38142 38145 38148 38151 38154 38157 38160 38163 38166 38169 38172 38175 38178 38181 38184 38187 38190 38193 38196 38199 38202 38205 38208 38211 38214 38217 38220 38223 38226 38229 38232 38235 38238 38241 38244 38247 38250 38253 38256 38259 38262 38265 38268 38271 38274 38277 38280 38283 38286 38289 38292 38295 38298 38301 38304 38307 38310 38313 38316 38319 38322 38325 38328 38331 38334 38337 38340 38343 38346 38349 38352 38355 38358 38361 38364 38367 38370 38373 38376 38379 38382 38385 38388 38391 38394 38397 38400 38403 38406 38409 38412 38415 38418 38421 38424 38427 38430 38433 38436 38439 38442 38445 38448 38451 38454 38457 38460 38463 38466 38469 38472 38475 38478 38481 38484 38487 38490 38493 38496 38499 38502 38505 38508 38511 38514 38517 38520 38523 38526 38529 38532 38535 38538 38541 38544 38547 38550 38553 38556 38559 38562 38565 38568 38571 38574 38577 38580 38583 38586 38589 38592 38595 38598 38601 38604 38607 38610 38613 38616 38619 38622 38625 38628 38631 38634 38637 38640 38643 38646 38649 38652 38655 38658 38661 38664 38667 38670 38673 38676 38679 38682 38685 38688 38691 38694 38697 38700 38703 38706 38709 38712 38715 38718 38721 38724 38727 38730 38733 38736 38739 38742 38745 38748 38751 38754 38757 38760 38763 38766 38769 38772 38775 38778 38781 38784 38787 38790 38793 38796 38799 38802 38805 38808 38811 38814 38817 38820 38823 38826 38829 38832 38835 38838 38841 38844 38847 38850 38853 38856 38859 38862 38865 38868 38871 38874 38877 38880 38883 38886 38889 38892 38895 38898 38901 38904 38907 38910 38913 38916 38919 38922 38925 38928 38931 38934 38937 38940 38943 38946 38949 38952 38955 38958 38961 38964 38967 38970 38973 38976 38979 38982 38985 38988 38991 38994 38997 39000 39003 39006 39009 39012 39015 39018 39021 39024 39027 39030 39033 39036 39039 39042 39045 39048 39051 39054 39057 39060 39063 39066 39069 39072 39075 39078 39081 39084 39087 39090 39093 39096 39099 39102 39105 39108 39111 39114 39117 39120 39123 39126 39129 39132 39135 39138 39141 39144 39147 39150 39153 39156 39159 39162 39165 39168 39171 39174 39177 39180 39183 39186 39189 39192 39195 39198 39201 39204 39207 39210 39213 39216 39219 39222 39225 39228 39231 39234 39237 39240 39243 39246 39249 39252 39255 39258 39261 39264 39267 39270 39273 39276 39279 39282 39285 39288 39291 39294 39297 39300 39303 39306 39309 39312 39315 39318 39321 39324 39327 39330 39333 39336 39339 39342 39345 39348 39351 39354 39357 39360 39363 39366 39369 39372 39375 39378 39381 39384 39387 39390 39393 39396 39399 39402 39405 39408 39411 39414 39417 39420 39423 39426 39429 39432 39435 39438 39441 39444 39447 39450 39453 39456 39459 39462 39465 39468 39471 39474 39477 39480 39483 39486 39489 39492 39495 39498 39501 39504 39507 39510 39513 39516 39519 39522 39525 39528 39531 39534 39537 39540 39543 39546 39549 39552 39555 39558 39561 39564 39567 39570 39573 39576 39579 39582 39585 39588 39591 39594 39597 39600 39603 39606 39609 39612 39615 39618 39621 39624 39627 39630 39633 39636 39639 39642 39645 39648 39651 39654 39657 39660 39663 39666 39669 39672 39675 39678 39681 39684 39687 39690 39693 39696 39699 39702 39705 39708 39711 39714 39717 39720 39723 39726 39729 39732 39735 39738 39741 39744 39747 39750 39753 39756 39759 39762 39765 39768 39771 39774 39777 39780 39783 39786 39789 39792 39795 39798 39801 39804 39807 39810 39813 39816 39819 39822 39825 39828 39831 39834 39837 39840 39843 39846 39849 39852 39855 39858 39861 39864 39867 39870 39873 39876 39879 39882 39885 39888 39891 39894 39897 39900 39903 39906 39909 39912 39915 39918 39921 39924 39927 39930 39933 39936 39939 39942 39945 39948 39951 39954 39957 39960 39963 39966 39969 39972 39975 39978 39981 39984 39987 39990 39993 39996 39999 40002 40005 40008 40011 40014 40017 40020 40023 40026 40029 40032 40035 40038 40041 40044 40047 40050 40053 40056 40059 40062 40065 40068 40071 40074 40077 40080 40083 40086 40089 40092 40095 40098 40101 40104 40107 40110 40113 40116 40119 40122 40125 40128 40131 40134 40137 40140 40143 40146 40149 40152 40155 40158 40161 40164 40167 40170 40173 40176 40179 40182 40185 40188 40191 40194 40197 40200 40203 40206 40209 40212 40215 40218 40221 40224 40227 40230 40233 40236 40239 40242 40245 40248 40251 40254 40257 40260 40263 40266 40269 40272 40275 40278 40281 40284 40287 40290 40293 40296 40299 40302 40305 40308 40311 40314 40317 40320 40323 40326 40329 40332 40335 40338 40341 40344 40347 40350 40353 40356 40359 40362 40365 40368 40371 40374 40377 40380 40383 40386 40389 40392 40395 40398 40401 40404 40407 40410 40413 40416 40419 40422 40425 40428 40431 40434 40437 40440 40443 40446 40449 40452 40455 40458 40461 40464 40467 40470 40473 40476 40479 40482 40485 40488 40491 40494 40497 40500 40503 40506 40509 40512 40515 40518 40521 40524 40527 40530 40533 40536 40539 40542 40545 40548 40551 40554 40557 40560 40563 40566 40569 40572 40575 40578 40581 40584 40587 40590 40593 40596 40599 40602 40605 40608 40611 40614 40617 40620 40623 40626 40629 40632 40635 40638 40641 40644 40647 40650 40653 40656 40659 40662 40665 40668 40671 40674 40677 40680 40683 40686 40689 40692 40695 40698 40701 40704 40707 40710 40713 40716 40719 40722 40725 40728 40731 40734 40737 40740 40743 40746 40749 40752 40755 40758 40761 40764 40767 40770 40773 40776 40779 40782 40785 40788 40791 40794 40797 40800 40803 40806 40809 40812 40815 40818 40821 40824 40827 40830 40833 40836 40839 40842 40845 40848 40851 40854 40857 40860 40863 40866 40869 40872 40875 40878 40881 40884 40887 40890 40893 40896 40899 40902 40905 40908 40911 40914 40917 40920 40923 40926 40929 40932 40935 40938 40941 40944 40947 40950 40953 40956 40959 40962 40965 40968 40971 40974 40977 40980 40983 40986 40989 40992 40995 40998 41001 41004 41007 41010 41013 41016 41019 41022 41025 41028 41031 41034 41037 41040 41043 41046 41049 41052 41055 41058 41061 41064 41067 41070 41073 41076 41079 41082 41085 41088 41091 41094 41097 41100 41103 41106 41109 41112 41115 41118 41121 41124 41127 41130 41133 41136 41139 41142 41145 41148 41151 41154 41157 41160 41163 41166 41169 41172 41175 41178 41181 41184 41187 41190 41193 41196 41199 41202 41205 41208 41211 41214 41217 41220 41223 41226 41229 41232 41235 41238 41241 41244 41247 41250 41253 41256 41259 41262 41265 41268 41271 41274 41277 41280 41283 41286 41289 41292 41295 41298 41301 41304 41307 41310 41313 41316 41319 41322 41325 41328 41331 41334 41337 41340 41343 41346 41349 41352 41355 41358 41361 41364 41367 41370 41373 41376 41379 41382 41385 41388 41391 41394 41397 41400 41403 41406 41409 41412 41415 41418 41421 41424 41427 41430 41433 41436 41439 41442 41445 41448 41451 41454 41457 41460 41463 41466 41469 41472 41475 41478 41481 41484 41487 41490 41493 41496 41499 41502 41505 41508 41511 41514 41517 41520 41523 41526 41529 41532 41535 41538 41541 41544 41547 41550 41553 41556 41559 41562 41565 41568 41571 41574 41577 41580 41583 41586 41589 41592 41595 41598 41601 41604 41607 41610 41613 41616 41619 41622 41625 41628 41631 41634 41637 41640 41643 41646 41649 41652 41655 41658 41661 41664 41667 41670 41673 41676 41679 41682 41685 41688 41691 41694 41697 41700 41703 41706 41709 41712 41715 41718 41721 41724 41727 41730 41733 41736 41739 41742 41745 41748 41751 41754 41757 41760 41763 41766 41769 41772 41775 41778 41781 41784 41787 41790 41793 41796 41799 41802 41805 41808 41811 41814 41817 41820 41823 41826 41829 41832 41835 41838 41841 41844 41847 41850 41853 41856 41859 41862 41865 41868 41871 41874 41877 41880 41883 41886 41889 41892 41895 41898 41901 41904 41907 41910 41913 41916 41919 41922 41925 41928 41931 41934 41937 41940 41943 41946 41949 41952 41955 41958 41961 41964 41967 41970 41973 41976 41979 41982 41985 41988 41991 41994 41997 42000 42003 42006 42009 42012 42015 42018 42021 42024 42027 42030 42033 42036 42039 42042 42045 42048 42051 42054 42057 42060 42063 42066 42069 42072 42075 42078 42081 42084 42087 42090 42093 42096 42099 42102 42105 42108 42111 42114 42117 42120 42123 42126 42129 42132 42135 42138 42141 42144 42147 42150 42153 42156 42159 42162 42165 42168 42171 42174 42177 42180 42183 42186 42189 42192 42195 42198 42201 42204 42207 42210 42213 42216 42219 42222 42225 42228 42231 42234 42237 42240 42243 42246 42249 42252 42255 42258 42261 42264 42267 42270 42273 42276 42279 42282 42285 42288 42291 42294 42297 42300 42303 42306 42309 42312 42315 42318 42321 42324 42327 42330 42333 42336 42339 42342 42345 42348 42351 42354 42357 42360 42363 42366 42369 42372 42375 42378 42381 42384 42387 42390 42393 42396 42399 42402 42405 42408 42411 42414 42417 42420 42423 42426 42429 42432 42435 42438 42441 42444 42447 42450 42453 42456 42459 42462 42465 42468 42471 42474 42477 42480 42483 42486 42489 42492 42495 42498 42501 42504 42507 42510 42513 42516 42519 42522 42525 42528 42531 42534 42537 42540 42543 42546 42549 42552 42555 42558 42561 42564 42567 42570 42573 42576 42579 42582 42585 42588 42591 42594 42597 42600 42603 42606 42609 42612 42615 42618 42621 42624 42627 42630 42633 42636 42639 42642 42645 42648 42651 42654 42657 42660 42663 42666 42669 42672 42675 42678 42681 42684 42687 42690 42693 42696 42699 42702 42705 42708 42711 42714 42717 42720 42723 42726 42729 42732 42735 42738 42741 42744 42747 42750 42753 42756 42759 42762 42765 42768 42771 42774 42777 42780 42783 42786 42789 42792 42795 42798 42801 42804 42807 42810 42813 42816 42819 42822 42825 42828 42831 42834 42837 42840 42843 42846 42849 42852 42855 42858 42861 42864 42867 42870 42873 42876 42879 42882 42885 42888 42891 42894 42897 42900 42903 42906 42909 42912 42915 42918 42921 42924 42927 42930 42933 42936 42939 42942 42945 42948 42951 42954 42957 42960 42963 42966 42969 42972 42975 42978 42981 42984 42987 42990 42993 42996 42999 43002 43005 43008 43011 43014 43017 43020 43023 43026 43029 43032 43035 43038 43041 43044 43047 43050 43053 43056 43059 43062 43065 43068 43071 43074 43077 43080 43083 43086 43089 43092 43095 43098 43101 43104 43107 43110 43113 43116 43119 43122 43125 43128 43131 43134 43137 43140 43143 43146 43149 43152 43155 43158 43161 43164 43167 43170 43173 43176 43179 43182 43185 43188 43191 43194 43197 43200 43203 43206 43209 43212 43215 43218 43221 43224 43227 43230 43233 43236 43239 43242 43245 43248 43251 43254 43257 43260 43263 43266 43269 43272 43275 43278 43281 43284 43287 43290 43293 43296 43299 43302 43305 43308 43311 43314 43317 43320 43323 43326 43329 43332 43335 43338 43341 43344 43347 43350 43353 43356 43359 43362 43365 43368 43371 43374 43377 43380 43383 43386 43389 43392 43395 43398 43401 43404 43407 43410 43413 43416 43419 43422 43425 43428 43431 43434 43437 43440 43443 43446 43449 43452 43455 43458 43461 43464 43467 43470 43473 43476 43479 43482 43485 43488 43491 43494 43497 43500 43503 43506 43509 43512 43515 43518 43521 43524 43527 43530 43533 43536 43539 43542 43545 43548 43551 43554 43557 43560 43563 43566 43569 43572 43575 43578 43581 43584 43587 43590 43593 43596 43599 43602 43605 43608 43611 43614 43617 43620 43623 43626 43629 43632 43635 43638 43641 43644 43647 43650 43653 43656 43659 43662 43665 43668 43671 43674 43677 43680 43683 43686 43689 43692 43695 43698 43701 43704 43707 43710 43713 43716 43719 43722 43725 43728 43731 43734 43737 43740 43743 43746 43749 43752 43755 43758 43761 43764 43767 43770 43773 43776 43779 43782 43785 43788 43791 43794 43797 43800 43803 43806 43809 43812 43815 43818 43821 43824 43827 43830 43833 43836 43839 43842 43845 43848 43851 43854 43857 43860 43863 43866 43869 43872 43875 43878 43881 43884 43887 43890 43893 43896 43899 43902 43905 43908 43911 43914 43917 43920 43923 43926 43929 43932 43935 43938 43941 43944 43947 43950 43953 43956 43959 43962 43965 43968 43971 43974 43977 43980 43983 43986 43989 43992 43995 43998 44001 44004 44007 44010 44013 44016 44019 44022 44025 44028 44031 44034 44037 44040 44043 44046 44049 44052 44055 44058 44061 44064 44067 44070 44073 44076 44079 44082 44085 44088 44091 44094 44097 44100 44103 44106 44109 44112 44115 44118 44121 44124 44127 44130 44133 44136 44139 44142 44145 44148 44151 44154 44157 44160 44163 44166 44169 44172 44175 44178 44181 44184 44187 44190 44193 44196 44199 44202 44205 44208 44211 44214 44217 44220 44223 44226 44229 44232 44235 44238 44241 44244 44247 44250 44253 44256 44259 44262 44265 44268 44271 44274 44277 44280 44283 44286 44289 44292 44295 44298 44301 44304 44307 44310 44313 44316 44319 44322 44325 44328 44331 44334 44337 44340 44343 44346 44349 44352 44355 44358 44361 44364 44367 44370 44373 44376 44379 44382 44385 44388 44391 44394 44397 44400 44403 44406 44409 44412 44415 44418 44421 44424 44427 44430 44433 44436 44439 44442 44445 44448 44451 44454 44457 44460 44463 44466 44469 44472 44475 44478 44481 44484 44487 44490 44493 44496 44499 44502 44505 44508 44511 44514 44517 44520 44523 44526 44529 44532 44535 44538 44541 44544 44547 44550 44553 44556 44559 44562 44565 44568 44571 44574 44577 44580 44583 44586 44589 44592 44595 44598 44601 44604 44607 44610 44613 44616 44619 44622 44625 44628 44631 44634 44637 44640 44643 44646 44649 44652 44655 44658 44661 44664 44667 44670 44673 44676 44679 44682 44685 44688 44691 44694 44697 44700 44703 44706 44709 44712 44715 44718 44721 44724 44727 44730 44733 44736 44739 44742 44745 44748 44751 44754 44757 44760 44763 44766 44769 44772 44775 44778 44781 44784 44787 44790 44793 44796 44799 44802 44805 44808 44811 44814 44817 44820 44823 44826 44829 44832 44835 44838 44841 44844 44847 44850 44853 44856 44859 44862 44865 44868 44871 44874 44877 44880 44883 44886 44889 44892 44895 44898 44901 44904 44907 44910 44913 44916 44919 44922 44925 44928 44931 44934 44937 44940 44943 44946 44949 44952 44955 44958 44961 44964 44967 44970 44973 44976 44979 44982 44985 44988 44991 44994 44997 45000 45003 45006 45009 45012 45015 45018 45021 45024 45027 45030 45033 45036 45039 45042 45045 45048 45051 45054 45057 45060 45063 45066 45069 45072 45075 45078 45081 45084 45087 45090 45093 45096 45099 45102 45105 45108 45111 45114 45117 45120 45123 45126 45129 45132 45135 45138 45141 45144 45147 45150 45153 45156 45159 45162 45165 45168 45171 45174 45177 45180 45183 45186 45189 45192 45195 45198 45201 45204 45207 45210 45213 45216 45219 45222 45225 45228 45231 45234 45237 45240 45243 45246 45249 45252 45255 45258 45261 45264 45267 45270 45273 45276 45279 45282 45285 45288 45291 45294 45297 45300 45303 45306 45309 45312 45315 45318 45321 45324 45327 45330 45333 45336 45339 45342 45345 45348 45351 45354 45357 45360 45363 45366 45369 45372 45375 45378 45381 45384 45387 45390 45393 45396 45399 45402 45405 45408 45411 45414 45417 45420 45423 45426 45429 45432 45435 45438 45441 45444 45447 45450 45453 45456 45459 45462 45465 45468 45471 45474 45477 45480 45483 45486 45489 45492 45495 45498 45501 45504 45507 45510 45513 45516 45519 45522 45525 45528 45531 45534 45537 45540 45543 45546 45549 45552 45555 45558 45561 45564 45567 45570 45573 45576 45579 45582 45585 45588 45591 45594 45597 45600 45603 45606 45609 45612 45615 45618 45621 45624 45627 45630 45633 45636 45639 45642 45645 45648 45651 45654 45657 45660 45663 45666 45669 45672 45675 45678 45681 45684 45687 45690 45693 45696 45699 45702 45705 45708 45711 45714 45717 45720 45723 45726 45729 45732 45735 45738 45741 45744 45747 45750 45753 45756 45759 45762 45765 45768 45771 45774 45777 45780 45783 45786 45789 45792 45795 45798 45801 45804 45807 45810 45813 45816 45819 45822 45825 45828 45831 45834 45837 45840 45843 45846 45849 45852 45855 45858 45861 45864 45867 45870 45873 45876 45879 45882 45885 45888 45891 45894 45897 45900 45903 45906 45909 45912 45915 45918 45921 45924 45927 45930 45933 45936 45939 45942 45945 45948 45951 45954 45957 45960 45963 45966 45969 45972 45975 45978 45981 45984 45987 45990 45993 45996 45999 46002 46005 46008 46011 46014 46017 46020 46023 46026 46029 46032 46035 46038 46041 46044 46047 46050 46053 46056 46059 46062 46065 46068 46071 46074 46077 46080 46083 46086 46089 46092 46095 46098 46101 46104 46107 46110 46113 46116 46119 46122 46125 46128 46131 46134 46137 46140 46143 46146 46149 46152 46155 46158 46161 46164 46167 46170 46173 46176 46179 46182 46185 46188 46191 46194 46197 46200 46203 46206 46209 46212 46215 46218 46221 46224 46227 46230 46233 46236 46239 46242 46245 46248 46251 46254 46257 46260 46263 46266 46269 46272 46275 46278 46281 46284 46287 46290 46293 46296 46299 46302 46305 46308 46311 46314 46317 46320 46323 46326 46329 46332 46335 46338 46341 46344 46347 46350 46353 46356 46359 46362 46365 46368 46371 46374 46377 46380 46383 46386 46389 46392 46395 46398 46401 46404 46407 46410 46413 46416 46419 46422 46425 46428 46431 46434 46437 46440 46443 46446 46449 46452 46455 46458 46461 46464 46467 46470 46473 46476 46479 46482 46485 46488 46491 46494 46497 46500 46503 46506 46509 46512 46515 46518 46521 46524 46527 46530 46533 46536 46539 46542 46545 46548 46551 46554 46557 46560 46563 46566 46569 46572 46575 46578 46581 46584 46587 46590 46593 46596 46599 46602 46605 46608 46611 46614 46617 46620 46623 46626 46629 46632 46635 46638 46641 46644 46647 46650 46653 46656 46659 46662 46665 46668 46671 46674 46677 46680 46683 46686 46689 46692 46695 46698 46701 46704 46707 46710 46713 46716 46719 46722 46725 46728 46731 46734 46737 46740 46743 46746 46749 46752 46755 46758 46761 46764 46767 46770 46773 46776 46779 46782 46785 46788 46791 46794 46797 46800 46803 46806 46809 46812 46815 46818 46821 46824 46827 46830 46833 46836 46839 46842 46845 46848 46851 46854 46857 46860 46863 46866 46869 46872 46875 46878 46881 46884 46887 46890 46893 46896 46899 46902 46905 46908 46911 46914 46917 46920 46923 46926 46929 46932 46935 46938 46941 46944 46947 46950 46953 46956 46959 46962 46965 46968 46971 46974 46977 46980 46983 46986 46989 46992 46995 46998 47001 47004 47007 47010 47013 47016 47019 47022 47025 47028 47031 47034 47037 47040 47043 47046 47049 47052 47055 47058 47061 47064 47067 47070 47073 47076 47079 47082 47085 47088 47091 47094 47097 47100 47103 47106 47109 47112 47115 47118 47121 47124 47127 47130 47133 47136 47139 47142 47145 47148 47151 47154 47157 47160 47163 47166 47169 47172 47175 47178 47181 47184 47187 47190 47193 47196 47199 47202 47205 47208 47211 47214 47217 47220 47223 47226 47229 47232 47235 47238 47241 47244 47247 47250 47253 47256 47259 47262 47265 47268 47271 47274 47277 47280 47283 47286 47289 47292 47295 47298 47301 47304 47307 47310 47313 47316 47319 47322 47325 47328 47331 47334 47337 47340 47343 47346 47349 47352 47355 47358 47361 47364 47367 47370 47373 47376 47379 47382 47385 47388 47391 47394 47397 47400 47403 47406 47409 47412 47415 47418 47421 47424 47427 47430 47433 47436 47439 47442 47445 47448 47451 47454 47457 47460 47463 47466 47469 47472 47475 47478 47481 47484 47487 47490 47493 47496 47499 47502 47505 47508 47511 47514 47517 47520 47523 47526 47529 47532 47535 47538 47541 47544 47547 47550 47553 47556 47559 47562 47565 47568 47571 47574 47577 47580 47583 47586 47589 47592 47595 47598 47601 47604 47607 47610 47613 47616 47619 47622 47625 47628 47631 47634 47637 47640 47643 47646 47649 47652 47655 47658 47661 47664 47667 47670 47673 47676 47679 47682 47685 47688 47691 47694 47697 47700 47703 47706 47709 47712 47715 47718 47721 47724 47727 47730 47733 47736 47739 47742 47745 47748 47751 47754 47757 47760 47763 47766 47769 47772 47775 47778 47781 47784 47787 47790 47793 47796 47799 47802 47805 47808 47811 47814 47817 47820 47823 47826 47829 47832 47835 47838 47841 47844 47847 47850 47853 47856 47859 47862 47865 47868 47871 47874 47877 47880 47883 47886 47889 47892 47895 47898 47901 47904 47907 47910 47913 47916 47919 47922 47925 47928 47931 47934 47937 47940 47943 47946 47949 47952 47955 47958 47961 47964 47967 47970 47973 47976 47979 47982 47985 47988 47991 47994 47997 48000 48003 48006 48009 48012 48015 48018 48021 48024 48027 48030 48033 48036 48039 48042 48045 48048 48051 48054 48057 48060 48063 48066 48069 48072 48075 48078 48081 48084 48087 48090 48093 48096 48099 48102 48105 48108 48111 48114 48117 48120 48123 48126 48129 48132 48135 48138 48141 48144 48147 48150 48153 48156 48159 48162 48165 48168 48171 48174 48177 48180 48183 48186 48189 48192 48195 48198 48201 48204 48207 48210 48213 48216 48219 48222 48225 48228 48231 48234 48237 48240 48243 48246 48249 48252 48255 48258 48261 48264 48267 48270 48273 48276 48279 48282 48285 48288 48291 48294 48297 48300 48303 48306 48309 48312 48315 48318 48321 48324 48327 48330 48333 48336 48339 48342 48345 48348 48351 48354 48357 48360 48363 48366 48369 48372 48375 48378 48381 48384 48387 48390 48393 48396 48399 48402 48405 48408 48411 48414 48417 48420 48423 48426 48429 48432 48435 48438 48441 48444 48447 48450 48453 48456 48459 48462 48465 48468 48471 48474 48477 48480 48483 48486 48489 48492 48495 48498 48501 48504 48507 48510 48513 48516 48519 48522 48525 48528 48531 48534 48537 48540 48543 48546 48549 48552 48555 48558 48561 48564 48567 48570 48573 48576 48579 48582 48585 48588 48591 48594 48597 48600 48603 48606 48609 48612 48615 48618 48621 48624 48627 48630 48633 48636 48639 48642 48645 48648 48651 48654 48657 48660 48663 48666 48669 48672 48675 48678 48681 48684 48687 48690 48693 48696 48699 48702 48705 48708 48711 48714 48717 48720 48723 48726 48729 48732 48735 48738 48741 48744 48747 48750 48753 48756 48759 48762 48765 48768 48771 48774 48777 48780 48783 48786 48789 48792 48795 48798 48801 48804 48807 48810 48813 48816 48819 48822 48825 48828 48831 48834 48837 48840 48843 48846 48849 48852 48855 48858 48861 48864 48867 48870 48873 48876 48879 48882 48885 48888 48891 48894 48897 48900 48903 48906 48909 48912 48915 48918 48921 48924 48927 48930 48933 48936 48939 48942 48945 48948 48951 48954 48957 48960 48963 48966 48969 48972 48975 48978 48981 48984 48987 48990 48993 48996 48999 49002 49005 49008 49011 49014 49017 49020 49023 49026 49029 49032 49035 49038 49041 49044 49047 49050 49053 49056 49059 49062 49065 49068 49071 49074 49077 49080 49083 49086 49089 49092 49095 49098 49101 49104 49107 49110 49113 49116 49119 49122 49125 49128 49131 49134 49137 49140 49143 49146 49149 49152 49155 49158 49161 49164 49167 49170 49173 49176 49179 49182 49185 49188 49191 49194 49197 49200 49203 49206 49209 49212 49215 49218 49221 49224 49227 49230 49233 49236 49239 49242 49245 49248 49251 49254 49257 49260 49263 49266 49269 49272 49275 49278 49281 49284 49287 49290 49293 49296 49299 49302 49305 49308 49311 49314 49317 49320 49323 49326 49329 49332 49335 49338 49341 49344 49347 49350 49353 49356 49359 49362 49365 49368 49371 49374 49377 49380 49383 49386 49389 49392 49395 49398 49401 49404 49407 49410 49413 49416 49419 49422 49425 49428 49431 49434 49437 49440 49443 49446 49449 49452 49455 49458 49461 49464 49467 49470 49473 49476 49479 49482 49485 49488 49491 49494 49497 49500 49503 49506 49509 49512 49515 49518 49521 49524 49527 49530 49533 49536 49539 49542 49545 49548 49551 49554 49557 49560 49563 49566 49569 49572 49575 49578 49581 49584 49587 49590 49593 49596 49599 49602 49605 49608 49611 49614 49617 49620 49623 49626 49629 49632 49635 49638 49641 49644 49647 49650 49653 49656 49659 49662 49665 49668 49671 49674 49677 49680 49683 49686 49689 49692 49695 49698 49701 49704 49707 49710 49713 49716 49719 49722 49725 49728 49731 49734 49737 49740 49743 49746 49749 49752 49755 49758 49761 49764 49767 49770 49773 49776 49779 49782 49785 49788 49791 49794 49797 49800 49803 49806 49809 49812 49815 49818 49821 49824 49827 49830 49833 49836 49839 49842 49845 49848 49851 49854 49857 49860 49863 49866 49869 49872 49875 49878 49881 49884 49887 49890 49893 49896 49899 49902 49905 49908 49911 49914 49917 49920 49923 49926 49929 49932 49935 49938 49941 49944 49947 49950 49953 49956 49959 49962 49965 49968 49971 49974 49977 49980 49983 49986 49989 49992 49995 49998 50001 50004 50007 50010 50013 50016 50019 50022 50025 50028 50031 50034 50037 50040 50043 50046 50049 50052 50055 50058 50061 50064 50067 50070 50073 50076 50079 50082 50085 50088 50091 50094 50097 50100 50103 50106 50109 50112 50115 50118 50121 50124 50127 50130 50133 50136 50139 50142 50145 50148 50151 50154 50157 50160 50163 50166 50169 50172 50175 50178 50181 50184 50187 50190 50193 50196 50199 50202 50205 50208 50211 50214 50217 50220 50223 50226 50229 50232 50235 50238 50241 50244 50247 50250 50253 50256 50259 50262 50265 50268 50271 50274 50277 50280 50283 50286 50289 50292 50295 50298 50301 50304 50307 50310 50313 50316 50319 50322 50325 50328 50331 50334 50337 50340 50343 50346 50349 50352 50355 50358 50361 50364 50367 50370 50373 50376 50379 50382 50385 50388 50391 50394 50397 50400 50403 50406 50409 50412 50415 50418 50421 50424 50427 50430 50433 50436 50439 50442 50445 50448 50451 50454 50457 50460 50463 50466 50469 50472 50475 50478 50481 50484 50487 50490 50493 50496 50499 50502 50505 50508 50511 50514 50517 50520 50523 50526 50529 50532 50535 50538 50541 50544 50547 50550 50553 50556 50559 50562 50565 50568 50571 50574 50577 50580 50583 50586 50589 50592 50595 50598 50601 50604 50607 50610 50613 50616 50619 50622 50625 50628 50631 50634 50637 50640 50643 50646 50649 50652 50655 50658 50661 50664 50667 50670 50673 50676 50679 50682 50685 50688 50691 50694 50697 50700 50703 50706 50709 50712 50715 50718 50721 50724 50727 50730 50733 50736 50739 50742 50745 50748 50751 50754 50757 50760 50763 50766 50769 50772 50775 50778 50781 50784 50787 50790 50793 50796 50799 50802 50805 50808 50811 50814 50817 50820 50823 50826 50829 50832 50835 50838 50841 50844 50847 50850 50853 50856 50859 50862 50865 50868 50871 50874 50877 50880 50883 50886 50889 50892 50895 50898 50901 50904 50907 50910 50913 50916 50919 50922 50925 50928 50931 50934 50937 50940 50943 50946 50949 50952 50955 50958 50961 50964 50967 50970 50973 50976 50979 50982 50985 50988 50991 50994 50997 51000 51003 51006 51009 51012 51015 51018 51021 51024 51027 51030 51033 51036 51039 51042 51045 51048 51051 51054 51057 51060 51063 51066 51069 51072 51075 51078 51081 51084 51087 51090 51093 51096 51099 51102 51105 51108 51111 51114 51117 51120 51123 51126 51129 51132 51135 51138 51141 51144 51147 51150 51153 51156 51159 51162 51165 51168 51171 51174 51177 51180 51183 51186 51189 51192 51195 51198 51201 51204 51207 51210 51213 51216 51219 51222 51225 51228 51231 51234 51237 51240 51243 51246 51249 51252 51255 51258 51261 51264 51267 51270 51273 51276 51279 51282 51285 51288 51291 51294 51297 51300 51303 51306 51309 51312 51315 51318 51321 51324 51327 51330 51333 51336 51339 51342 51345 51348 51351 51354 51357 51360 51363 51366 51369 51372 51375 51378 51381 51384 51387 51390 51393 51396 51399 51402 51405 51408 51411 51414 51417 51420 51423 51426 51429 51432 51435 51438 51441 51444 51447 51450 51453 51456 51459 51462 51465 51468 51471 51474 51477 51480 51483 51486 51489 51492 51495 51498 51501 51504 51507 51510 51513 51516 51519 51522 51525 51528 51531 51534 51537 51540 51543 51546 51549 51552 51555 51558 51561 51564 51567 51570 51573 51576 51579 51582 51585 51588 51591 51594 51597 51600 51603 51606 51609 51612 51615 51618 51621 51624 51627 51630 51633 51636 51639 51642 51645 51648 51651 51654 51657 51660 51663 51666 51669 51672 51675 51678 51681 51684 51687 51690 51693 51696 51699 51702 51705 51708 51711 51714 51717 51720 51723 51726 51729 51732 51735 51738 51741 51744 51747 51750 51753 51756 51759 51762 51765 51768 51771 51774 51777 51780 51783 51786 51789 51792 51795 51798 51801 51804 51807 51810 51813 51816 51819 51822 51825 51828 51831 51834 51837 51840 51843 51846 51849 51852 51855 51858 51861 51864 51867 51870 51873 51876 51879 51882 51885 51888 51891 51894 51897 51900 51903 51906 51909 51912 51915 51918 51921 51924 51927 51930 51933 51936 51939 51942 51945 51948 51951 51954 51957 51960 51963 51966 51969 51972 51975 51978 51981 51984 51987 51990 51993 51996 51999 52002 52005 52008 52011 52014 52017 52020 52023 52026 52029 52032 52035 52038 52041 52044 52047 52050 52053 52056 52059 52062 52065 52068 52071 52074 52077 52080 52083 52086 52089 52092 52095 52098 52101 52104 52107 52110 52113 52116 52119 52122 52125 52128 52131 52134 52137 52140 52143 52146 52149 52152 52155 52158 52161 52164 52167 52170 52173 52176 52179 52182 52185 52188 52191 52194 52197 52200 52203 52206 52209 52212 52215 52218 52221 52224 52227 52230 52233 52236 52239 52242 52245 52248 52251 52254 52257 52260 52263 52266 52269 52272 52275 52278 52281 52284 52287 52290 52293 52296 52299 52302 52305 52308 52311 52314 52317 52320 52323 52326 52329 52332 52335 52338 52341 52344 52347 52350 52353 52356 52359 52362 52365 52368 52371 52374 52377 52380 52383 52386 52389 52392 52395 52398 52401 52404 52407 52410 52413 52416 52419 52422 52425 52428 52431 52434 52437 52440 52443 52446 52449 52452 52455 52458 52461 52464 52467 52470 52473 52476 52479 52482 52485 52488 52491 52494 52497 52500 52503 52506 52509 52512 52515 52518 52521 52524 52527 52530 52533 52536 52539 52542 52545 52548 52551 52554 52557 52560 52563 52566 52569 52572 52575 52578 52581 52584 52587 52590 52593 52596 52599 52602 52605 52608 52611 52614 52617 52620 52623 52626 52629 52632 52635 52638 52641 52644 52647 52650 52653 52656 52659 52662 52665 52668 52671 52674 52677 52680 52683 52686 52689 52692 52695 52698 52701 52704 52707 52710 52713 52716 52719 52722 52725 52728 52731 52734 52737 52740 52743 52746 52749 52752 52755 52758 52761 52764 52767 52770 52773 52776 52779 52782 52785 52788 52791 52794 52797 52800 52803 52806 52809 52812 52815 52818 52821 52824 52827 52830 52833 52836 52839 52842 52845 52848 52851 52854 52857 52860 52863 52866 52869 52872 52875 52878 52881 52884 52887 52890 52893 52896 52899 52902 52905 52908 52911 52914 52917 52920 52923 52926 52929 52932 52935 52938 52941 52944 52947 52950 52953 52956 52959 52962 52965 52968 52971 52974 52977 52980 52983 52986 52989 52992 52995 52998 53001 53004 53007 53010 53013 53016 53019 53022 53025 53028 53031 53034 53037 53040 53043 53046 53049 53052 53055 53058 53061 53064 53067 53070 53073 53076 53079 53082 53085 53088 53091 53094 53097 53100 53103 53106 53109 53112 53115 53118 53121 53124 53127 53130 53133 53136 53139 53142 53145 53148 53151 53154 53157 53160 53163 53166 53169 53172 53175 53178 53181 53184 53187 53190 53193 53196 53199 53202 53205 53208 53211 53214 53217 53220 53223 53226 53229 53232 53235 53238 53241 53244 53247 53250 53253 53256 53259 53262 53265 53268 53271 53274 53277 53280 53283 53286 53289 53292 53295 53298 53301 53304 53307 53310 53313 53316 53319 53322 53325 53328 53331 53334 53337 53340 53343 53346 53349 53352 53355 53358 53361 53364 53367 53370 53373 53376 53379 53382 53385 53388 53391 53394 53397 53400 53403 53406 53409 53412 53415 53418 53421 53424 53427 53430 53433 53436 53439 53442 53445 53448 53451 53454 53457 53460 53463 53466 53469 53472 53475 53478 53481 53484 53487 53490 53493 53496 53499 53502 53505 53508 53511 53514 53517 53520 53523 53526 53529 53532 53535 53538 53541 53544 53547 53550 53553 53556 53559 53562 53565 53568 53571 53574 53577 53580 53583 53586 53589 53592 53595 53598 53601 53604 53607 53610 53613 53616 53619 53622 53625 53628 53631 53634 53637 53640 53643 53646 53649 53652 53655 53658 53661 53664 53667 53670 53673 53676 53679 53682 53685 53688 53691 53694 53697 53700 53703 53706 53709 53712 53715 53718 53721 53724 53727 53730 53733 53736 53739 53742 53745 53748 53751 53754 53757 53760 53763 53766 53769 53772 53775 53778 53781 53784 53787 53790 53793 53796 53799 53802 53805 53808 53811 53814 53817 53820 53823 53826 53829 53832 53835 53838 53841 53844 53847 53850 53853 53856 53859 53862 53865 53868 53871 53874 53877 53880 53883 53886 53889 53892 53895 53898 53901 53904 53907 53910 53913 53916 53919 53922 53925 53928 53931 53934 53937 53940 53943 53946 53949 53952 53955 53958 53961 53964 53967 53970 53973 53976 53979 53982 53985 53988 53991 53994 53997 54000 54003 54006 54009 54012 54015 54018 54021 54024 54027 54030 54033 54036 54039 54042 54045 54048 54051 54054 54057 54060 54063 54066 54069 54072 54075 54078 54081 54084 54087 54090 54093 54096 54099 54102 54105 54108 54111 54114 54117 54120 54123 54126 54129 54132 54135 54138 54141 54144 54147 54150 54153 54156 54159 54162 54165 54168 54171 54174 54177 54180 54183 54186 54189 54192 54195 54198 54201 54204 54207 54210 54213 54216 54219 54222 54225 54228 54231 54234 54237 54240 54243 54246 54249 54252 54255 54258 54261 54264 54267 54270 54273 54276 54279 54282 54285 54288 54291 54294 54297 54300 54303 54306 54309 54312 54315 54318 54321 54324 54327 54330 54333 54336 54339 54342 54345 54348 54351 54354 54357 54360 54363 54366 54369 54372 54375 54378 54381 54384 54387 54390 54393 54396 54399 54402 54405 54408 54411 54414 54417 54420 54423 54426 54429 54432 54435 54438 54441 54444 54447 54450 54453 54456 54459 54462 54465 54468 54471 54474 54477 54480 54483 54486 54489 54492 54495 54498 54501 54504 54507 54510 54513 54516 54519 54522 54525 54528 54531 54534 54537 54540 54543 54546 54549 54552 54555 54558 54561 54564 54567 54570 54573 54576 54579 54582 54585 54588 54591 54594 54597 54600 54603 54606 54609 54612 54615 54618 54621 54624 54627 54630 54633 54636 54639 54642 54645 54648 54651 54654 54657 54660 54663 54666 54669 54672 54675 54678 54681 54684 54687 54690 54693 54696 54699 54702 54705 54708 54711 54714 54717 54720 54723 54726 54729 54732 54735 54738 54741 54744 54747 54750 54753 54756 54759 54762 54765 54768 54771 54774 54777 54780 54783 54786 54789 54792 54795 54798 54801 54804 54807 54810 54813 54816 54819 54822 54825 54828 54831 54834 54837 54840 54843 54846 54849 54852 54855 54858 54861 54864 54867 54870 54873 54876 54879 54882 54885 54888 54891 54894 54897 54900 54903 54906 54909 54912 54915 54918 54921 54924 54927 54930 54933 54936 54939 54942 54945 54948 54951 54954 54957 54960 54963 54966 54969 54972 54975 54978 54981 54984 54987 54990 54993 54996 54999 55002 55005 55008 55011 55014 55017 55020 55023 55026 55029 55032 55035 55038 55041 55044 55047 55050 55053 55056 55059 55062 55065 55068 55071 55074 55077 55080 55083 55086 55089 55092 55095 55098 55101 55104 55107 55110 55113 55116 55119 55122 55125 55128 55131 55134 55137 55140 55143 55146 55149 55152 55155 55158 55161 55164 55167 55170 55173 55176 55179 55182 55185 55188 55191 55194 55197 55200 55203 55206 55209 55212 55215 55218 55221 55224 55227 55230 55233 55236 55239 55242 55245 55248 55251 55254 55257 55260 55263 55266 55269 55272 55275 55278 55281 55284 55287 55290 55293 55296 55299 55302 55305 55308 55311 55314 55317 55320 55323 55326 55329 55332 55335 55338 55341 55344 55347 55350 55353 55356 55359 55362 55365 55368 55371 55374 55377 55380 55383 55386 55389 55392 55395 55398 55401 55404 55407 55410 55413 55416 55419 55422 55425 55428 55431 55434 55437 55440 55443 55446 55449 55452 55455 55458 55461 55464 55467 55470 55473 55476 55479 55482 55485 55488 55491 55494 55497 55500 55503 55506 55509 55512 55515 55518 55521 55524 55527 55530 55533 55536 55539 55542 55545 55548 55551 55554 55557 55560 55563 55566 55569 55572 55575 55578 55581 55584 55587 55590 55593 55596 55599 55602 55605 55608 55611 55614 55617 55620 55623 55626 55629 55632 55635 55638 55641 55644 55647 55650 55653 55656 55659 55662 55665 55668 55671 55674 55677 55680 55683 55686 55689 55692 55695 55698 55701 55704 55707 55710 55713 55716 55719 55722 55725 55728 55731 55734 55737 55740 55743 55746 55749 55752 55755 55758 55761 55764 55767 55770 55773 55776 55779 55782 55785 55788 55791 55794 55797 55800 55803 55806 55809 55812 55815 55818 55821 55824 55827 55830 55833 55836 55839 55842 55845 55848 55851 55854 55857 55860 55863 55866 55869 55872 55875 55878 55881 55884 55887 55890 55893 55896 55899 55902 55905 55908 55911 55914 55917 55920 55923 55926 55929 55932 55935 55938 55941 55944 55947 55950 55953 55956 55959 55962 55965 55968 55971 55974 55977 55980 55983 55986 55989 55992 55995 55998 56001 56004 56007 56010 56013 56016 56019 56022 56025 56028 56031 56034 56037 56040 56043 56046 56049 56052 56055 56058 56061 56064 56067 56070 56073 56076 56079 56082 56085 56088 56091 56094 56097 56100 56103 56106 56109 56112 56115 56118 56121 56124 56127 56130 56133 56136 56139 56142 56145 56148 56151 56154 56157 56160 56163 56166 56169 56172 56175 56178 56181 56184 56187 56190 56193 56196 56199 56202 56205 56208 56211 56214 56217 56220 56223 56226 56229 56232 56235 56238 56241 56244 56247 56250 56253 56256 56259 56262 56265 56268 56271 56274 56277 56280 56283 56286 56289 56292 56295 56298 56301 56304 56307 56310 56313 56316 56319 56322 56325 56328 56331 56334 56337 56340 56343 56346 56349 56352 56355 56358 56361 56364 56367 56370 56373 56376 56379 56382 56385 56388 56391 56394 56397 56400 56403 56406 56409 56412 56415 56418 56421 56424 56427 56430 56433 56436 56439 56442 56445 56448 56451 56454 56457 56460 56463 56466 56469 56472 56475 56478 56481 56484 56487 56490 56493 56496 56499 56502 56505 56508 56511 56514 56517 56520 56523 56526 56529 56532 56535 56538 56541 56544 56547 56550 56553 56556 56559 56562 56565 56568 56571 56574 56577 56580 56583 56586 56589 56592 56595 56598 56601 56604 56607 56610 56613 56616 56619 56622 56625 56628 56631 56634 56637 56640 56643 56646 56649 56652 56655 56658 56661 56664 56667 56670 56673 56676 56679 56682 56685 56688 56691 56694 56697 56700 56703 56706 56709 56712 56715 56718 56721 56724 56727 56730 56733 56736 56739 56742 56745 56748 56751 56754 56757 56760 56763 56766 56769 56772 56775 56778 56781 56784 56787 56790 56793 56796 56799 56802 56805 56808 56811 56814 56817 56820 56823 56826 56829 56832 56835 56838 56841 56844 56847 56850 56853 56856 56859 56862 56865 56868 56871 56874 56877 56880 56883 56886 56889 56892 56895 56898 56901 56904 56907 56910 56913 56916 56919 56922 56925 56928 56931 56934 56937 56940 56943 56946 56949 56952 56955 56958 56961 56964 56967 56970 56973 56976 56979 56982 56985 56988 56991 56994 56997 57000 57003 57006 57009 57012 57015 57018 57021 57024 57027 57030 57033 57036 57039 57042 57045 57048 57051 57054 57057 57060 57063 57066 57069 57072 57075 57078 57081 57084 57087 57090 57093 57096 57099 57102 57105 57108 57111 57114 57117 57120 57123 57126 57129 57132 57135 57138 57141 57144 57147 57150 57153 57156 57159 57162 57165 57168 57171 57174 57177 57180 57183 57186 57189 57192 57195 57198 57201 57204 57207 57210 57213 57216 57219 57222 57225 57228 57231 57234 57237 57240 57243 57246 57249 57252 57255 57258 57261 57264 57267 57270 57273 57276 57279 57282 57285 57288 57291 57294 57297 57300 57303 57306 57309 57312 57315 57318 57321 57324 57327 57330 57333 57336 57339 57342 57345 57348 57351 57354 57357 57360 57363 57366 57369 57372 57375 57378 57381 57384 57387 57390 57393 57396 57399 57402 57405 57408 57411 57414 57417 57420 57423 57426 57429 57432 57435 57438 57441 57444 57447 57450 57453 57456 57459 57462 57465 57468 57471 57474 57477 57480 57483 57486 57489 57492 57495 57498 57501 57504 57507 57510 57513 57516 57519 57522 57525 57528 57531 57534 57537 57540 57543 57546 57549 57552 57555 57558 57561 57564 57567 57570 57573 57576 57579 57582 57585 57588 57591 57594 57597 57600 57603 57606 57609 57612 57615 57618 57621 57624 57627 57630 57633 57636 57639 57642 57645 57648 57651 57654 57657 57660 57663 57666 57669 57672 57675 57678 57681 57684 57687 57690 57693 57696 57699 57702 57705 57708 57711 57714 57717 57720 57723 57726 57729 57732 57735 57738 57741 57744 57747 57750 57753 57756 57759 57762 57765 57768 57771 57774 57777 57780 57783 57786 57789 57792 57795 57798 57801 57804 57807 57810 57813 57816 57819 57822 57825 57828 57831 57834 57837 57840 57843 57846 57849 57852 57855 57858 57861 57864 57867 57870 57873 57876 57879 57882 57885 57888 57891 57894 57897 57900 57903 57906 57909 57912 57915 57918 57921 57924 57927 57930 57933 57936 57939 57942 57945 57948 57951 57954 57957 57960 57963 57966 57969 57972 57975 57978 57981 57984 57987 57990 57993 57996 57999 58002 58005 58008 58011 58014 58017 58020 58023 58026 58029 58032 58035 58038 58041 58044 58047 58050 58053 58056 58059 58062 58065 58068 58071 58074 58077 58080 58083 58086 58089 58092 58095 58098 58101 58104 58107 58110 58113 58116 58119 58122 58125 58128 58131 58134 58137 58140 58143 58146 58149 58152 58155 58158 58161 58164 58167 58170 58173 58176 58179 58182 58185 58188 58191 58194 58197 58200 58203 58206 58209 58212 58215 58218 58221 58224 58227 58230 58233 58236 58239 58242 58245 58248 58251 58254 58257 58260 58263 58266 58269 58272 58275 58278 58281 58284 58287 58290 58293 58296 58299 58302 58305 58308 58311 58314 58317 58320 58323 58326 58329 58332 58335 58338 58341 58344 58347 58350 58353 58356 58359 58362 58365 58368 58371 58374 58377 58380 58383 58386 58389 58392 58395 58398 58401 58404 58407 58410 58413 58416 58419 58422 58425 58428 58431 58434 58437 58440 58443 58446 58449 58452 58455 58458 58461 58464 58467 58470 58473 58476 58479 58482 58485 58488 58491 58494 58497 58500 58503 58506 58509 58512 58515 58518 58521 58524 58527 58530 58533 58536 58539 58542 58545 58548 58551 58554 58557 58560 58563 58566 58569 58572 58575 58578 58581 58584 58587 58590 58593 58596 58599 58602 58605 58608 58611 58614 58617 58620 58623 58626 58629 58632 58635 58638 58641 58644 58647 58650 58653 58656 58659 58662 58665 58668 58671 58674 58677 58680 58683 58686 58689 58692 58695 58698 58701 58704 58707 58710 58713 58716 58719 58722 58725 58728 58731 58734 58737 58740 58743 58746 58749 58752 58755 58758 58761 58764 58767 58770 58773 58776 58779 58782 58785 58788 58791 58794 58797 58800 58803 58806 58809 58812 58815 58818 58821 58824 58827 58830 58833 58836 58839 58842 58845 58848 58851 58854 58857 58860 58863 58866 58869 58872 58875 58878 58881 58884 58887 58890 58893 58896 58899 58902 58905 58908 58911 58914 58917 58920 58923 58926 58929 58932 58935 58938 58941 58944 58947 58950 58953 58956 58959 58962 58965 58968 58971 58974 58977 58980 58983 58986 58989 58992 58995 58998 59001 59004 59007 59010 59013 59016 59019 59022 59025 59028 59031 59034 59037 59040 59043 59046 59049 59052 59055 59058 59061 59064 59067 59070 59073 59076 59079 59082 59085 59088 59091 59094 59097 59100 59103 59106 59109 59112 59115 59118 59121 59124 59127 59130 59133 59136 59139 59142 59145 59148 59151 59154 59157 59160 59163 59166 59169 59172 59175 59178 59181 59184 59187 59190 59193 59196 59199 59202 59205 59208 59211 59214 59217 59220 59223 59226 59229 59232 59235 59238 59241 59244 59247 59250 59253 59256 59259 59262 59265 59268 59271 59274 59277 59280 59283 59286 59289 59292 59295 59298 59301 59304 59307 59310 59313 59316 59319 59322 59325 59328 59331 59334 59337 59340 59343 59346 59349 59352 59355 59358 59361 59364 59367 59370 59373 59376 59379 59382 59385 59388 59391 59394 59397 59400 59403 59406 59409 59412 59415 59418 59421 59424 59427 59430 59433 59436 59439 59442 59445 59448 59451 59454 59457 59460 59463 59466 59469 59472 59475 59478 59481 59484 59487 59490 59493 59496 59499 59502 59505 59508 59511 59514 59517 59520 59523 59526 59529 59532 59535 59538 59541 59544 59547 59550 59553 59556 59559 59562 59565 59568 59571 59574 59577 59580 59583 59586 59589 59592 59595 59598 59601 59604 59607 59610 59613 59616 59619 59622 59625 59628 59631 59634 59637 59640 59643 59646 59649 59652 59655 59658 59661 59664 59667 59670 59673 59676 59679 59682 59685 59688 59691 59694 59697 59700 59703 59706 59709 59712 59715 59718 59721 59724 59727 59730 59733 59736 59739 59742 59745 59748 59751 59754 59757 59760 59763 59766 59769 59772 59775 59778 59781 59784 59787 59790 59793 59796 59799 59802 59805 59808 59811 59814 59817 59820 59823 59826 59829 59832 59835 59838 59841 59844 59847 59850 59853 59856 59859 59862 59865 59868 59871 59874 59877 59880 59883 59886 59889 59892 59895 59898 59901 59904 59907 59910 59913 59916 59919 59922 59925 59928 59931 59934 59937 59940 59943 59946 59949 59952 59955 59958 59961 59964 59967 59970 59973 59976 59979 59982 59985 59988 59991 59994 59997 60000 60003 60006 60009 60012 60015 60018 60021 60024 60027 60030 60033 60036 60039 60042 60045 60048 60051 60054 60057 60060 60063 60066 60069 60072 60075 60078 60081 60084 60087 60090 60093 60096 60099 60102 60105 60108 60111 60114 60117 60120 60123 60126 60129 60132 60135 60138 60141 60144 60147 60150 60153 60156 60159 60162 60165 60168 60171 60174 60177 60180 60183 60186 60189 60192 60195 60198 60201 60204 60207 60210 60213 60216 60219 60222 60225 60228 60231 60234 60237 60240 60243 60246 60249 60252 60255 60258 60261 60264 60267 60270 60273 60276 60279 60282 60285 60288 60291 60294 60297 60300 60303 60306 60309 60312 60315 60318 60321 60324 60327 60330 60333 60336 60339 60342 60345 60348 60351 60354 60357 60360 60363 60366 60369 60372 60375 60378 60381 60384 60387 60390 60393 60396 60399 60402 60405 60408 60411 60414 60417 60420 60423 60426 60429 60432 60435 60438 60441 60444 60447 60450 60453 60456 60459 60462 60465 60468 60471 60474 60477 60480 60483 60486 60489 60492 60495 60498 60501 60504 60507 60510 60513 60516 60519 60522 60525 60528 60531 60534 60537 60540 60543 60546 60549 60552 60555 60558 60561 60564 60567 60570 60573 60576 60579 60582 60585 60588 60591 60594 60597 60600 60603 60606 60609 60612 60615 60618 60621 60624 60627 60630 60633 60636 60639 60642 60645 60648 60651 60654 60657 60660 60663 60666 60669 60672 60675 60678 60681 60684 60687 60690 60693 60696 60699 60702 60705 60708 60711 60714 60717 60720 60723 60726 60729 60732 60735 60738 60741 60744 60747 60750 60753 60756 60759 60762 60765 60768 60771 60774 60777 60780 60783 60786 60789 60792 60795 60798 60801 60804 60807 60810 60813 60816 60819 60822 60825 60828 60831 60834 60837 60840 60843 60846 60849 60852 60855 60858 60861 60864 60867 60870 60873 60876 60879 60882 60885 60888 60891 60894 60897 60900 60903 60906 60909 60912 60915 60918 60921 60924 60927 60930 60933 60936 60939 60942 60945 60948 60951 60954 60957 60960 60963 60966 60969 60972 60975 60978 60981 60984 60987 60990 60993 60996 60999 61002 61005 61008 61011 61014 61017 61020 61023 61026 61029 61032 61035 61038 61041 61044 61047 61050 61053 61056 61059 61062 61065 61068 61071 61074 61077 61080 61083 61086 61089 61092 61095 61098 61101 61104 61107 61110 61113 61116 61119 61122 61125 61128 61131 61134 61137 61140 61143 61146 61149 61152 61155 61158 61161 61164 61167 61170 61173 61176 61179 61182 61185 61188 61191 61194 61197 61200 61203 61206 61209 61212 61215 61218 61221 61224 61227 61230 61233 61236 61239 61242 61245 61248 61251 61254 61257 61260 61263 61266 61269 61272 61275 61278 61281 61284 61287 61290 61293 61296 61299 61302 61305 61308 61311 61314 61317 61320 61323 61326 61329 61332 61335 61338 61341 61344 61347 61350 61353 61356 61359 61362 61365 61368 61371 61374 61377 61380 61383 61386 61389 61392 61395 61398 61401 61404 61407 61410 61413 61416 61419 61422 61425 61428 61431 61434 61437 61440 61443 61446 61449 61452 61455 61458 61461 61464 61467 61470 61473 61476 61479 61482 61485 61488 61491 61494 61497 61500 61503 61506 61509 61512 61515 61518 61521 61524 61527 61530 61533 61536 61539 61542 61545 61548 61551 61554 61557 61560 61563 61566 61569 61572 61575 61578 61581 61584 61587 61590 61593 61596 61599 61602 61605 61608 61611 61614 61617 61620 61623 61626 61629 61632 61635 61638 61641 61644 61647 61650 61653 61656 61659 61662 61665 61668 61671 61674 61677 61680 61683 61686 61689 61692 61695 61698 61701 61704 61707 61710 61713 61716 61719 61722 61725 61728 61731 61734 61737 61740 61743 61746 61749 61752 61755 61758 61761 61764 61767 61770 61773 61776 61779 61782 61785 61788 61791 61794 61797 61800 61803 61806 61809 61812 61815 61818 61821 61824 61827 61830 61833 61836 61839 61842 61845 61848 61851 61854 61857 61860 61863 61866 61869 61872 61875 61878 61881 61884 61887 61890 61893 61896 61899 61902 61905 61908 61911 61914 61917 61920 61923 61926 61929 61932 61935 61938 61941 61944 61947 61950 61953 61956 61959 61962 61965 61968 61971 61974 61977 61980 61983 61986 61989 61992 61995 61998 62001 62004 62007 62010 62013 62016 62019 62022 62025 62028 62031 62034 62037 62040 62043 62046 62049 62052 62055 62058 62061 62064 62067 62070 62073 62076 62079 62082 62085 62088 62091 62094 62097 62100 62103 62106 62109 62112 62115 62118 62121 62124 62127 62130 62133 62136 62139 62142 62145 62148 62151 62154 62157 62160 62163 62166 62169 62172 62175 62178 62181 62184 62187 62190 62193 62196 62199 62202 62205 62208 62211 62214 62217 62220 62223 62226 62229 62232 62235 62238 62241 62244 62247 62250 62253 62256 62259 62262 62265 62268 62271 62274 62277 62280 62283 62286 62289 62292 62295 62298 62301 62304 62307 62310 62313 62316 62319 62322 62325 62328 62331 62334 62337 62340 62343 62346 62349 62352 62355 62358 62361 62364 62367 62370 62373 62376 62379 62382 62385 62388 62391 62394 62397 62400 62403 62406 62409 62412 62415 62418 62421 62424 62427 62430 62433 62436 62439 62442 62445 62448 62451 62454 62457 62460 62463 62466 62469 62472 62475 62478 62481 62484 62487 62490 62493 62496 62499 62502 62505 62508 62511 62514 62517 62520 62523 62526 62529 62532 62535 62538 62541 62544 62547 62550 62553 62556 62559 62562 62565 62568 62571 62574 62577 62580 62583 62586 62589 62592 62595 62598 62601 62604 62607 62610 62613 62616 62619 62622 62625 62628 62631 62634 62637 62640 62643 62646 62649 62652 62655 62658 62661 62664 62667 62670 62673 62676 62679 62682 62685 62688 62691 62694 62697 62700 62703 62706 62709 62712 62715 62718 62721 62724 62727 62730 62733 62736 62739 62742 62745 62748 62751 62754 62757 62760 62763 62766 62769 62772 62775 62778 62781 62784 62787 62790 62793 62796 62799 62802 62805 62808 62811 62814 62817 62820 62823 62826 62829 62832 62835 62838 62841 62844 62847 62850 62853 62856 62859 62862 62865 62868 62871 62874 62877 62880 62883 62886 62889 62892 62895 62898 62901 62904 62907 62910 62913 62916 62919 62922 62925 62928 62931 62934 62937 62940 62943 62946 62949 62952 62955 62958 62961 62964 62967 62970 62973 62976 62979 62982 62985 62988 62991 62994 62997 63000 63003 63006 63009 63012 63015 63018 63021 63024 63027 63030 63033 63036 63039 63042 63045 63048 63051 63054 63057 63060 63063 63066 63069 63072 63075 63078 63081 63084 63087 63090 63093 63096 63099 63102 63105 63108 63111 63114 63117 63120 63123 63126 63129 63132 63135 63138 63141 63144 63147 63150 63153 63156 63159 63162 63165 63168 63171 63174 63177 63180 63183 63186 63189 63192 63195 63198 63201 63204 63207 63210 63213 63216 63219 63222 63225 63228 63231 63234 63237 63240 63243 63246 63249 63252 63255 63258 63261 63264 63267 63270 63273 63276 63279 63282 63285 63288 63291 63294 63297 63300 63303 63306 63309 63312 63315 63318 63321 63324 63327 63330 63333 63336 63339 63342 63345 63348 63351 63354 63357 63360 63363 63366 63369 63372 63375 63378 63381 63384 63387 63390 63393 63396 63399 63402 63405 63408 63411 63414 63417 63420 63423 63426 63429 63432 63435 63438 63441 63444 63447 63450 63453 63456 63459 63462 63465 63468 63471 63474 63477 63480 63483 63486 63489 63492 63495 63498 63501 63504 63507 63510 63513 63516 63519 63522 63525 63528 63531 63534 63537 63540 63543 63546 63549 63552 63555 63558 63561 63564 63567 63570 63573 63576 63579 63582 63585 63588 63591 63594 63597 63600 63603 63606 63609 63612 63615 63618 63621 63624 63627 63630 63633 63636 63639 63642 63645 63648 63651 63654 63657 63660 63663 63666 63669 63672 63675 63678 63681 63684 63687 63690 63693 63696 63699 63702 63705 63708 63711 63714 63717 63720 63723 63726 63729 63732 63735 63738 63741 63744 63747 63750 63753 63756 63759 63762 63765 63768 63771 63774 63777 63780 63783 63786 63789 63792 63795 63798 63801 63804 63807 63810 63813 63816 63819 63822 63825 63828 63831 63834 63837 63840 63843 63846 63849 63852 63855 63858 63861 63864 63867 63870 63873 63876 63879 63882 63885 63888 63891 63894 63897 63900 63903 63906 63909 63912 63915 63918 63921 63924 63927 63930 63933 63936 63939 63942 63945 63948 63951 63954 63957 63960 63963 63966 63969 63972 63975 63978 63981 63984 63987 63990 63993 63996 63999 64002 64005 64008 64011 64014 64017 64020 64023 64026 64029 64032 64035 64038 64041 64044 64047 64050 64053 64056 64059 64062 64065 64068 64071 64074 64077 64080 64083 64086 64089 64092 64095 64098 64101 64104 64107 64110 64113 64116 64119 64122 64125 64128 64131 64134 64137 64140 64143 64146 64149 64152 64155 64158 64161 64164 64167 64170 64173 64176 64179 64182 64185 64188 64191 64194 64197 64200 64203 64206 64209 64212 64215 64218 64221 64224 64227 64230 64233 64236 64239 64242 64245 64248 64251 64254 64257 64260 64263 64266 64269 64272 64275 64278 64281 64284 64287 64290 64293 64296 64299 64302 64305 64308 64311 64314 64317 64320 64323 64326 64329 64332 64335 64338 64341 64344 64347 64350 64353 64356 64359 64362 64365 64368 64371 64374 64377 64380 64383 64386 64389 64392 64395 64398 64401 64404 64407 64410 64413 64416 64419 64422 64425 64428 64431 64434 64437 64440 64443 64446 64449 64452 64455 64458 64461 64464 64467 64470 64473 64476 64479 64482 64485 64488 64491 64494 64497 64500 64503 64506 64509 64512 64515 64518 64521 64524 64527 64530 64533 64536 64539 64542 64545 64548 64551 64554 64557 64560 64563 64566 64569 64572 64575 64578 64581 64584 64587 64590 64593 64596 64599 64602 64605 64608 64611 64614 64617 64620 64623 64626 64629 64632 64635 64638 64641 64644 64647 64650 64653 64656 64659 64662 64665 64668 64671 64674 64677 64680 64683 64686 64689 64692 64695 64698 64701 64704 64707 64710 64713 64716 64719 64722 64725 64728 64731 64734 64737 64740 64743 64746 64749 64752 64755 64758 64761 64764 64767 64770 64773 64776 64779 64782 64785 64788 64791 64794 64797 64800 64803 64806 64809 64812 64815 64818 64821 64824 64827 64830 64833 64836 64839 64842 64845 64848 64851 64854 64857 64860 64863 64866 64869 64872 64875 64878 64881 64884 64887 64890 64893 64896 64899 64902 64905 64908 64911 64914 64917 64920 64923 64926 64929 64932 64935 64938 64941 64944 64947 64950 64953 64956 64959 64962 64965 64968 64971 64974 64977 64980 64983 64986 64989 64992 64995 64998 65001 65004 65007 65010 65013 65016 65019 65022 65025 65028 65031 65034 65037 65040 65043 65046 65049 65052 65055 65058 65061 65064 65067 65070 65073 65076 65079 65082 65085 65088 65091 65094 65097 65100 65103 65106 65109 65112 65115 65118 65121 65124 65127 65130 65133 65136 65139 65142 65145 65148 65151 65154 65157 65160 65163 65166 65169 65172 65175 65178 65181 65184 65187 65190 65193 65196 65199 65202 65205 65208 65211 65214 65217 65220 65223 65226 65229 65232 65235 65238 65241 65244 65247 65250 65253 65256 65259 65262 65265 65268 65271 65274 65277 65280 65283 65286 65289 65292 65295 65298 65301 65304 65307 65310 65313 65316 65319 65322 65325 65328 65331 65334 65337 65340 65343 65346 65349 65352 65355 65358 65361 65364 65367 65370 65373 65376 65379 65382 65385 65388 65391 65394 65397 65400 65403 65406 65409 65412 65415 65418 65421 65424 65427 65430 65433 65436 65439 65442 65445 65448 65451 65454 65457 65460 65463 65466 65469 65472 65475 65478 65481 65484 65487 65490 65493 65496 65499 65502 65505 65508 65511 65514 65517 65520 65523 65526 65529 65532 65535 65538 65541 65544 65547 65550 65553 65556 65559 65562 65565 65568 65571 65574 65577 65580 65583 65586 65589 65592 65595 65598 65601 65604 65607 65610 65613 65616 65619 65622 65625 65628 65631 65634 65637 65640 65643 65646 65649 65652 65655 65658 65661 65664 65667 65670 65673 65676 65679 65682 65685 65688 65691 65694 65697 65700 65703 65706 65709 65712 65715 65718 65721 65724 65727 65730 65733 65736 65739 65742 65745 65748 65751 65754 65757 65760 65763 65766 65769 65772 65775 65778 65781 65784 65787 65790 65793 65796 65799 65802 65805 65808 65811 65814 65817 65820 65823 65826 65829 65832 65835 65838 65841 65844 65847 65850 65853 65856 65859 65862 65865 65868 65871 65874 65877 65880 65883 65886 65889 65892 65895 65898 65901 65904 65907 65910 65913 65916 65919 65922 65925 65928 65931 65934 65937 65940 65943 65946 65949 65952 65955 65958 65961 65964 65967 65970 65973 65976 65979 65982 65985 65988 65991 65994 65997 66000 </DataArray>
<DataArray  type="UInt8"  Name="types"  format="ascii">5 5 5 5 5 5 5 5 5 5 5 5 5 5 5 5 5 5 5 5 5 5 5 5 5 5 5 5 5 5 5 5 5 5 5 5 5 5 5 5 5 5 5 5 5 5 5 5 5 5 5 5 5 5 5 5 5 5 5 5 5 5 5 5 5 5 5 5 5 5 5 5 5 5 5 5 5 5 5 5 5 5 5 5 5 5 5 5 5 5 5 5 5 5 5 5 5 5 5 5 5 5 5 5 5 5 5 5 5 5 5 5 5 5 5 5 5 5 5 5 5 5 5 5 5 5 5 5 5 5 5 5 5 5 5 5 5 5 5 5 5 5 5 5 5 5 5 5 5 5 5 5 5 5 5 5 5 5 5 5 5 5 5 5 5 5 5 5 5 5 5 5 5 5 5 5 5 5 5 5 5 5 5 5 5 5 5 5 5 5 5 5 5 5 5 5 5 5 5 5 5 5 5 5 5 5 5 5 5 5 5 5 5 5 5 5 5 5 5 5 5 5 5 5 5 5 5 5 5 5 5 5 5 5 5 5 5 5 5 5 5 5 5 5 5 5 5 5 5 5 5 5 5 5 5 5 5 5 5 5 5 5 5 5 5 5 5 5 5 5 5 5 5 5 5 5 5 5 5 5 5 5 5 5 5 5 5 5 5 5 5 5 5 5 5 5 5 5 5 5 5 5 5 5 5 5 5 5 5 5 5 5 5 5 5 5 5 5 5 5 5 5 5 5 5 5 5 5 5 5 5 5 5 5 5 5 5 5 5 5 5 5 5 5 5 5 5 5 5 5 5 5 5 5 5 5 5 5 5 5 5 5 5 5 5 5 5 5 5 5 5 5 5 5 5 5 5 5 5 5 5 5 5 5 5 5 5 5 5 5 5 5 5 5 5 5 5 5 5 5 5 5 5 5 5 5 5 5 5 5 5 5 5 5 5 5 5 5 5 5 5 5 5 5 5 5 5 5 5 5 5 5 5 5 5 5 5 5 5 5 5 5 5 5 5 5 5 5 5 5 5 5 5 5 5 5 5 5 5 5 5 5 5 5 5 5 5 5 5 5 5 5 5 5 5 5 5 5 5 5 5 5 5 5 5 5 5 5 5 5 5 5 5 5 5 5 5 5 5 5 5 5 5 5 5 5 5 5 5 5 5 5 5 5 5 5 5 5 5 5 5 5 5 5 5 5 5 5 5 5 5 5 5 5 5 5 5 5 5 5 5 5 5 5 5 5 5 5 5 5 5 5 5 5 5 5 5 5 5 5 5 5 5 5 5 5 5 5 5 5 5 5 5 5 5 5 5 5 5 5 5 5 5 5 5 5 5 5 5 5 5 5 5 5 5 5 5 5 5 5 5 5 5 5 5 5 5 5 5 5 5 5 5 5 5 5 5 5 5 5 5 5 5 5 5 5 5 5 5 5 5 5 5 5 5 5 5 5 5 5 5 5 5 5 5 5 5 5 5 5 5 5 5 5 5 5 5 5 5 5 5 5 5 5 5 5 5 5 5 5 5 5 5 5 5 5 5 5 5 5 5 5 5 5 5 5 5 5 5 5 5 5 5 5 5 5 5 5 5 5 5 5 5 5 5 5 5 5 5 5 5 5 5 5 5 5 5 5 5 5 5 5 5 5 5 5 5 5 5 5 5 5 5 5 5 5 5 5 5 5 5 5 5 5 5 5 5 5 5 5 5 5 5 5 5 5 5 5 5 5 5 5 5 5 5 5 5 5 5 5 5 5 5 5 5 5 5 5 5 5 5 5 5 5 5 5 5 5 5 5 5 5 5 5 5 5 5 5 5 5 5 5 5 5 5 5 5 5 5 5 5 5 5 5 5 5 5 5 5 5 5 5 5 5 5 5 5 5 5 5 5 5 5 5 5 5 5 5 5 5 5 5 5 5 5 5 5 5 5 5 5 5 5 5 5 5 5 5 5 5 5 5 5 5 5 5 5 5 5 5 5 5 5 5 5 5 5 5 5 5 5 5 5 5 5 5 5 5 5 5 5 5 5 5 5 5 5 5 5 5 5 5 5 5 5 5 5 5 5 5 5 5 5 5 5 5 5 5 5 5 5 5 5 5 5 5 5 5 5 5 5 5 5 5 5 5 5 5 5 5 5 5 5 5 5 5 5 5 5 5 5 5 5 5 5 5 5 5 5 5 5 5 5 5 5 5 5 5 5 5 5 5 5 5 5 5 5 5 5 5 5 5 5 5 5 5 5 5 5 5 5 5 5 5 5 5 5 5 5 5 5 5 5 5 5 5 5 5 5 5 5 5 5 5 5 5 5 5 5 5 5 5 5 5 5 5 5 5 5 5 5 5 5 5 5 5 5 5 5 5 5 5 5 5 5 5 5 5 5 5 5 5 5 5 5 5 5 5 5 5 5 5 5 5 5 5 5 5 5 5 5 5 5 5 5 5 5 5 5 5 5 5 5 5 5 5 5 5 5 5 5 5 5 5 5 5 5 5 5 5 5 5 5 5 5 5 5 5 5 5 5 5 5 5 5 5 5 5 5 5 5 5 5 5 5 5 5 5 5 5 5 5 5 5 5 5 5 5 5 5 5 5 5 5 5 5 5 5 5 5 5 5 5 5 5 5 5 5 5 5 5 5 5 5 5 5 5 5 5 5 5 5 5 5 5 5 5 5 5 5 5 5 5 5 5 5 5 5 5 5 5 5 5 5 5 5 5 5 5 5 5 5 5 5 5 5 5 5 5 5 5 5 5 5 5 5 5 5 5 5 5 5 5 5 5 5 5 5 5 5 5 5 5 5 5 5 5 5 5 5 5 5 5 5 5 5 5 5 5 5 5 5 5 5 5 5 5 5 5 5 5 5 5 5 5 5 5 5 5 5 5 5 5 5 5 5 5 5 5 5 5 5 5 5 5 5 5 5 5 5 5 5 5 5 5 5 5 5 5 5 5 5 5 5 5 5 5 5 5 5 5 5 5 5 5 5 5 5 5 5 5 5 5 5 5 5 5 5 5 5 5 5 5 5 5 5 5 5 5 5 5 5 5 5 5 5 5 5 5 5 5 5 5 5 5 5 5 5 5 5 5 5 5 5 5 5 5 5 5 5 5 5 5 5 5 5 5 5 5 5 5 5 5 5 5 5 5 5 5 5 5 5 5 5 5 5 5 5 5 5 5 5 5 5 5 5 5 5 5 5 5 5 5 5 5 5 5 5 5 5 5 5 5 5 5 5 5 5 5 5 5 5 5 5 5 5 5 5 5 5 5 5 5 5 5 5 5 5 5 5 5 5 5 5 5 5 5 5 5 5 5 5 5 5 5 5 5 5 5 5 5 5 5 5 5 5 5 5 5 5 5 5 5 5 5 5 5 5 5 5 5 5 5 5 5 5 5 5 5 5 5 5 5 5 5 5 5 5 5 5 5 5 5 5 5 5 5 5 5 5 5 5 5 5 5 5 5 5 5 5 5 5 5 5 5 5 5 5 5 5 5 5 5 5 5 5 5 5 5 5 5 5 5 5 5 5 5 5 5 5 5 5 5 5 5 5 5 5 5 5 5 5 5 5 5 5 5 5 5 5 5 5 5 5 5 5 5 5 5 5 5 5 5 5 5 5 5 5 5 5 5 5 5 5 5 5 5 5 5 5 5 5 5 5 5 5 5 5 5 5 5 5 5 5 5 5 5 5 5 5 5 5 5 5 5 5 5 5 5 5 5 5 5 5 5 5 5 5 5 5 5 5 5 5 5 5 5 5 5 5 5 5 5 5 5 5 5 5 5 5 5 5 5 5 5 5 5 5 5 5 5 5 5 5 5 5 5 5 5 5 5 5 5 5 5 5 5 5 5 5 5 5 5 5 5 5 5 5 5 5 5 5 5 5 5 5 5 5 5 5 5 5 5 5 5 5 5 5 5 5 5 5 5 5 5 5 5 5 5 5 5 5 5 5 5 5 5 5 5 5 5 5 5 5 5 5 5 5 5 5 5 5 5 5 5 5 5 5 5 5 5 5 5 5 5 5 5 5 5 5 5 5 5 5 5 5 5 5 5 5 5 5 5 5 5 5 5 5 5 5 5 5 5 5 5 5 5 5 5 5 5 5 5 5 5 5 5 5 5 5 5 5 5 5 5 5 5 5 5 5 5 5 5 5 5 5 5 5 5 5 5 5 5 5 5 5 5 5 5 5 5 5 5 5 5 5 5 5 5 5 5 5 5 5 5 5 5 5 5 5 5 5 5 5 5 5 5 5 5 5 5 5 5 5 5 5 5 5 5 5 5 5 5 5 5 5 5 5 5 5 5 5 5 5 5 5 5 5 5 5 5 5 5 5 5 5 5 5 5 5 5 5 5 5 5 5 5 5 5 5 5 5 5 5 5 5 5 5 5 5 5 5 5 5 5 5 5 5 5 5 5 5 5 5 5 5 5 5 5 5 5 5 5 5 5 5 5 5 5 5 5 5 5 5 5 5 5 5 5 5 5 5 5 5 5 5 5 5 5 5 5 5 5 5 5 5 5 5 5 5 5 5 5 5 5 5 5 5 5 5 5 5 5 5 5 5 5 5 5 5 5 5 5 5 5 5 5 5 5 5 5 5 5 5 5 5 5 5 5 5 5 5 5 5 5 5 5 5 5 5 5 5 5 5 5 5 5 5 5 5 5 5 5 5 5 5 5 5 5 5 5 5 5 5 5 5 5 5 5 5 5 5 5 5 5 5 5 5 5 5 5 5 5 5 5 5 5 5 5 5 5 5 5 5 5 5 5 5 5 5 5 5 5 5 5 5 5 5 5 5 5 5 5 5 5 5 5 5 5 5 5 5 5 5 5 5 5 5 5 5 5 5 5 5 5 5 5 5 5 5 5 5 5 5 5 5 5 5 5 5 5 5 5 5 5 5 5 5 5 5 5 5 5 5 5 5 5 5 5 5 5 5 5 5 5 5 5 5 5 5 5 5 5 5 5 5 5 5 5 5 5 5 5 5 5 5 5 5 5 5 5 5 5 5 5 5 5 5 5 5 5 5 5 5 5 5 5 5 5 5 5 5 5 5 5 5 5 5 5 5 5 5 5 5 5 5 5 5 5 5 5 5 5 5 5 5 5 5 5 5 5 5 5 5 5 5 5 5 5 5 5 5 5 5 5 5 5 5 5 5 5 5 5 5 5 5 5 5 5 5 5 5 5 5 5 5 5 5 5 5 5 5 5 5 5 5 5 5 5 5 5 5 5 5 5 5 5 5 5 5 5 5 5 5 5 5 5 5 5 5 5 5 5 5 5 5 5 5 5 5 5 5 5 5 5 5 5 5 5 5 5 5 5 5 5 5 5 5 5 5 5 5 5 5 5 5 5 5 5 5 5 5 5 5 5 5 5 5 5 5 5 5 5 5 5 5 5 5 5 5 5 5 5 5 5 5 5 5 5 5 5 5 5 5 5 5 5 5 5 5 5 5 5 5 5 5 5 5 5 5 5 5 5 5 5 5 5 5 5 5 5 5 5 5 5 5 5 5 5 5 5 5 5 5 5 5 5 5 5 5 5 5 5 5 5 5 5 5 5 5 5 5 5 5 5 5 5 5 5 5 5 5 5 5 5 5 5 5 5 5 5 5 5 5 5 5 5 5 5 5 5 5 5 5 5 5 5 5 5 5 5 5 5 5 5 5 5 5 5 5 5 5 5 5 5 5 5 5 5 5 5 5 5 5 5 5 5 5 5 5 5 5 5 5 5 5 5 5 5 5 5 5 5 5 5 5 5 5 5 5 5 5 5 5 5 5 5 5 5 5 5 5 5 5 5 5 5 5 5 5 5 5 5 5 5 5 5 5 5 5 5 5 5 5 5 5 5 5 5 5 5 5 5 5 5 5 5 5 5 5 5 5 5 5 5 5 5 5 5 5 5 5 5 5 5 5 5 5 5 5 5 5 5 5 5 5 5 5 5 5 5 5 5 5 5 5 5 5 5 5 5 5 5 5 5 5 5 5 5 5 5 5 5 5 5 5 5 5 5 5 5 5 5 5 5 5 5 5 5 5 5 5 5 5 5 5 5 5 5 5 5 5 5 5 5 5 5 5 5 5 5 5 5 5 5 5 5 5 5 5 5 5 5 5 5 5 5 5 5 5 5 5 5 5 5 5 5 5 5 5 5 5 5 5 5 5 5 5 5 5 5 5 5 5 5 5 5 5 5 5 5 5 5 5 5 5 5 5 5 5 5 5 5 5 5 5 5 5 5 5 5 5 5 5 5 5 5 5 5 5 5 5 5 5 5 5 5 5 5 5 5 5 5 5 5 5 5 5 5 5 5 5 5 5 5 5 5 5 5 5 5 5 5 5 5 5 5 5 5 5 5 5 5 5 5 5 5 5 5 5 5 5 5 5 5 5 5 5 5 5 5 5 5 5 5 5 5 5 5 5 5 5 5 5 5 5 5 5 5 5 5 5 5 5 5 5 5 5 5 5 5 5 5 5 5 5 5 5 5 5 5 5 5 5 5 5 5 5 5 5 5 5 5 5 5 5 5 5 5 5 5 5 5 5 5 5 5 5 5 5 5 5 5 5 5 5 5 5 5 5 5 5 5 5 5 5 5 5 5 5 5 5 5 5 5 5 5 5 5 5 5 5 5 5 5 5 5 5 5 5 5 5 5 5 5 5 5 5 5 5 5 5 5 5 5 5 5 5 5 5 5 5 5 5 5 5 5 5 5 5 5 5 5 5 5 5 5 5 5 5 5 5 5 5 5 5 5 5 5 5 5 5 5 5 5 5 5 5 5 5 5 5 5 5 5 5 5 5 5 5 5 5 5 5 5 5 5 5 5 5 5 5 5 5 5 5 5 5 5 5 5 5 5 5 5 5 5 5 5 5 5 5 5 5 5 5 5 5 5 5 5 5 5 5 5 5 5 5 5 5 5 5 5 5 5 5 5 5 5 5 5 5 5 5 5 5 5 5 5 5 5 5 5 5 5 5 5 5 5 5 5 5 5 5 5 5 5 5 5 5 5 5 5 5 5 5 5 5 5 5 5 5 5 5 5 5 5 5 5 5 5 5 5 5 5 5 5 5 5 5 5 5 5 5 5 5 5 5 5 5 5 5 5 5 5 5 5 5 5 5 5 5 5 5 5 5 5 5 5 5 5 5 5 5 5 5 5 5 5 5 5 5 5 5 5 5 5 5 5 5 5 5 5 5 5 5 5 5 5 5 5 5 5 5 5 5 5 5 5 5 5 5 5 5 5 5 5 5 5 5 5 5 5 5 5 5 5 5 5 5 5 5 5 5 5 5 5 5 5 5 5 5 5 5 5 5 5 5 5 5 5 5 5 5 5 5 5 5 5 5 5 5 5 5 5 5 5 5 5 5 5 5 5 5 5 5 5 5 5 5 5 5 5 5 5 5 5 5 5 5 5 5 5 5 5 5 5 5 5 5 5 5 5 5 5 5 5 5 5 5 5 5 5 5 5 5 5 5 5 5 5 5 5 5 5 5 5 5 5 5 5 5 5 5 5 5 5 5 5 5 5 5 5 5 5 5 5 5 5 5 5 5 5 5 5 5 5 5 5 5 5 5 5 5 5 5 5 5 5 5 5 5 5 5 5 5 5 5 5 5 5 5 5 5 5 5 5 5 5 5 5 5 5 5 5 5 5 5 5 5 5 5 5 5 5 5 5 5 5 5 5 5 5 5 5 5 5 5 5 5 5 5 5 5 5 5 5 5 5 5 5 5 5 5 5 5 5 5 5 5 5 5 5 5 5 5 5 5 5 5 5 5 5 5 5 5 5 5 5 5 5 5 5 5 5 5 5 5 5 5 5 5 5 5 5 5 5 5 5 5 5 5 5 5 5 5 5 5 5 5 5 5 5 5 5 5 5 5 5 5 5 5 5 5 5 5 5 5 5 5 5 5 5 5 5 5 5 5 5 5 5 5 5 5 5 5 5 5 5 5 5 5 5 5 5 5 5 5 5 5 5 5 5 5 5 5 5 5 5 5 5 5 5 5 5 5 5 5 5 5 5 5 5 5 5 5 5 5 5 5 5 5 5 5 5 5 5 5 5 5 5 5 5 5 5 5 5 5 5 5 5 5 5 5 5 5 5 5 5 5 5 5 5 5 5 5 5 5 5 5 5 5 5 5 5 5 5 5 5 5 5 5 5 5 5 5 5 5 5 5 5 5 5 5 5 5 5 5 5 5 5 5 5 5 5 5 5 5 5 5 5 5 5 5 5 5 5 5 5 5 5 5 5 5 5 5 5 5 5 5 5 5 5 5 5 5 5 5 5 5 5 5 5 5 5 5 5 5 5 5 5 5 5 5 5 5 5 5 5 5 5 5 5 5 5 5 5 5 5 5 5 5 5 5 5 5 5 5 5 5 5 5 5 5 5 5 5 5 5 5 5 5 5 5 5 5 5 5 5 5 5 5 5 5 5 5 5 5 5 5 5 5 5 5 5 5 5 5 5 5 5 5 5 5 5 5 5 5 5 5 5 5 5 5 5 5 5 5 5 5 5 5 5 5 5 5 5 5 5 5 5 5 5 5 5 5 5 5 5 5 5 5 5 5 5 5 5 5 5 5 5 5 5 5 5 5 5 5 5 5 5 5 5 5 5 5 5 5 5 5 5 5 5 5 5 5 5 5 5 5 5 5 5 5 5 5 5 5 5 5 5 5 5 5 5 5 5 5 5 5 5 5 5 5 5 5 5 5 5 5 5 5 5 5 5 5 5 5 5 5 5 5 5 5 5 5 5 5 5 5 5 5 5 5 5 5 5 5 5 5 5 5 5 5 5 5 5 5 5 5 5 5 5 5 5 5 5 5 5 5 5 5 5 5 5 5 5 5 5 5 5 5 5 5 5 5 5 5 5 5 5 5 5 5 5 5 5 5 5 5 5 5 5 5 5 5 5 5 5 5 5 5 5 5 5 5 5 5 5 5 5 5 5 5 5 5 5 5 5 5 5 5 5 5 5 5 5 5 5 5 5 5 5 5 5 5 5 5 5 5 5 5 5 5 5 5 5 5 5 5 5 5 5 5 5 5 5 5 5 5 5 5 5 5 5 5 5 5 5 5 5 5 5 5 5 5 5 5 5 5 5 5 5 5 5 5 5 5 5 5 5 5 5 5 5 5 5 5 5 5 5 5 5 5 5 5 5 5 5 5 5 5 5 5 5 5 5 5 5 5 5 5 5 5 5 5 5 5 5 5 5 5 5 5 5 5 5 5 5 5 5 5 5 5 5 5 5 5 5 5 5 5 5 5 5 5 5 5 5 5 5 5 5 5 5 5 5 5 5 5 5 5 5 5 5 5 5 5 5 5 5 5 5 5 5 5 5 5 5 5 5 5 5 5 5 5 5 5 5 5 5 5 5 5 5 5 5 5 5 5 5 5 5 5 5 5 5 5 5 5 5 5 5 5 5 5 5 5 5 5 5 5 5 5 5 5 5 5 5 5 5 5 5 5 5 5 5 5 5 5 5 5 5 5 5 5 5 5 5 5 5 5 5 5 5 5 5 5 5 5 5 5 5 5 5 5 5 5 5 5 5 5 5 5 5 5 5 5 5 5 5 5 5 5 5 5 5 5 5 5 5 5 5 5 5 5 5 5 5 5 5 5 5 5 5 5 5 5 5 5 5 5 5 5 5 5 5 5 5 5 5 5 5 5 5 5 5 5 5 5 5 5 5 5 5 5 5 5 5 5 5 5 5 5 5 5 5 5 5 5 5 5 5 5 5 5 5 5 5 5 5 5 5 5 5 5 5 5 5 5 5 5 5 5 5 5 5 5 5 5 5 5 5 5 5 5 5 5 5 5 5 5 5 5 5 5 5 5 5 5 5 5 5 5 5 5 5 5 5 5 5 5 5 5 5 5 5 5 5 5 5 5 5 5 5 5 5 5 5 5 5 5 5 5 5 5 5 5 5 5 5 5 5 5 5 5 5 5 5 5 5 5 5 5 5 5 5 5 5 5 5 5 5 5 5 5 5 5 5 5 5 5 5 5 5 5 5 5 5 5 5 5 5 5 5 5 5 5 5 5 5 5 5 5 5 5 5 5 5 5 5 5 5 5 5 5 5 5 5 5 5 5 5 5 5 5 5 5 5 5 5 5 5 5 5 5 5 5 5 5 5 5 5 5 5 5 5 5 5 5 5 5 5 5 5 5 5 5 5 5 5 5 5 5 5 5 5 5 5 5 5 5 5 5 5 5 5 5 5 5 5 5 5 5 5 5 5 5 5 5 5 5 5 5 5 5 5 5 5 5 5 5 5 5 5 5 5 5 5 5 5 5 5 5 5 5 5 5 5 5 5 5 5 5 5 5 5 5 5 5 5 5 5 5 5 5 5 5 5 5 5 5 5 5 5 5 5 5 5 5 5 5 5 5 5 5 5 5 5 5 5 5 5 5 5 5 5 5 5 5 5 5 5 5 5 5 5 5 5 5 5 5 5 5 5 5 5 5 5 5 5 5 5 5 5 5 5 5 5 5 5 5 5 5 5 5 5 5 5 5 5 5 5 5 5 5 5 5 5 5 5 5 5 5 5 5 5 5 5 5 5 5 5 5 5 5 5 5 5 5 5 5 5 5 5 5 5 5 5 5 5 5 5 5 5 5 5 5 5 5 5 5 5 5 5 5 5 5 5 5 5 5 5 5 5 5 5 5 5 5 5 5 5 5 5 5 5 5 5 5 5 5 5 5 5 5 5 5 5 5 5 5 5 5 5 5 5 5 5 5 5 5 5 5 5 5 5 5 5 5 5 5 5 5 5 5 5 5 5 5 5 5 5 5 5 5 5 5 5 5 5 5 5 5 5 5 5 5 5 5 5 5 5 5 5 5 5 5 5 5 5 5 5 5 5 5 5 5 5 5 5 5 5 5 5 5 5 5 5 5 5 5 5 5 5 5 5 5 5 5 5 5 5 5 5 5 5 5 5 5 5 5 5 5 5 5 5 5 5 5 5 5 5 5 5 5 5 5 5 5 5 5 5 5 5 5 5 5 5 5 5 5 5 5 5 5 5 5 5 5 5 5 5 5 5 5 5 5 5 5 5 5 5 5 5 5 5 5 5 5 5 5 5 5 5 5 5 5 5 5 5 5 5 5 5 5 5 5 5 5 5 5 5 5 5 5 5 5 5 5 5 5 5 5 5 5 5 5 5 5 5 5 5 5 5 5 5 5 5 5 5 5 5 5 5 5 5 5 5 5 5 5 5 5 5 5 5 5 5 5 5 5 5 5 5 5 5 5 5 5 5 5 5 5 5 5 5 5 5 5 5 5 5 5 5 5 5 5 5 5 5 5 5 5 5 5 5 5 5 5 5 5 5 5 5 5 5 5 5 5 5 5 5 5 5 5 5 5 5 5 5 5 5 5 5 5 5 5 5 5 5 5 5 5 5 5 5 5 5 5 5 5 5 5 5 5 5 5 5 5 5 5 5 5 5 5 5 5 5 5 5 5 5 5 5 5 5 5 5 5 5 5 5 5 5 5 5 5 5 5 5 5 5 5 5 5 5 5 5 5 5 5 5 5 5 5 5 5 5 5 5 5 5 5 5 5 5 5 5 5 5 5 5 5 5 5 5 5 5 5 5 5 5 5 5 5 5 5 5 5 5 5 5 5 5 5 5 5 5 5 5 5 5 5 5 5 5 5 5 5 5 5 5 5 5 5 5 5 5 5 5 5 5 5 5 5 5 5 5 5 5 5 5 5 5 5 5 5 5 5 5 5 5 5 5 5 5 5 5 5 5 5 5 5 5 5 5 5 5 5 5 5 5 5 5 5 5 5 5 5 5 5 5 5 5 5 5 5 5 5 5 5 5 5 5 5 5 5 5 5 5 5 5 5 5 5 5 5 5 5 5 5 5 5 5 5 5 5 5 5 5 5 5 5 5 5 5 5 5 5 5 5 5 5 5 5 5 5 5 5 5 5 5 5 5 5 5 5 5 5 5 5 5 5 5 5 5 5 5 5 5 5 5 5 5 5 5 5 5 5 5 5 5 5 5 5 5 5 5 5 5 5 5 5 5 5 5 5 5 5 5 5 5 5 5 5 5 5 5 5 5 5 5 5 5 5 5 5 5 5 5 5 5 5 5 5 5 5 5 5 5 5 5 5 5 5 5 5 5 5 5 5 5 5 5 5 5 5 5 5 5 5 5 5 5 5 5 5 5 5 5 5 5 5 5 5 5 5 5 5 5 5 5 5 5 5 5 5 5 5 5 5 5 5 5 5 5 5 5 5 5 5 5 5 5 5 5 5 5 5 5 5 5 5 5 5 5 5 5 5 5 5 5 5 5 5 5 5 5 5 5 5 5 5 5 5 5 5 5 5 5 5 5 5 5 5 5 5 5 5 5 5 5 5 5 5 5 5 5 5 5 5 5 5 5 5 5 5 5 5 5 5 5 5 5 5 5 5 5 5 5 5 5 5 5 5 5 5 5 5 5 5 5 5 5 5 5 5 5 5 5 5 5 5 5 5 5 5 5 5 5 5 5 5 5 5 5 5 5 5 5 5 5 5 5 5 5 5 5 5 5 5 5 5 5 5 5 5 5 5 5 5 5 5 5 5 5 5 5 5 5 5 5 5 5 5 5 5 5 5 5 5 5 5 5 5 5 5 5 5 5 5 5 5 5 5 5 5 5 5 5 5 5 5 5 5 5 5 5 5 5 5 5 5 5 5 5 5 5 5 5 5 5 5 5 5 5 5 5 5 5 5 5 5 5 5 5 5 5 5 5 5 5 5 5 5 5 5 5 5 5 5 5 5 5 5 5 5 5 5 5 5 5 5 5 5 5 5 5 5 5 5 5 5 5 5 5 5 5 5 5 5 5 5 5 5 5 5 5 5 5 5 5 5 5 5 5 5 5 5 5 5 5 5 5 5 5 5 5 5 5 5 5 5 5 5 5 5 5 5 5 5 5 5 5 5 5 5 5 5 5 5 5 5 5 5 5 5 5 5 5 5 5 5 5 5 5 5 5 5 5 5 5 5 5 5 5 5 5 5 5 5 5 5 5 5 5 5 5 5 5 5 5 5 5 5 5 5 5 5 5 5 5 5 5 5 5 5 5 5 5 5 5 5 5 5 5 5 5 5 5 5 5 5 5 5 5 5 5 5 5 5 5 5 5 5 5 5 5 5 5 5 5 5 5 5 5 5 5 5 5 5 5 5 5 5 5 5 5 5 5 5 5 5 5 5 5 5 5 5 5 5 5 5 5 5 5 5 5 5 5 5 5 5 5 5 5 5 5 5 5 5 5 5 5 5 5 5 5 5 5 5 5 5 5 5 5 5 5 5 5 5 5 5 5 5 5 5 5 5 5 5 5 5 5 5 5 5 5 5 5 5 5 5 5 5 5 5 5 5 5 5 5 5 5 5 5 5 5 5 5 5 5 5 5 5 5 5 5 5 5 5 5 5 5 5 5 5 5 5 5 5 5 5 5 5 5 5 5 5 5 5 5 5 5 5 5 5 5 5 5 5 5 5 5 5 5 5 5 5 5 5 5 5 5 5 5 5 5 5 5 5 5 5 5 5 5 5 5 5 5 5 5 5 5 5 5 5 5 5 5 5 5 5 5 5 5 5 5 5 5 5 5 5 5 5 5 5 5 5 5 5 5 5 5 5 5 5 5 5 5 5 5 5 5 5 5 5 5 5 5 5 5 5 5 5 5 5 5 5 5 5 5 5 5 5 5 5 5 5 5 5 5 5 5 5 5 5 5 5 5 5 5 5 5 5 5 5 5 5 5 5 5 5 5 5 5 5 5 5 5 5 5 5 5 5 5 5 5 5 5 5 5 5 5 5 5 5 5 5 5 5 5 5 5 5 5 5 5 5 5 5 5 5 5 5 5 5 5 5 5 5 5 5 5 5 5 5 5 5 5 5 5 5 5 5 5 5 5 5 5 5 5 5 5 5 5 5 5 5 5 5 5 5 5 5 5 5 5 5 5 5 5 5 5 5 5 5 5 5 5 5 5 5 5 5 5 5 5 5 5 5 5 5 5 5 5 5 5 5 5 5 5 5 5 5 5 5 5 5 5 5 5 5 5 5 5 5 5 5 5 5 5 5 5 5 5 5 5 5 5 5 5 5 5 5 5 5 5 5 5 5 5 5 5 5 5 5 5 5 5 5 5 5 5 5 5 5 5 5 5 5 5 5 5 5 5 5 5 5 5 5 5 5 5 5 5 5 5 5 5 5 5 5 5 5 5 5 5 5 5 5 5 5 5 5 5 5 5 5 5 5 5 5 5 5 5 5 5 5 5 5 5 5 5 5 5 5 5 5 5 5 5 5 5 5 5 5 5 5 5 5 5 5 5 5 5 5 5 5 5 5 5 5 5 5 5 5 5 5 5 5 5 5 5 5 5 5 5 5 5 5 5 5 5 5 5 5 5 5 5 5 5 5 5 5 5 5 5 5 5 5 5 5 5 5 5 5 5 5 5 5 5 5 5 5 5 5 5 5 5 5 5 5 5 5 5 5 5 5 5 5 5 5 5 5 5 5 5 5 5 5 5 5 5 5 5 5 5 5 5 5 5 5 5 5 5 5 5 5 5 5 5 5 5 5 5 5 5 5 5 5 5 5 5 5 5 5 5 5 5 5 5 5 5 5 5 5 5 5 5 5 5 5 5 5 5 5 5 5 5 5 5 5 5 5 5 5 5 5 5 5 5 5 5 5 5 5 5 5 5 5 5 5 5 5 5 5 5 5 5 5 5 5 5 5 5 5 5 5 5 5 5 5 5 5 5 5 5 5 5 5 5 5 5 5 5 5 5 5 5 5 5 5 5 5 5 5 5 5 5 5 5 5 5 5 5 5 5 5 5 5 5 5 5 5 5 5 5 5 5 5 5 5 5 5 5 5 5 5 5 5 5 5 5 5 5 5 5 5 5 5 5 5 5 5 5 5 5 5 5 5 5 5 5 5 5 5 5 5 5 5 5 5 5 5 5 5 5 5 5 5 5 5 5 5 5 5 5 5 5 5 5 5 5 5 5 5 5 5 5 5 5 5 5 5 5 5 5 5 5 5 5 5 5 5 5 5 5 5 5 5 5 5 5 5 5 5 5 5 5 5 5 5 5 5 5 5 5 5 5 5 5 5 5 5 5 5 5 5 5 5 5 5 5 5 5 5 5 5 5 5 5 5 5 5 5 5 5 5 5 5 5 5 5 5 5 5 5 5 5 5 5 5 5 5 5 5 5 5 5 5 5 5 5 5 5 5 5 5 5 5 5 5 5 5 5 5 5 5 5 5 5 5 5 5 5 5 5 5 5 5 5 5 5 5 5 5 5 5 5 5 5 5 5 5 5 5 5 5 5 5 5 5 5 5 5 5 5 5 5 5 5 5 5 5 5 5 5 5 5 5 5 5 5 5 5 5 5 5 5 5 5 5 5 5 5 5 5 5 5 5 5 5 5 5 5 5 5 5 5 5 5 5 5 5 5 5 5 5 5 5 5 5 5 5 5 5 5 5 5 5 5 5 5 5 5 5 5 5 5 5 5 5 5 5 5 5 5 5 5 5 5 5 5 5 5 5 5 5 5 5 5 5 5 5 5 5 5 5 5 5 5 5 5 5 5 5 5 5 5 5 5 5 5 5 5 5 5 5 5 5 5 5 5 5 5 5 5 5 5 5 5 5 5 5 5 5 5 5 5 5 5 5 5 5 5 5 5 5 5 5 5 5 5 5 5 5 5 5 5 5 5 5 5 5 5 5 5 5 5 5 5 5 5 5 5 5 5 5 5 5 5 5 5 5 5 5 5 5 5 5 5 5 5 5 5 5 5 5 5 5 5 5 5 5 5 5 5 5 5 5 5 5 5 5 5 5 5 5 5 5 5 5 5 5 5 5 5 5 5 5 5 5 5 5 5 5 5 5 5 5 5 5 5 5 5 5 5 5 5 5 5 5 5 5 5 5 5 5 5 5 5 5 5 5 5 5 5 5 5 5 5 5 5 5 5 5 5 5 5 5 5 5 5 5 5 5 5 5 5 5 5 5 5 5 5 5 5 5 5 5 5 5 5 5 5 5 5 5 5 5 5 5 5 5 5 5 5 5 5 5 5 5 5 5 5 5 5 5 5 5 5 5 5 5 5 5 5 5 5 5 5 5 5 5 5 5 5 5 5 5 5 5 5 5 5 5 5 5 5 5 5 5 5 5 5 5 5 5 5 5 5 5 5 5 5 5 5 5 5 5 5 5 5 5 5 5 5 5 5 5 5 5 5 5 5 5 5 5 5 5 5 5 5 5 5 5 5 5 5 5 5 5 5 5 5 5 5 5 5 5 5 5 5 5 5 5 5 5 5 5 5 5 5 5 5 5 5 5 5 5 5 5 5 5 5 5 5 5 5 5 5 5 5 5 5 5 5 5 5 5 5 5 5 5 5 5 5 5 5 5 5 5 5 5 5 5 5 5 5 5 5 5 5 5 5 5 5 5 5 5 5 5 5 5 5 5 5 5 5 5 5 5 5 5 5 5 5 5 5 5 5 5 5 5 5 5 5 5 5 5 5 5 5 5 5 5 5 5 5 5 5 5 5 5 5 5 5 5 5 5 5 5 5 5 5 5 5 5 5 5 5 5 5 5 5 5 5 5 5 5 5 5 5 5 5 5 5 5 5 5 5 5 5 5 5 5 5 5 5 5 5 5 5 5 5 5 5 5 5 5 5 5 5 5 5 5 5 5 5 5 5 5 5 5 5 5 5 5 5 5 5 5 5 5 5 5 5 5 5 5 5 5 5 5 5 5 5 5 5 5 5 5 5 5 5 5 5 5 5 5 5 5 5 5 5 5 5 5 5 5 5 5 5 5 5 5 5 5 5 5 5 5 5 5 5 5 5 5 5 5 5 5 5 5 5 5 5 5 5 5 5 5 5 5 5 5 5 5 5 5 5 5 5 5 5 5 5 5 5 5 5 5 5 5 5 5 5 5 5 5 5 5 5 5 5 5 5 5 5 5 5 5 5 5 5 5 5 5 5 5 5 5 5 5 5 5 5 5 5 5 5 5 5 5 5 5 5 5 5 5 5 5 5 5 5 5 5 5 5 5 5 5 5 5 5 5 5 5 5 5 5 5 5 5 5 5 5 5 5 5 5 5 5 5 5 5 5 5 5 5 5 5 5 5 5 5 5 5 5 5 5 5 5 5 5 5 5 5 5 5 5 5 5 5 5 5 5 5 5 5 5 5 5 5 5 5 5 5 5 5 5 5 5 5 5 5 5 5 5 5 5 5 5 5 5 5 5 5 5 5 5 5 5 5 5 5 5 5 5 5 5 5 5 5 5 5 5 5 5 5 5 5 5 5 5 5 5 5 5 5 5 5 5 5 5 5 5 5 5 5 5 5 5 5 5 5 5 5 5 5 5 5 5 5 5 5 5 5 5 5 5 5 5 5 5 5 5 5 5 5 5 5 5 5 5 5 5 5 5 5 5 5 5 5 5 5 5 5 5 5 5 5 5 5 5 5 5 5 5 5 5 5 5 5 5 5 5 5 5 5 5 5 5 5 5 5 5 5 5 5 5 5 5 5 5 5 5 5 5 5 5 5 5 5 5 5 5 5 5 5 5 5 5 5 5 5 5 5 5 5 5 5 5 5 5 5 5 5 5 5 5 5 5 5 5 5 5 5 5 5 5 5 5 5 5 5 5 5 5 5 5 5 5 5 5 5 5 5 5 5 5 5 5 5 5 5 5 5 5 5 5 5 5 5 5 5 5 5 5 5 5 5 5 5 5 5 5 5 5 5 5 5 5 5 5 5 5 5 5 5 5 5 5 5 5 5 5 5 5 5 5 5 5 5 5 5 5 5 5 5 5 5 5 5 5 5 5 5 5 5 5 5 5 5 5 5 5 5 5 5 5 5 5 5 5 5 5 5 5 5 5 5 5 5 5 5 5 5 5 5 5 5 5 5 5 5 5 5 5 5 5 5 5 5 5 5 5 5 5 5 5 5 5 5 5 5 5 5 5 5 5 5 5 5 5 5 5 5 5 5 5 5 5 5 5 5 5 5 5 5 5 5 5 5 5 5 5 5 5 5 5 5 5 5 5 5 5 5 5 5 5 5 5 5 5 5 5 5 5 5 5 5 5 5 5 5 5 5 5 5 5 5 5 5 5 5 5 5 5 5 5 5 5 5 5 5 5 5 5 5 5 5 5 5 5 5 5 5 5 5 5 5 5 5 5 5 5 5 5 5 5 5 5 5 5 5 5 5 5 5 5 5 5 5 5 5 5 5 5 5 5 5 5 5 5 5 5 5 5 5 5 5 5 5 5 5 5 5 5 5 5 5 5 5 5 5 5 5 5 5 5 5 5 5 5 5 5 5 5 5 5 5 5 5 5 5 5 5 5 5 5 5 5 5 5 5 5 5 5 5 5 5 5 5 5 5 5 5 5 5 5 5 5 5 5 5 5 5 5 5 5 5 5 5 5 5 5 5 5 5 5 5 5 5 5 5 5 5 5 5 5 5 5 5 5 5 5 5 5 5 5 5 5 5 5 5 5 5 5 5 5 5 5 5 5 5 5 5 5 5 5 5 5 5 5 5 5 5 5 5 5 5 5 5 5 5 5 5 5 5 5 5 5 5 5 5 5 5 5 5 5 5 5 5 5 5 5 5 5 5 5 5 5 5 5 5 5 5 5 5 5 5 5 5 5 5 5 5 5 5 5 5 5 5 5 5 5 5 5 5 5 5 5 5 5 5 5 5 5 5 5 5 5 5 5 5 5 5 5 5 5 5 5 5 5 5 5 5 5 5 5 5 5 5 5 5 5 5 5 5 5 5 5 5 5 5 5 5 5 5 5 5 5 5 5 5 5 5 5 5 5 5 5 5 5 5 5 5 5 5 5 5 5 5 5 5 5 5 5 5 5 5 5 5 5 5 5 5 5 5 5 5 5 5 5 5 5 5 5 5 5 5 5 5 5 5 5 5 5 5 5 5 5 5 5 5 5 5 5 5 5 5 5 5 5 5 5 5 5 5 5 5 5 5 5 5 5 5 5 5 5 5 5 5 5 5 5 5 5 5 5 5 5 5 5 5 5 5 5 5 5 5 5 5 5 5 5 5 5 5 5 5 5 5 5 5 5 5 5 5 5 5 5 5 5 5 5 5 5 5 5 5 5 5 5 5 5 5 5 5 5 5 5 5 5 5 5 5 5 5 5 5 5 5 5 5 5 5 5 5 5 5 5 5 5 5 5 5 5 5 5 5 5 5 5 5 5 5 5 5 5 5 5 5 5 5 5 5 5 5 5 5 5 5 5 5 5 5 5 5 5 5 5 5 5 5 5 5 5 5 5 5 5 5 5 5 5 5 5 5 5 5 5 5 5 5 5 5 5 5 5 5 5 5 5 5 5 5 5 5 5 5 5 5 5 5 5 5 5 5 5 5 5 5 5 5 5 5 5 5 5 5 5 5 5 5 5 5 5 5 5 5 5 5 5 5 5 5 5 5 5 5 5 5 5 5 5 5 5 5 5 5 5 5 5 5 5 5 5 5 5 5 5 5 5 5 5 5 5 5 5 5 5 5 5 5 5 5 5 5 5 5 5 5 5 5 5 5 5 5 5 5 5 5 5 5 5 5 5 5 5 5 5 5 5 5 5 5 5 5 5 5 5 5 5 5 5 5 5 5 5 5 5 5 5 5 5 5 5 5 5 5 5 5 5 5 5 5 5 5 5 5 5 5 5 5 5 5 5 5 5 5 5 5 5 5 5 5 5 5 5 5 5 5 5 5 5 5 5 5 5 5 5 5 5 5 5 5 5 5 5 5 5 5 5 5 5 5 5 5 5 5 5 5 5 5 5 5 5 5 5 5 5 5 5 5 5 5 5 5 5 5 5 5 5 5 5 5 5 5 5 5 5 5 5 5 5 5 5 5 5 5 5 5 5 5 5 5 5 5 5 5 5 5 5 5 5 5 5 5 5 5 5 5 5 5 5 5 5 5 5 5 5 5 5 5 5 5 5 5 5 5 5 5 5 5 5 5 5 5 5 5 5 5 5 5 5 5 5 5 5 5 5 5 5 5 5 5 5 5 5 5 5 5 5 5 5 5 5 5 5 5 5 5 5 5 5 5 5 5 5 5 5 5 5 5 5 5 5 5 5 5 5 5 5 5 5 5 5 5 5 5 5 5 5 5 5 5 5 5 5 5 5 5 5 5 5 5 5 5 5 5 5 5 5 5 5 5 5 5 5 5 5 5 5 5 5 5 5 5 5 5 5 5 5 5 5 5 5 5 5 5 5 5 5 5 5 5 5 5 5 5 5 5 5 5 5 5 5 5 5 5 5 5 5 5 5 5 5 5 5 5 5 5 5 5 5 5 5 5 5 5 5 5 5 5 5 5 5 5 5 5 5 5 5 5 5 5 5 5 5 5 5 5 5 5 5 5 5 5 5 5 5 5 5 5 5 5 5 5 5 5 5 5 5 5 5 5 5 5 5 5 5 5 5 5 5 5 5 5 5 5 5 5 5 5 5 5 5 5 5 5 5 5 5 5 5 5 5 5 5 5 5 5 5 5 5 5 5 5 5 5 5 5 5 5 5 5 5 5 5 5 5 5 5 5 5 5 5 5 5 5 5 5 5 5 5 5 5 5 5 5 5 5 5 5 5 5 5 5 5 5 5 5 5 5 5 5 5 5 5 5 5 5 5 5 5 5 5 5 5 5 5 5 5 5 5 5 5 5 5 5 5 5 5 5 5 5 5 5 5 5 5 5 5 5 5 5 5 5 5 5 5 5 5 5 5 5 5 5 5 5 5 5 5 5 5 5 5 5 5 5 5 5 5 5 5 5 5 5 5 5 5 5 5 5 5 5 5 5 5 5 5 5 5 5 5 5 5 5 5 5 5 5 5 5 5 5 5 5 5 5 5 5 5 5 5 5 5 5 5 5 5 5 5 5 5 5 5 5 5 5 5 5 5 5 5 5 5 5 5 5 5 5 5 5 5 5 5 5 5 5 5 5 5 5 5 5 5 5 5 5 5 5 5 5 5 5 5 5 5 5 5 5 5 5 5 5 5 5 5 5 5 5 5 5 5 5 5 5 5 5 5 5 5 5 5 5 5 5 5 5 5 5 5 5 5 5 5 5 5 5 5 5 5 5 5 5 5 5 5 5 5 5 5 5 5 5 5 5 5 5 5 5 5 5 5 5 5 5 5 5 5 5 5 5 5 5 5 5 5 5 5 5 5 5 5 5 5 5 5 5 5 5 5 5 5 5 5 5 5 5 5 5 5 5 5 5 5 5 5 5 5 5 5 5 5 5 5 5 5 5 5 5 5 5 5 5 5 5 5 5 5 5 5 5 5 5 5 5 5 5 5 5 5 5 5 5 5 5 5 5 5 5 5 5 5 5 5 5 5 5 5 5 5 5 5 5 5 5 5 5 5 5 5 5 5 5 5 5 5 5 5 5 5 5 5 5 5 5 5 5 5 5 5 5 5 5 5 5 5 5 5 5 5 5 5 5 5 5 5 5 5 5 5 5 5 5 5 5 5 5 5 5 5 5 5 5 5 5 5 5 5 5 5 5 5 5 5 5 5 5 5 5 5 5 5 5 5 5 5 5 5 5 5 5 5 5 5 5 5 5 5 5 5 5 5 5 5 5 5 5 5 5 5 5 5 5 5 5 5 5 5 5 5 5 5 5 5 5 5 5 5 5 5 5 5 5 5 5 5 5 5 5 5 5 5 5 5 5 5 5 5 5 5 5 5 5 5 5 5 5 5 5 5 5 5 5 5 5 5 5 5 5 5 5 5 5 5 5 5 5 5 5 5 5 5 5 5 5 5 5 5 5 5 5 5 5 5 5 5 5 5 5 5 5 5 5 5 5 5 5 5 5 5 5 5 5 5 5 5 5 5 5 5 5 5 5 5 5 5 5 5 5 5 5 5 5 5 5 5 5 5 5 5 5 5 5 5 5 5 5 5 5 5 5 5 5 5 5 5 5 5 5 5 5 5 5 5 5 5 5 5 5 5 5 5 5 5 5 5 5 5 5 5 5 5 5 5 5 5 5 5 5 5 5 5 5 5 5 5 5 5 5 5 5 5 5 5 5 5 5 5 5 5 5 5 5 5 5 5 5 5 5 5 5 5 5 5 5 5 5 5 5 5 5 5 5 5 5 5 5 5 5 5 5 5 5 5 5 5 5 5 5 5 5 5 5 5 5 5 5 5 5 5 5 5 5 5 5 5 5 5 5 5 5 5 5 5 5 5 5 5 5 5 5 5 5 5 5 5 5 5 5 5 5 5 5 5 5 5 5 5 5 5 5 5 5 5 5 5 5 5 5 5 5 5 5 5 5 5 5 5 5 5 5 5 5 5 5 5 5 5 5 5 5 5 5 5 5 5 5 5 5 5 5 5 5 5 5 5 5 5 5 5 5 5 5 5 5 5 5 5 5 5 5 5 5 5 5 5 5 5 5 5 5 5 5 5 5 5 5 5 5 5 5 5 5 5 5 5 5 5 5 5 5 5 5 5 5 5 5 5 5 5 5 5 5 5 5 5 5 5 5 5 5 5 5 5 5 5 5 5 5 5 5 5 5 5 5 5 5 5 5 5 5 5 5 5 5 5 5 5 5 5 5 5 5 5 5 5 5 5 5 5 5 5 5 5 5 5 5 5 5 5 5 5 5 5 5 5 5 5 5 5 5 5 5 5 5 5 5 5 5 5 5 5 5 5 5 5 5 5 5 5 5 5 5 5 5 5 5 5 5 5 5 5 5 5 5 5 5 5 5 5 5 5 5 5 5 5 5 5 5 5 5 5 5 5 5 5 5 5 5 5 5 5 5 5 5 5 5 5 5 5 5 5 5 5 5 5 5 5 5 5 5 5 5 5 5 5 5 5 5 5 5 5 5 5 5 5 5 5 5 5 5 5 5 5 5 5 5 5 5 5 5 5 5 5 5 5 5 5 5 5 5 5 5 5 5 5 5 5 5 5 5 5 5 5 5 5 5 5 5 5 5 5 5 5 5 5 5 5 5 5 5 5 5 5 5 5 5 5 5 5 5 5 5 5 5 5 5 5 5 5 5 5 5 5 5 5 5 5 5 5 5 5 5 5 5 5 5 5 5 5 5 5 5 5 5 5 5 5 5 5 5 5 5 5 5 5 5 5 5 5 5 5 5 5 5 5 5 5 5 5 5 5 5 5 5 5 5 5 5 5 5 5 5 5 5 5 5 5 5 5 5 5 5 5 5 5 5 5 5 5 5 5 5 5 5 5 5 5 5 5 5 5 5 5 5 5 5 5 5 5 5 5 5 5 5 5 5 5 5 5 5 5 5 5 5 5 5 5 5 5 5 5 5 5 5 5 5 5 5 5 5 5 5 5 5 5 5 5 5 5 5 5 5 5 5 5 5 5 5 5 5 5 5 5 5 5 5 5 5 5 5 5 5 5 5 5 5 5 5 5 5 5 5 5 5 5 5 5 5 5 5 5 5 5 5 5 5 5 5 5 5 5 5 5 5 5 5 5 5 5 5 5 5 5 5 5 5 5 5 5 5 5 5 5 5 5 5 5 5 5 5 5 5 5 5 5 5 5 5 5 5 5 5 5 5 5 5 5 5 5 5 5 5 5 5 5 5 5 5 5 5 5 5 5 5 5 5 5 5 5 5 5 5 5 5 5 5 5 5 5 5 5 5 5 5 5 5 5 5 5 5 5 5 5 5 5 5 5 5 5 5 5 5 5 5 5 5 5 5 5 5 5 5 5 5 5 5 5 5 5 5 5 5 5 5 5 5 5 5 5 5 5 5 5 5 5 5 5 5 5 5 5 5 5 5 5 5 5 5 5 5 5 5 5 5 5 5 5 5 5 5 5 5 5 5 5 5 5 5 5 5 5 5 5 5 5 5 5 5 5 5 5 5 5 5 5 5 5 5 5 5 5 5 5 5 5 5 5 5 5 5 5 5 5 5 5 5 5 5 5 5 5 5 5 5 5 5 5 5 5 5 5 5 5 5 5 5 5 5 5 5 5 5 5 5 5 5 5 5 5 5 5 5 5 5 5 5 5 5 5 5 5 5 5 5 5 5 5 5 5 5 5 5 5 5 5 5 5 5 5 5 5 5 5 5 5 5 5 5 5 5 5 5 5 5 5 5 5 5 5 5 5 5 5 5 5 5 5 5 5 5 5 5 5 5 5 5 5 5 5 5 5 5 5 5 5 5 5 5 5 5 5 5 5 5 5 5 5 5 5 5 5 5 5 5 5 5 5 5 5 5 5 5 5 5 5 5 5 5 5 5 5 5 5 5 5 5 5 5 5 5 5 5 5 5 5 5 5 5 5 5 5 5 5 5 5 5 5 5 5 5 5 5 5 5 5 5 5 5 5 5 5 5 5 5 5 5 5 5 5 5 5 5 5 5 5 5 5 5 5 5 5 5 5 5 5 5 5 5 5 5 5 5 5 5 5 5 5 5 5 5 5 5 5 5 5 5 5 5 5 5 5 5 5 5 5 5 5 5 5 5 5 5 5 5 5 5 5 5 5 5 5 5 5 5 5 5 5 5 5 5 5 5 5 5 5 5 5 5 5 5 5 5 5 5 5 5 5 5 5 5 5 5 5 5 5 5 5 5 5 5 5 5 5 5 5 5 5 5 5 5 5 5 5 5 5 5 5 5 5 5 5 5 5 5 5 5 5 5 5 5 5 5 5 5 5 5 5 5 5 5 5 5 5 5 5 5 5 5 5 5 5 5 5 5 5 5 5 5 5 5 5 5 5 5 5 5 5 5 5 5 5 5 5 5 5 5 5 5 5 5 5 5 5 5 5 5 5 5 5 5 5 5 5 5 5 5 5 5 5 5 5 5 5 5 5 5 5 5 5 5 5 5 5 5 5 5 5 5 5 5 5 5 5 5 5 5 5 5 5 5 5 5 5 5 5 5 5 5 5 5 5 5 5 5 5 5 5 5 5 5 5 5 5 5 5 5 5 5 5 5 5 5 5 5 5 5 5 5 5 5 5 5 5 5 5 5 5 5 5 5 5 5 5 5 5 5 5 5 5 5 5 5 5 5 5 5 5 5 5 5 5 5 5 5 5 5 5 5 5 5 5 5 5 5 5 5 5 5 5 5 5 5 5 5 5 5 5 5 5 5 5 5 5 5 5 5 5 5 5 5 5 5 5 5 5 5 5 5 5 5 5 5 5 5 5 5 5 5 5 5 5 5 5 5 5 5 5 5 5 5 5 5 5 5 5 5 5 5 5 5 5 5 5 5 5 5 5 5 5 5 5 5 5 5 5 5 5 5 5 5 5 5 5 5 5 5 5 5 5 5 5 5 5 5 5 5 5 5 5 5 5 5 5 5 5 5 5 5 5 5 5 5 5 5 5 5 5 5 5 5 5 5 5 5 5 5 5 5 5 5 5 5 5 5 5 5 5 5 5 5 5 5 5 5 5 5 5 5 5 5 5 5 5 5 5 5 5 5 5 5 5 5 5 5 5 5 5 5 5 5 5 5 5 5 5 5 5 5 5 5 5 5 5 5 5 5 5 5 5 5 5 5 5 5 5 5 5 5 5 5 5 5 5 5 5 5 5 5 5 5 5 5 5 5 5 5 5 5 5 5 5 5 5 5 5 5 5 5 5 5 5 5 5 5 5 5 5 5 5 5 5 5 5 5 5 5 5 5 5 5 5 5 5 5 5 5 5 5 5 5 5 5 5 5 5 5 5 5 5 5 5 5 5 5 5 5 5 5 5 5 5 5 5 5 5 5 5 5 5 5 5 5 5 5 5 5 5 5 5 5 5 5 5 5 5 5 5 5 5 5 5 5 5 5 5 5 5 5 5 5 5 5 5 5 5 5 5 5 5 5 5 5 5 5 5 5 5 5 5 5 5 5 5 5 5 5 5 5 5 5 5 5 5 5 5 5 5 5 5 5 5 5 5 5 5 5 5 5 5 5 5 5 5 5 5 5 5 5 5 5 5 5 5 5 5 5 5 5 5 5 5 5 5 5 5 5 5 5 5 5 5 5 5 5 5 5 5 5 5 5 5 5 5 5 5 5 5 5 5 5 5 5 5 5 5 5 5 5 5 5 5 5 5 5 5 5 5 5 5 5 5 5 5 5 5 5 5 5 5 5 5 5 5 5 5 5 5 5 5 5 5 5 5 5 5 5 5 5 5 5 5 5 5 5 5 5 5 5 5 5 5 5 5 5 5 5 5 5 5 5 5 5 5 5 5 5 5 5 5 5 5 5 5 5 5 5 5 5 5 5 5 5 5 5 5 5 5 5 5 5 5 5 5 5 5 5 5 5 5 5 5 5 5 5 5 5 5 5 5 5 5 5 5 5 5 5 5 5 5 5 5 5 5 5 5 5 5 5 5 5 5 5 5 5 5 5 5 5 5 5 5 5 5 5 5 5 5 5 5 5 5 5 5 5 5 5 5 5 5 5 5 5 5 5 5 5 5 5 5 5 5 5 5 5 5 5 5 5 5 5 5 5 5 5 5 5 5 5 5 5 5 5 5 5 5 5 5 5 5 5 5 5 5 5 5 5 5 5 5 5 5 5 5 5 5 5 5 5 5 5 5 5 5 5 5 5 5 5 5 5 5 5 5 5 5 5 5 5 5 5 5 5 5 5 5 5 5 5 5 5 5 5 5 5 5 5 5 5 5 5 5 5 5 5 5 5 5 5 5 5 5 5 5 5 5 5 5 5 5 5 5 5 5 5 5 5 5 5 5 5 5 5 5 5 5 5 5 5 5 5 5 5 5 5 5 5 5 5 5 5 5 5 5 5 5 5 5 5 5 5 5 5 5 5 5 5 5 5 5 5 5 5 5 5 5 5 5 5 5 5 5 5 5 5 5 5 5 5 5 5 5 5 5 5 5 5 5 5 5 5 5 5 5 5 5 5 5 5 5 5 5 5 5 5 5 5 5 5 5 5 5 5 5 5 5 5 5 5 5 5 5 5 5 5 5 5 5 5 5 5 5 5 5 5 5 5 5 5 5 5 5 5 5 5 5 5 5 5 5 5 5 5 5 5 5 5 5 5 5 5 5 5 5 5 5 5 5 5 5 5 5 5 5 5 5 5 5 5 5 5 5 5 5 5 5 5 5 5 5 5 5 5 5 5 5 5 5 5 5 5 5 5 5 5 5 5 5 5 5 5 5 5 5 5 5 5 5 5 5 5 5 5 5 5 5 5 5 5 5 5 5 5 5 5 5 5 5 5 5 5 5 5 5 5 5 5 5 5 5 5 5 5 5 5 5 5 5 5 5 5 5 5 5 5 5 5 5 5 5 5 5 5 5 5 5 5 5 5 5 5 5 5 5 5 5 5 5 5 5 5 5 5 5 5 5 5 5 5 5 5 5 5 5 5 5 5 5 5 5 5 5 5 5 5 5 5 5 5 5 5 5 5 5 5 5 5 5 5 5 5 5 5 5 5 5 5 5 5 5 5 5 5 5 5 5 5 5 5 5 5 5 5 5 5 5 5 5 5 5 5 5 5 5 5 5 5 5 5 5 5 5 5 5 5 5 5 5 5 5 5 5 5 5 5 5 5 5 5 5 5 5 5 5 5 5 5 5 5 5 5 5 5 5 5 5 5 5 5 5 5 5 5 5 5 5 5 5 5 5 5 5 5 5 5 5 5 5 5 5 5 5 5 5 5 5 5 5 5 5 5 5 5 5 5 5 5 5 5 5 5 5 5 5 5 5 5 5 5 5 5 5 5 5 5 5 5 5 5 5 5 5 5 5 5 5 5 5 5 5 5 5 5 5 5 5 5 5 5 5 5 5 5 5 5 5 5 5 5 5 5 5 5 5 5 5 5 5 5 5 5 5 5 5 5 5 5 5 5 5 5 5 5 5 5 5 5 5 5 5 5 5 5 5 5 5 5 5 5 5 5 5 5 5 5 5 5 5 5 5 5 5 5 5 5 5 5 5 5 5 5 5 5 5 5 5 5 5 5 5 5 5 5 5 5 5 5 5 5 5 5 5 5 5 5 5 5 5 5 5 5 5 5 5 5 5 5 5 5 5 5 5 5 5 5 5 5 5 5 5 5 5 5 5 5 5 5 5 5 5 5 5 5 5 5 5 5 5 5 5 5 5 5 5 5 5 5 5 5 5 5 5 5 5 5 5 5 5 5 5 5 5 5 5 5 5 5 5 5 5 5 5 5 5 5 5 5 5 5 5 5 5 5 5 5 5 5 5 5 5 5 5 5 5 5 5 5 5 5 5 5 5 5 5 5 5 5 5 5 5 5 5 5 5 5 5 5 5 5 5 5 5 5 5 5 5 5 5 5 5 5 5 5 5 5 5 5 5 5 5 5 5 5 5 5 5 5 5 5 5 5 5 5 5 5 5 5 5 5 5 5 5 5 5 5 5 5 5 5 5 5 5 5 5 5 5 5 5 5 5 5 5 5 5 5 5 5 5 5 5 5 5 5 5 5 5 5 5 5 5 5 5 5 5 5 5 5 5 5 5 5 5 5 5 5 5 5 5 5 5 5 5 5 5 5 5 5 5 5 5 5 5 5 5 5 5 5 5 5 5 5 5 5 5 5 5 5 5 5 5 5 5 5 5 5 5 5 5 5 5 5 5 5 5 5 5 5 5 5 5 5 5 5 5 5 5 5 5 5 5 5 5 5 5 5 5 5 5 5 5 5 5 5 5 5 5 5 5 5 5 5 5 5 5 5 5 5 5 5 5 5 5 5 5 5 5 5 5 5 5 5 5 5 5 5 5 5 5 5 5 5 5 5 5 5 5 5 5 5 5 5 5 5 5 5 5 5 5 5 5 5 5 5 5 5 5 5 5 5 5 5 5 5 5 5 5 5 5 5 5 5 5 5 5 5 5 5 5 5 5 5 5 5 5 5 5 5 5 5 5 5 5 5 5 5 5 5 5 5 5 5 5 5 5 5 5 5 5 5 5 5 5 5 5 5 5 5 5 5 5 5 5 5 5 5 5 5 5 5 5 5 5 5 5 5 5 5 5 5 5 5 5 5 5 5 5 5 5 5 5 5 5 5 5 5 5 5 5 5 5 5 5 5 5 5 5 5 5 5 5 5 5 5 5 5 5 5 5 5 5 5 5 5 5 5 5 5 5 5 5 5 5 5 5 5 5 5 5 5 5 5 5 5 5 5 5 5 5 5 5 5 5 5 5 5 5 5 5 5 5 5 5 5 5 5 5 5 5 5 5 5 5 5 5 5 5 5 5 5 5 5 5 5 5 5 5 5 5 5 5 5 5 5 5 5 5 5 5 5 5 5 5 5 5 5 5 5 5 5 5 5 5 5 5 5 5 5 5 5 5 5 5 5 5 5 5 5 5 5 5 5 5 5 5 5 5 5 5 5 5 5 5 5 5 5 5 5 5 5 5 5 5 5 5 5 5 5 5 5 5 5 5 5 5 5 5 5 5 5 5 5 5 5 5 5 5 5 5 5 5 5 5 5 5 5 5 5 5 5 5 5 5 5 5 5 5 5 5 5 5 5 5 5 5 5 5 5 5 5 5 5 5 5 5 5 5 5 5 5 5 5 5 5 5 5 5 5 5 5 5 5 5 5 5 5 5 5 5 5 5 5 5 5 5 5 5 5 5 5 5 5 5 5 5 5 5 5 5 5 5 5 5 5 5 5 5 5 5 5 5 5 5 5 5 5 5 5 5 5 5 5 5 5 5 5 5 5 5 5 5 5 5 5 5 5 5 5 5 5 5 5 5 5 5 5 5 5 5 5 5 5 5 5 5 5 5 5 5 5 5 5 5 5 5 5 5 5 5 5 5 5 5 5 5 5 5 5 5 5 5 5 5 5 5 5 5 5 5 5 5 5 5 5 5 5 5 5 5 5 5 5 5 5 5 5 5 5 5 5 5 5 5 5 5 5 5 5 5 5 5 5 5 5 5 5 5 5 5 5 5 5 5 5 5 5 5 5 5 5 5 5 5 5 5 5 5 5 5 5 5 5 5 5 5 5 5 5 5 5 5 5 5 5 5 5 5 5 5 5 5 5 5 5 5 5 5 5 5 5 5 5 5 5 5 5 5 5 5 5 5 5 5 5 5 5 5 5 5 5 5 5 5 5 5 5 5 5 5 5 5 5 5 5 5 5 5 5 5 5 5 5 5 5 5 5 5 5 5 5 5 5 5 5 5 5 5 5 5 5 5 5 5 5 5 5 5 5 5 5 5 5 5 5 5 5 5 5 5 5 5 5 5 5 5 5 5 5 5 5 5 5 5 5 5 5 5 5 5 5 5 5 5 5 5 5 5 5 5 5 5 5 5 5 5 5 5 5 5 5 5 5 5 5 5 5 5 5 5 5 5 5 5 5 5 5 5 5 5 5 5 5 5 5 5 5 5 5 5 5 5 5 5 5 5 5 5 5 5 5 5 5 5 5 5 5 5 5 5 5 5 5 5 5 5 5 5 5 5 5 5 5 5 5 5 5 5 5 5 5 5 5 5 5 5 5 5 5 5 5 5 5 5 5 5 5 5 5 5 5 5 5 5 5 5 5 5 5 5 5 5 5 5 5 5 5 5 5 5 5 5 5 5 5 5 5 5 5 5 5 5 5 5 5 5 5 5 5 5 5 5 5 5 5 5 5 5 5 5 5 5 5 5 5 5 5 5 5 5 5 5 5 5 5 5 5 5 5 5 5 5 5 5 5 5 5 5 5 5 5 5 5 5 5 5 5 5 5 5 5 5 5 5 5 5 5 5 5 5 5 5 5 5 5 5 5 5 5 5 5 5 5 5 5 5 5 5 5 5 5 5 5 5 5 5 5 5 5 5 5 5 5 5 5 5 5 5 5 5 5 5 5 5 5 5 5 5 5 5 5 5 5 5 5 5 5 5 5 5 5 5 5 5 5 5 5 5 5 5 5 5 5 5 5 5 5 5 5 5 5 5 5 5 5 5 5 5 5 5 5 5 5 5 5 5 5 5 5 5 5 5 5 5 5 5 5 5 5 5 5 5 5 5 5 5 5 5 5 5 5 5 5 5 5 5 5 5 5 5 5 5 5 5 5 5 5 5 5 5 5 5 5 5 5 5 5 5 5 5 5 5 5 5 5 5 5 5 5 5 5 5 5 5 5 5 5 5 5 5 5 5 5 5 5 5 5 5 5 5 5 5 5 5 5 5 5 5 5 5 5 5 5 5 5 5 5 5 5 5 5 5 5 5 5 5 5 5 5 5 5 5 5 5 5 5 5 5 5 5 5 5 5 5 5 5 5 5 5 5 5 5 5 5 5 5 5 5 5 5 5 5 5 5 5 5 5 5 5 5 5 5 5 5 5 5 5 5 5 5 5 5 5 5 5 5 5 5 5 5 5 5 5 5 5 5 5 5 5 5 5 5 5 5 5 5 5 5 5 5 5 5 5 5 5 5 5 5 5 5 5 5 5 5 5 5 5 5 5 5 5 5 5 5 5 5 5 5 5 5 5 5 5 5 5 5 5 5 5 5 5 5 5 5 5 5 5 5 5 5 5 5 5 5 5 5 5 5 5 5 5 5 5 5 5 5 5 5 5 5 5 5 5 5 5 5 5 5 5 5 5 5 5 5 5 5 5 5 5 5 5 5 5 5 5 5 5 5 5 5 5 5 5 5 5 5 5 5 5 5 5 5 5 5 5 5 5 5 5 5 5 5 5 5 5 5 5 5 5 5 5 5 5 5 5 5 5 5 5 5 5 5 5 5 5 5 5 5 5 5 5 5 5 5 5 5 5 5 5 5 5 5 5 5 5 5 5 5 5 5 5 5 5 5 5 5 5 5 5 5 5 5 5 5 5 5 5 5 5 5 5 5 5 5 5 5 5 5 5 5 5 5 5 5 5 5 5 5 5 5 5 5 5 5 5 5 5 5 5 5 5 5 5 5 5 5 5 5 5 5 5 5 5 5 5 5 5 5 5 5 5 5 5 5 5 5 5 5 5 5 5 5 5 5 5 5 5 5 5 5 5 5 5 5 5 5 5 5 5 5 5 5 5 5 5 5 5 5 5 5 5 5 5 5 5 5 5 5 5 5 5 5 5 5 5 5 5 5 5 5 5 5 5 5 5 5 5 5 5 5 5 5 5 5 5 5 5 5 5 5 5 5 5 5 5 5 5 5 5 5 5 5 5 5 5 5 5 5 5 5 5 5 5 5 5 5 5 5 5 5 5 5 5 5 5 5 5 5 5 5 5 5 5 5 5 5 5 5 5 5 5 5 5 5 5 5 5 5 5 5 5 5 5 5 5 5 5 5 5 5 5 5 5 5 5 5 5 5 5 5 5 5 5 5 5 5 5 5 5 5 5 5 5 5 5 5 5 5 5 5 5 5 5 5 5 5 5 5 5 5 5 5 5 5 5 5 5 5 5 5 5 5 5 5 5 5 5 5 5 5 5 5 5 5 5 5 5 5 5 5 5 5 5 5 5 5 5 5 5 5 5 5 5 5 5 5 5 5 5 5 5 5 5 5 5 5 5 5 5 5 5 5 5 5 5 5 5 5 5 5 5 5 5 5 5 5 5 5 5 5 5 5 5 5 5 5 5 5 5 5 5 5 5 5 5 5 5 5 5 5 5 5 5 5 5 5 5 5 5 5 5 5 5 5 5 5 5 5 5 5 5 5 5 5 5 5 5 5 5 5 5 5 5 5 5 5 5 5 5 5 5 5 5 5 5 5 5 5 5 5 5 5 5 5 5 5 5 5 5 5 5 5 5 5 5 5 5 5 5 5 5 5 5 5 5 5 5 5 5 5 5 5 5 5 5 5 5 5 5 5 5 5 5 5 5 5 5 5 5 5 5 5 5 5 5 5 5 5 5 5 5 5 5 5 5 5 5 5 5 5 5 5 5 5 5 5 5 5 5 5 5 5 5 5 5 5 5 5 5 5 5 5 5 5 5 5 5 5 5 5 5 5 5 5 5 5 5 5 5 5 5 5 5 5 5 5 5 5 5 5 5 5 5 5 5 5 5 5 5 5 5 5 5 5 5 5 5 5 5 5 5 5 5 5 5 5 5 5 5 5 5 5 5 5 5 5 5 5 5 5 5 5 5 5 5 5 5 5 5 5 5 5 5 5 5 5 5 5 5 5 5 5 5 5 5 5 5 5 5 5 5 5 5 5 5 5 5 5 5 5 5 5 5 5 5 5 5 5 5 5 5 5 5 5 5 5 5 5 5 5 5 5 5 5 5 5 5 5 5 5 5 5 5 5 5 5 5 5 5 5 5 5 5 5 5 5 5 5 5 5 5 5 5 5 5 5 5 5 5 5 5 5 5 5 5 5 5 5 5 5 5 5 5 5 5 5 5 5 5 5 5 5 5 5 5 5 5 5 5 5 5 5 5 5 5 5 5 5 5 5 5 5 5 5 5 5 5 5 5 5 5 5 5 5 5 5 5 5 5 5 5 5 5 5 5 5 5 5 5 5 5 5 5 5 5 5 5 5 5 5 5 5 5 5 5 5 5 5 5 5 5 5 5 5 5 5 5 5 5 5 5 5 5 5 5 5 5 5 5 5 5 5 5 5 5 5 5 5 5 5 5 5 5 5 5 5 5 5 5 5 5 5 5 5 5 5 5 5 5 5 5 5 5 5 5 5 5 5 5 5 5 5 5 5 5 5 5 5 5 5 5 5 5 5 5 5 5 5 5 5 5 5 5 5 5 5 5 5 5 5 5 5 5 5 5 5 5 5 5 5 5 5 5 5 5 5 5 5 5 5 5 5 5 5 5 5 5 5 5 5 5 5 5 5 5 5 5 5 5 5 5 5 5 5 5 5 5 5 5 5 5 5 5 5 5 5 5 5 5 5 5 5 5 5 5 5 5 5 5 5 5 5 5 5 5 5 5 5 5 5 5 5 5 5 5 5 5 5 5 5 5 5 5 5 5 5 5 5 5 5 5 5 5 5 5 5 5 5 5 5 5 5 5 5 5 5 5 5 5 5 5 5 5 5 5 5 5 5 5 5 5 5 5 5 5 5 5 5 5 5 5 5 5 5 5 5 5 5 5 5 5 5 5 5 5 5 5 5 5 5 5 5 5 5 5 5 5 5 5 5 5 5 5 5 5 5 5 5 5 5 5 5 5 5 5 5 5 5 5 5 5 5 5 5 5 5 5 5 5 5 5 5 5 5 5 5 5 5 5 5 5 5 5 5 5 5 5 5 5 5 5 5 5 5 5 5 5 5 5 5 5 5 5 5 5 5 5 5 5 5 5 5 5 5 5 5 5 5 5 5 5 5 5 5 5 5 5 5 5 5 5 5 5 5 5 5 5 5 5 5 5 5 5 5 5 5 5 5 5 5 5 5 5 5 5 5 5 5 5 5 5 5 5 5 5 5 5 5 5 5 5 5 5 5 5 5 5 5 5 5 5 5 5 5 5 5 5 5 5 5 5 5 5 5 5 5 5 5 5 5 5 5 5 5 5 5 5 5 5 5 5 5 5 5 5 5 5 5 5 5 5 5 5 5 5 5 5 5 5 5 5 5 5 5 5 5 5 5 5 5 5 5 5 5 5 5 5 5 5 5 5 5 5 5 5 5 5 5 5 5 5 5 5 5 5 5 5 5 5 5 5 5 5 5 5 5 5 5 5 5 5 5 5 5 5 5 5 5 5 5 5 5 5 5 5 5 5 5 5 5 5 5 5 5 5 5 5 5 5 5 5 5 5 5 5 5 5 5 5 5 5 5 5 5 5 5 5 5 5 5 5 5 5 5 5 5 5 5 5 5 5 5 5 5 5 5 5 5 5 5 5 5 5 5 5 5 5 5 5 5 5 5 5 5 5 5 5 5 5 5 5 5 5 5 5 5 5 5 5 5 5 5 5 5 5 5 5 5 5 5 5 5 5 5 5 5 5 5 5 5 5 5 5 5 5 5 5 5 5 5 5 5 5 5 5 5 5 5 5 5 5 5 5 5 5 5 5 5 5 5 5 5 5 5 5 5 5 5 5 5 5 5 5 5 5 5 5 5 5 5 5 5 5 5 5 5 5 5 5 5 5 5 5 5 5 5 5 5 5 5 5 5 5 5 5 5 5 5 5 5 5 5 5 5 5 5 5 5 5 5 5 5 5 5 5 5 5 5 5 5 5 5 5 5 5 5 5 5 5 5 5 5 5 5 5 5 5 5 5 5 5 5 5 5 5 5 5 5 5 5 5 5 5 5 5 5 5 5 5 5 5 5 5 5 5 5 5 5 5 5 5 5 5 5 5 5 5 5 5 5 5 5 5 5 5 5 5 5 5 5 5 5 5 5 5 5 5 5 5 5 5 5 5 5 5 5 5 5 5 5 5 5 5 5 5 5 5 5 5 5 5 5 5 5 5 5 5 5 5 5 5 5 5 5 5 5 5 5 5 5 5 5 5 5 5 5 5 5 5 5 5 5 5 5 5 5 5 5 5 5 5 5 5 5 5 5 5 5 5 5 5 5 5 5 5 5 5 5 5 5 5 5 5 5 5 5 5 5 5 5 5 5 5 5 5 5 5 5 5 5 5 5 5 5 5 5 5 5 5 5 5 5 5 5 5 5 5 5 5 5 5 5 5 5 5 5 5 5 5 5 5 5 5 5 5 5 5 5 5 5 5 5 5 5 5 5 5 5 5 5 5 5 5 5 5 5 5 5 5 5 5 5 5 5 5 5 5 5 5 5 5 5 5 5 5 5 5 5 5 5 5 5 5 5 5 5 5 5 5 5 5 5 5 5 5 5 5 5 5 5 5 5 5 5 5 5 5 5 5 5 5 5 5 5 5 5 5 5 5 5 5 5 5 5 5 5 5 5 5 5 5 5 5 5 5 5 5 5 5 5 5 5 5 5 5 5 5 5 5 5 5 5 5 5 5 5 5 5 5 5 5 5 5 5 5 5 5 5 5 5 5 5 5 5 5 5 5 5 5 5 5 5 5 5 5 5 5 5 5 5 5 5 5 5 5 5 5 5 5 5 5 5 5 5 5 5 5 5 5 5 5 5 5 5 5 5 5 5 5 5 5 5 5 5 5 5 5 5 5 5 5 5 5 5 5 5 5 5 5 5 5 5 5 5 5 5 5 5 5 5 5 5 5 5 5 5 5 5 5 5 5 5 5 5 5 5 5 5 5 5 5 5 5 5 5 5 5 5 5 5 5 5 5 5 5 5 5 5 5 5 5 5 5 5 5 5 5 5 5 5 5 5 5 5 5 5 5 5 5 5 5 5 5 5 5 5 5 5 5 5 5 5 5 5 5 5 5 5 5 5 5 5 5 5 5 5 5 5 5 5 5 5 5 5 5 5 5 5 5 5 5 5 5 5 5 5 5 5 5 5 5 5 5 5 5 5 5 5 5 5 5 5 5 5 5 5 5 5 5 5 5 5 5 5 5 5 5 5 5 5 5 5 5 5 5 5 5 5 5 5 5 5 5 5 5 5 5 5 5 5 5 5 5 5 5 5 5 5 5 5 5 5 5 5 5 5 5 5 5 5 5 5 5 5 5 5 5 5 5 5 5 5 5 5 5 5 5 5 5 5 5 5 5 5 5 5 5 5 5 5 5 5 5 5 5 5 5 5 5 5 5 5 5 5 5 5 5 5 5 5 5 5 5 5 5 5 5 5 5 5 5 5 5 5 5 5 5 5 5 5 5 5 5 5 5 5 5 5 5 5 5 5 5 5 5 5 5 5 5 5 5 5 5 5 5 5 5 5 5 5 5 5 5 5 5 5 5 5 5 5 5 5 5 5 5 5 5 5 5 5 5 5 5 5 5 5 5 5 5 5 5 5 5 5 5 5 5 5 5 5 5 5 5 5 5 5 5 5 5 5 5 5 5 5 5 5 5 5 5 5 5 5 5 5 5 5 5 5 5 5 5 5 5 5 5 5 5 5 5 5 5 5 5 5 5 5 5 5 5 5 5 5 5 5 5 5 5 5 5 5 5 5 5 5 5 5 5 5 5 5 5 5 5 5 5 5 5 5 5 5 5 5 5 5 5 5 5 5 5 5 5 5 5 5 5 5 5 5 5 5 5 5 5 5 5 5 5 5 5 5 5 5 5 5 5 5 5 5 5 5 5 5 5 5 5 5 5 5 5 5 5 5 5 5 5 5 5 5 5 5 5 5 5 5 5 5 5 5 5 5 5 5 5 5 5 5 5 5 5 5 5 5 5 5 5 5 5 5 5 5 5 5 5 5 5 5 5 5 5 5 5 5 5 5 5 5 5 5 5 5 5 5 5 5 5 5 5 5 5 5 5 5 5 5 5 5 5 5 5 5 5 5 5 5 5 5 5 5 5 5 5 5 5 5 5 5 5 5 5 5 5 5 5 5 5 5 5 5 5 5 5 5 5 5 5 5 5 5 5 5 5 5 5 5 5 5 5 5 5 5 5 5 5 5 5 5 5 5 5 5 5 5 5 5 5 5 5 5 5 5 5 5 5 5 5 5 5 5 5 5 5 5 5 5 5 5 5 5 5 5 5 5 5 5 5 5 5 5 5 5 5 5 5 5 5 5 5 5 5 5 5 5 5 5 5 5 5 5 5 5 5 5 5 5 5 5 5 5 5 5 5 5 5 5 5 5 5 5 5 5 5 5 5 5 5 5 5 5 5 5 5 5 5 5 5 5 5 5 5 5 5 5 5 5 5 5 5 5 5 5 5 5 5 5 5 5 5 5 5 5 5 5 5 5 5 5 5 5 5 5 5 5 5 5 5 5 5 5 5 5 5 5 5 5 5 5 5 5 5 5 5 5 5 5 5 5 5 5 5 5 5 5 5 5 5 5 5 5 5 5 5 5 5 5 5 5 5 5 5 5 5 5 5 5 5 5 5 5 5 5 5 5 5 5 5 5 5 5 5 5 5 5 5 5 5 5 5 5 5 5 5 5 5 5 5 5 5 5 5 5 5 5 5 5 5 5 5 5 5 5 5 5 5 5 5 5 5 5 5 5 5 5 5 5 5 5 5 5 5 5 5 5 5 5 5 5 5 5 5 5 5 5 5 5 5 5 5 5 5 5 5 5 5 5 5 5 5 5 5 5 5 5 5 5 5 5 5 5 5 5 5 5 5 5 5 5 5 5 5 5 5 5 5 5 5 5 5 5 5 5 5 5 5 5 5 5 5 5 5 5 5 5 5 5 5 5 5 5 5 5 5 5 5 5 5 5 5 5 5 5 5 5 5 5 5 5 5 5 5 5 5 5 5 5 5 5 5 5 5 5 5 5 5 5 5 5 5 5 5 5 5 5 5 5 5 5 5 5 5 5 5 5 5 5 5 5 5 5 5 5 5 5 5 5 5 5 5 5 5 5 5 5 5 5 5 5 5 5 5 5 5 5 5 5 5 5 5 5 5 5 5 5 5 5 5 5 5 5 5 5 5 5 5 5 5 5 5 5 5 5 5 5 5 5 5 5 5 5 5 5 5 5 5 5 5 5 5 5 5 5 5 5 5 5 5 5 5 5 5 5 5 5 5 5 5 5 5 5 5 5 5 5 5 5 5 5 5 5 5 5 5 5 5 5 5 5 5 5 5 5 5 5 5 5 5 5 5 5 5 5 5 5 5 5 5 5 5 5 5 5 5 5 5 5 5 5 5 5 5 5 5 5 5 5 5 5 5 5 5 5 5 5 5 5 5 5 5 5 5 5 5 5 5 5 5 5 5 5 5 5 5 5 5 5 5 5 5 5 5 5 5 5 5 5 5 5 5 5 5 5 5 5 5 5 5 5 5 5 5 5 5 5 5 5 5 5 5 5 5 5 5 5 5 5 5 5 5 5 5 5 5 5 5 5 5 5 5 5 5 5 5 5 5 5 5 5 5 5 5 5 5 5 5 5 5 5 5 5 5 5 5 5 5 5 5 5 5 5 5 5 5 5 5 5 5 5 5 5 5 5 5 5 5 5 5 5 5 5 5 5 5 5 5 5 5 5 5 5 5 5 5 5 5 5 5 5 5 5 5 5 5 5 5 5 5 5 5 5 5 5 5 5 5 5 5 5 5 5 5 5 5 5 5 5 5 5 5 5 5 5 5 5 5 5 5 5 5 5 5 5 5 5 5 5 5 5 5 5 5 5 5 5 5 5 5 5 5 5 5 5 5 5 5 5 5 5 5 5 5 5 5 5 5 5 5 5 5 5 5 5 5 5 5 5 5 5 5 5 5 5 5 5 5 5 5 5 5 5 5 5 5 5 5 5 5 5 5 5 5 5 5 5 5 5 5 5 5 5 5 5 5 5 5 5 5 5 5 5 5 5 5 5 5 5 5 5 5 5 5 5 5 5 5 5 5 5 5 5 5 5 5 5 5 5 5 5 5 5 5 5 5 5 5 5 5 5 5 5 5 5 5 5 5 5 5 5 5 5 5 5 5 5 5 5 5 5 5 5 5 5 5 5 5 5 5 5 5 5 5 5 5 5 5 5 5 5 5 5 5 5 5 5 5 5 5 5 5 5 5 5 5 5 5 5 5 5 5 5 5 5 5 5 5 5 5 5 5 5 5 5 5 5 5 5 5 5 5 5 5 5 5 5 5 5 5 5 5 5 5 5 5 5 5 5 5 5 5 5 5 5 5 5 5 5 5 5 5 5 5 5 5 5 5 5 5 5 5 5 5 5 5 5 5 5 5 5 5 5 5 5 5 5 5 5 5 5 5 5 5 5 5 5 5 5 5 5 5 5 5 5 5 5 5 5 5 5 5 5 5 5 5 5 5 5 5 5 5 5 5 5 5 5 5 5 5 5 5 5 5 5 5 5 5 5 5 5 5 5 5 5 5 5 5 5 5 5 5 5 5 5 5 5 5 5 5 5 5 5 5 5 5 5 5 5 5 5 5 5 5 5 5 5 5 5 5 5 5 5 5 5 5 5 5 5 5 5 5 5 5 5 5 5 5 5 5 5 5 5 5 5 5 5 5 5 5 5 5 5 5 5 5 5 5 5 5 5 5 5 5 5 5 5 5 5 5 5 5 5 5 5 5 5 5 5 5 5 5 5 5 5 5 5 5 5 5 5 5 5 5 5 5 5 5 5 5 5 5 5 5 5 5 5 5 5 5 5 5 5 5 5 5 5 5 5 5 5 5 5 5 5 5 5 5 5 5 5 5 5 5 5 5 5 5 5 5 5 5 5 5 5 5 5 5 5 5 5 5 5 5 5 5 5 5 5 5 5 5 5 5 5 5 5 5 5 5 5 5 5 5 5 5 5 5 5 5 5 5 5 5 5 5 5 5 5 5 5 5 5 5 5 5 5 5 5 5 5 5 5 5 5 5 5 5 5 5 5 5 5 5 5 5 5 5 5 5 5 5 5 5 5 5 5 5 5 5 5 5 5 5 5 5 5 5 5 5 5 5 5 5 5 5 5 5 5 5 5 5 5 5 5 5 5 5 5 5 5 5 5 5 5 5 5 5 5 5 5 5 5 5 5 5 5 5 5 5 5 5 5 5 5 5 5 5 5 5 5 5 5 5 5 5 5 5 5 5 5 5 5 5 5 5 5 5 5 5 5 5 5 5 5 5 5 5 5 5 5 5 5 5 5 5 5 5 5 5 5 5 5 5 5 5 5 5 5 5 5 5 5 5 5 5 5 5 5 5 5 5 5 5 5 5 5 5 5 5 5 5 5 5 5 5 5 5 5 5 5 5 5 5 5 5 5 5 5 5 5 5 5 5 5 5 5 5 5 5 5 5 5 5 5 5 5 5 5 5 5 5 5 5 5 5 5 5 5 5 5 5 5 5 5 5 5 5 5 5 5 5 5 5 5 5 5 5 5 5 5 5 5 5 5 5 5 5 5 5 5 5 5 5 5 5 5 5 5 5 5 5 5 5 5 5 5 5 5 5 5 5 5 5 5 5 5 5 5 5 5 5 5 5 5 5 5 5 5 5 5 5 5 5 5 5 5 5 5 5 5 5 5 5 5 5 5 5 5 5 5 5 5 5 5 5 5 5 5 5 5 5 5 5 5 5 5 5 5 5 5 5 5 5 5 5 5 5 5 5 5 5 5 5 5 5 5 5 5 5 5 5 5 5 5 5 5 5 5 5 5 5 5 5 5 5 5 5 5 5 5 5 5 5 5 5 5 5 5 5 5 5 5 5 5 5 5 5 5 5 5 5 5 5 5 5 5 5 5 5 5 5 5 5 5 5 5 5 5 5 5 5 5 5 5 5 5 5 5 5 5 5 5 5 5 5 5 5 5 5 5 5 5 5 5 5 5 5 5 5 5 5 5 5 5 5 5 5 5 5 5 5 5 5 5 5 5 5 5 5 5 5 5 5 5 5 5 5 5 5 5 5 5 5 5 5 5 5 5 5 5 5 5 5 5 5 5 5 5 5 5 5 5 5 5 5 5 5 5 5 5 5 5 5 5 5 5 5 5 5 5 5 5 5 5 5 5 5 5 5 5 5 5 5 5 5 5 5 5 5 5 5 5 5 5 5 5 5 5 5 5 5 5 5 5 5 5 5 5 5 5 5 5 5 5 5 5 5 5 5 5 5 5 5 5 5 5 5 5 5 5 5 5 5 5 5 5 5 5 5 5 5 5 5 5 5 5 5 5 5 5 5 5 5 5 5 5 5 5 5 5 5 5 5 5 5 5 5 5 5 5 5 5 5 5 5 5 5 5 5 5 5 5 5 5 5 5 5 5 5 5 5 5 5 5 5 5 5 5 5 5 5 5 5 5 5 5 5 5 5 5 5 5 5 5 5 5 5 5 5 5 5 5 5 5 5 5 5 5 5 5 5 5 5 5 5 5 5 5 5 5 5 5 5 5 5 5 5 5 5 5 5 5 5 5 5 5 5 5 5 5 5 5 5 5 5 5 5 5 5 5 5 5 5 5 5 5 5 5 5 5 5 5 5 5 5 5 5 5 5 5 5 5 5 5 5 5 5 5 5 5 5 5 5 5 5 5 5 5 5 5 5 5 5 5 5 5 5 5 5 5 5 5 5 5 5 5 5 5 5 5 5 5 5 5 5 5 5 5 5 5 5 5 5 5 5 5 5 5 5 5 5 5 5 5 5 5 5 5 5 5 5 5 5 5 5 5 5 5 5 5 5 5 5 5 5 5 5 5 5 5 5 5 5 5 5 5 5 5 5 5 5 5 5 5 5 5 5 5 5 5 5 5 5 5 5 5 5 5 5 5 5 5 5 5 5 5 5 5 5 5 5 5 5 5 5 5 5 5 5 5 5 5 5 5 5 5 5 5 5 5 5 5 5 5 5 5 5 5 5 5 5 5 5 5 5 5 5 5 5 5 5 5 5 5 5 5 5 5 5 5 5 5 5 5 5 5 5 5 5 5 5 5 5 5 5 5 5 5 5 5 5 5 5 5 5 5 5 5 5 5 5 5 5 5 5 5 5 5 5 5 5 5 5 5 5 5 5 5 5 5 5 5 5 5 5 5 5 5 5 5 5 5 5 5 5 5 5 5 5 5 5 5 5 5 5 5 5 5 5 5 5 5 5 5 5 5 5 5 5 5 5 5 5 5 5 5 5 5 5 5 5 5 5 5 5 5 5 5 5 5 5 5 5 5 5 5 5 5 5 5 5 5 5 5 5 5 5 5 5 5 5 5 5 5 5 5 5 5 5 5 5 5 5 5 5 5 5 5 5 5 5 5 5 5 5 5 5 5 5 5 5 5 5 5 5 5 5 5 5 5 5 5 5 5 5 5 5 5 5 5 5 5 5 5 5 5 5 5 5 5 5 5 5 5 5 5 5 5 5 5 5 5 5 5 5 5 5 5 5 5 5 5 5 5 5 5 5 5 5 5 5 5 5 5 5 5 5 5 5 5 5 5 5 5 5 5 5 5 5 5 5 5 5 5 5 5 5 5 5 5 5 5 5 5 5 5 5 5 5 5 5 5 5 5 5 5 5 5 5 5 5 5 5 5 5 5 5 5 5 5 5 5 5 5 5 5 5 5 5 5 5 5 5 5 5 5 5 5 5 5 5 5 5 5 5 5 5 5 5 5 5 5 5 5 5 5 5 5 5 5 5 5 5 5 5 5 5 5 5 5 5 5 5 5 5 5 5 5 5 5 5 5 5 5 5 5 5 5 5 5 5 5 5 5 5 5 5 5 5 5 5 5 5 5 5 5 5 5 5 5 5 5 5 5 5 5 5 5 5 5 5 5 5 5 5 5 5 5 5 5 5 5 5 5 5 5 5 5 5 5 5 5 5 5 5 5 5 5 5 5 5 5 5 5 5 5 5 5 5 5 5 5 5 5 5 5 5 5 5 5 5 5 5 5 5 5 5 5 5 5 5 5 5 5 5 5 5 5 5 5 5 5 5 5 5 5 5 5 5 5 5 5 5 5 5 5 5 5 5 5 5 5 5 5 5 5 5 5 5 5 5 5 5 5 5 5 5 5 5 5 5 5 5 5 5 5 5 5 5 5 5 5 5 5 5 5 5 5 5 5 5 5 5 5 5 5 5 5 5 5 5 5 5 5 5 5 5 5 5 5 5 5 5 5 5 5 5 5 5 5 5 5 5 5 5 5 5 5 5 5 5 5 5 5 5 5 5 5 5 5 5 5 5 5 5 5 5 5 5 5 5 5 5 5 5 5 5 5 5 5 5 5 5 5 5 5 5 5 5 5 5 5 5 5 5 5 5 5 5 5 5 5 5 5 5 5 5 5 5 5 5 5 5 5 5 5 5 5 5 5 5 5 5 5 5 5 5 5 5 5 5 5 5 5 5 5 5 5 5 5 5 5 5 5 5 5 5 5 5 5 5 5 5 5 5 5 5 5 5 5 5 5 5 5 5 5 5 5 5 5 5 5 5 5 5 5 5 5 5 5 5 5 5 5 5 5 5 5 5 5 5 5 5 5 5 5 5 5 5 5 5 5 5 5 5 5 5 5 5 5 5 5 5 5 5 5 5 5 5 5 5 5 5 5 5 5 5 5 5 5 5 5 5 5 5 5 5 5 5 5 5 5 5 5 5 5 5 5 5 5 5 5 5 5 5 5 5 5 5 5 5 5 5 5 5 5 5 5 5 5 5 5 5 5 5 5 5 5 5 5 5 5 5 5 5 5 5 5 5 5 5 5 5 5 5 5 5 5 5 5 5 5 5 5 5 5 5 5 5 5 5 5 5 5 5 5 5 5 5 5 5 5 5 5 5 5 5 5 5 5 5 5 5 5 5 5 5 5 5 5 5 5 5 5 5 5 5 5 5 5 5 5 5 5 5 5 5 5 5 5 5 5 5 5 5 5 5 5 5 5 5 5 5 5 5 5 5 5 5 5 5 5 5 5 5 5 5 5 5 5 5 5 5 5 5 5 5 5 5 5 5 5 5 5 5 5 5 5 5 5 5 5 5 5 5 5 5 5 5 5 5 5 5 5 5 5 5 5 5 5 5 5 5 5 5 5 5 5 5 5 5 5 5 5 5 5 5 5 5 5 5 5 5 5 5 5 5 5 5 5 5 5 5 5 5 5 5 5 5 5 5 5 5 5 5 5 5 5 5 5 5 5 5 5 5 5 5 5 5 5 5 5 5 5 5 5 5 5 5 5 5 5 5 5 5 5 5 5 5 5 5 5 5 5 5 5 5 5 5 5 5 5 5 5 5 5 5 5 5 5 5 5 5 5 5 5 5 5 5 5 5 5 5 5 5 5 5 5 5 5 5 5 5 5 5 5 5 5 5 5 5 5 5 5 5 5 5 5 5 5 5 5 5 5 5 5 5 5 5 5 5 5 5 5 5 5 5 5 5 5 5 5 5 5 5 5 5 5 5 5 5 5 5 5 5 5 5 5 5 5 5 5 5 5 5 5 5 5 5 5 5 5 5 5 5 5 5 5 5 5 5 5 5 5 5 5 5 5 5 5 5 5 5 5 5 5 5 5 5 5 5 5 5 5 5 5 5 5 5 5 5 5 5 5 5 5 5 5 5 5 5 5 5 5 5 5 5 5 5 5 5 5 5 5 5 5 5 5 5 5 5 5 5 5 5 5 5 5 5 5 5 5 5 5 5 5 5 5 5 5 5 5 5 5 5 5 5 5 5 5 5 5 5 5 5 5 5 5 5 5 5 5 5 5 5 5 5 5 5 5 5 5 5 5 5 5 5 5 5 5 5 5 5 5 5 5 5 5 5 5 5 5 5 5 5 5 5 5 5 5 5 5 5 5 5 5 5 5 5 5 5 5 5 5 5 5 5 5 5 5 5 5 5 5 5 5 5 5 5 5 5 5 5 5 5 5 5 5 5 5 5 5 5 5 5 5 5 5 5 5 5 5 5 5 5 5 5 5 5 5 5 5 5 5 5 5 5 5 5 5 5 5 5 5 5 5 5 5 5 5 5 5 5 5 5 5 5 5 5 5 5 5 5 5 5 5 5 5 5 5 5 5 5 5 5 5 5 5 5 5 5 5 5 5 5 5 5 5 5 5 5 5 5 5 5 5 5 5 5 5 5 5 5 5 5 5 5 5 5 5 5 5 5 5 5 5 5 5 5 5 5 5 5 5 5 5 5 5 5 5 5 5 5 5 5 5 5 5 5 5 5 5 5 5 5 5 5 5 5 5 5 5 5 5 5 5 5 5 5 5 5 5 5 5 5 5 5 5 5 5 5 5 5 5 5 5 5 5 5 5 5 5 5 5 5 5 5 5 5 5 5 5 5 5 5 5 5 5 5 5 5 5 5 5 5 5 5 5 5 5 5 5 5 5 5 5 5 5 5 5 5 5 5 5 5 5 5 5 5 5 5 5 5 5 5 5 5 5 5 5 5 5 5 5 5 5 5 5 5 5 5 5 5 5 5 5 5 5 5 5 5 5 5 5 5 5 5 5 5 5 5 5 5 5 5 5 5 5 5 5 5 5 5 5 5 5 5 5 5 5 5 5 5 5 5 5 5 5 5 5 5 5 5 5 5 5 5 5 5 5 5 5 5 5 5 5 5 5 5 5 5 5 5 5 5 5 5 5 5 5 5 5 5 5 5 5 5 5 5 5 5 5 5 5 5 5 5 5 5 5 5 5 5 5 5 5 5 5 5 5 5 5 5 5 5 5 5 5 5 5 5 5 5 5 5 5 5 5 5 5 5 5 5 5 5 5 5 5 5 5 5 5 5 5 5 5 5 5 5 5 5 5 5 5 5 5 5 5 5 5 5 5 5 5 5 5 5 5 5 5 5 5 5 5 5 5 5 5 5 5 5 5 5 5 5 5 5 5 5 5 5 5 5 5 5 5 5 5 5 5 5 5 5 5 5 5 5 5 5 5 5 5 5 5 5 5 5 5 5 5 5 5 5 5 5 5 5 5 5 5 5 5 5 5 5 5 5 5 5 5 5 5 5 5 5 5 5 5 5 5 5 5 5 5 5 5 5 5 5 5 5 5 5 5 5 5 5 5 5 5 5 5 5 5 5 5 5 5 5 5 5 5 5 5 5 5 5 5 5 5 5 5 5 5 5 5 5 5 5 5 5 5 5 5 5 5 5 5 5 5 5 5 5 5 5 5 5 5 5 5 5 5 5 5 5 5 5 5 5 5 5 5 5 5 5 5 5 5 5 5 5 5 5 5 5 5 5 5 5 5 5 5 5 5 5 5 5 5 5 5 5 5 5 5 5 5 5 5 5 5 5 5 5 5 5 5 5 5 5 5 5 5 5 5 5 5 5 5 5 5 5 5 5 5 5 5 5 5 5 5 5 5 5 5 5 5 5 5 5 5 5 5 5 5 5 5 5 5 5 5 5 5 5 5 5 5 5 5 5 5 5 5 5 5 5 5 5 5 5 5 5 5 5 5 5 5 5 5 5 5 5 5 5 5 5 5 5 5 5 5 5 5 5 5 5 5 5 5 5 5 5 5 5 5 5 5 5 5 5 5 5 5 5 5 5 5 5 5 5 5 5 5 5 5 5 5 5 5 5 5 5 5 5 5 5 5 5 5 5 5 5 5 5 5 5 5 5 5 5 5 5 5 5 5 5 5 5 5 5 5 5 5 5 5 5 5 5 5 5 5 5 5 5 5 5 5 5 5 5 5 5 5 5 5 5 5 5 5 5 5 5 5 5 5 5 5 5 5 5 5 5 5 5 5 5 5 5 5 5 5 5 5 5 5 5 5 5 5 5 5 5 5 5 5 5 5 5 5 5 5 5 5 5 5 5 5 5 5 5 5 5 5 5 5 5 5 5 5 5 5 5 5 5 5 5 5 5 5 5 5 5 5 5 5 5 5 5 5 5 5 5 5 5 5 5 5 5 5 5 5 5 5 5 5 5 5 5 5 5 5 5 5 5 5 5 5 5 5 5 5 5 5 5 5 5 5 5 5 5 5 5 5 5 5 5 5 5 5 5 5 5 5 5 5 5 5 5 5 5 5 5 5 5 5 5 5 5 5 5 5 5 5 5 5 5 5 5 5 5 5 5 5 5 5 5 5 5 5 5 5 5 5 5 5 5 5 5 5 5 5 5 5 5 5 5 5 5 5 5 5 5 5 5 5 5 5 5 5 5 5 5 5 5 5 5 5 5 5 5 5 5 5 5 5 5 5 5 5 5 5 5 5 5 5 5 5 5 5 5 5 5 5 5 5 5 5 5 5 5 5 5 5 5 5 5 5 5 5 5 5 5 5 5 5 5 5 5 5 5 5 5 5 5 5 5 5 5 5 5 5 5 5 5 5 5 5 5 5 5 5 5 5 5 5 5 5 5 5 5 5 5 5 5 5 5 5 5 5 5 5 5 5 5 5 5 5 5 5 5 5 5 5 5 5 5 5 5 5 5 5 5 5 5 5 5 5 5 5 5 5 5 5 5 5 5 5 5 5 5 5 5 5 5 5 5 5 5 5 5 5 5 5 5 5 5 5 5 5 5 5 5 5 5 5 5 5 5 5 5 5 5 5 5 5 5 5 5 5 5 5 5 5 5 5 5 5 5 5 5 5 5 5 5 5 5 5 5 5 5 5 5 5 5 5 5 5 5 5 5 5 5 5 5 5 5 5 5 5 5 5 5 5 5 5 5 5 5 5 5 5 5 5 5 5 5 5 5 5 5 5 5 5 5 5 5 5 5 5 5 5 5 5 5 5 5 5 5 5 5 5 5 5 5 5 5 5 5 5 5 5 5 5 5 5 5 5 5 5 5 5 5 5 5 5 5 5 5 5 5 5 5 5 5 5 5 5 5 5 5 5 5 5 5 5 5 5 5 5 5 5 5 5 5 5 5 5 5 5 5 5 5 5 5 5 5 5 5 5 5 5 5 5 5 5 5 5 5 5 5 5 5 5 5 5 5 5 5 5 5 5 5 5 5 5 5 5 5 5 5 5 5 5 5 5 5 5 5 5 5 5 5 5 5 5 5 5 5 5 5 5 5 5 5 5 5 5 5 5 5 5 5 5 5 5 5 5 5 5 5 5 5 5 5 5 5 5 5 5 5 5 5 5 5 5 5 5 5 5 5 5 5 5 5 5 5 5 5 5 5 5 5 5 5 5 5 5 5 5 5 5 5 5 5 5 5 5 5 5 5 5 5 5 5 5 5 5 5 5 5 5 5 5 5 5 5 5 5 5 5 5 5 5 5 5 5 5 5 5 5 5 5 5 5 5 5 5 5 5 5 5 5 5 5 5 5 5 5 5 5 5 5 5 5 5 5 5 5 5 5 5 5 5 5 5 5 5 5 5 5 5 5 5 5 5 5 5 5 5 5 5 5 5 5 5 5 5 5 5 5 5 5 5 5 5 5 5 5 5 5 5 5 5 5 5 5 5 5 5 5 5 5 5 5 5 5 5 5 5 5 5 5 5 5 5 5 5 5 5 5 5 5 5 5 5 5 5 5 5 5 5 5 5 5 5 5 5 5 5 5 5 5 5 5 5 5 5 5 5 5 5 5 5 5 5 5 5 5 5 5 5 5 5 5 5 5 5 5 5 5 5 5 5 5 5 5 5 5 5 5 5 5 5 5 5 5 5 5 5 5 5 5 5 5 5 5 5 5 5 5 5 5 5 5 5 5 5 5 5 5 5 5 5 5 5 5 5 5 5 5 5 5 5 5 5 5 5 5 5 5 5 5 5 5 5 5 5 5 5 5 5 5 5 5 5 5 5 5 5 5 5 5 5 5 5 5 5 5 5 5 5 5 5 5 5 5 5 5 5 5 5 5 5 5 5 5 5 5 5 5 5 5 5 5 5 5 5 5 5 5 5 5 5 5 5 5 5 5 5 5 5 5 5 5 5 5 5 5 5 5 5 5 5 5 5 5 5 5 5 5 5 5 5 5 5 5 5 5 5 5 5 5 5 5 5 5 5 5 5 5 5 5 5 5 5 5 5 5 5 5 5 5 5 5 5 5 5 5 5 5 5 5 5 5 5 5 5 5 5 5 5 5 5 5 5 5 5 5 5 5 5 5 5 5 5 5 5 5 5 5 5 5 5 5 5 5 5 5 5 5 5 5 5 5 5 5 5 5 5 5 5 5 5 5 5 5 5 5 5 5 5 5 5 5 5 5 5 5 5 5 5 5 5 5 5 5 5 5 5 5 5 5 5 5 5 5 5 5 5 5 5 5 5 5 5 5 5 5 5 5 </DataArray>
</Cells>
<PointData  Tensors="stress"> 
<DataArray  type="Float64"  Name="stress"  NumberOfComponents="9" format="ascii">7.6338746689654530e-03 -3.2112903307592335e-10 0.0000000000000000e+00 -3.2112903307592335e-10 7.6337602153070255e-03 0.0000000000000000e+00 0.0000000000000000e+00 0.0000000000000000e+00 0.0000000000000000e+00  7.6348266151437761e-03 2.2390268479084113e-07 0.0000000000000000e+00 2.2390268479084113e-07 7.6344663067882679e-03 0.0000000000000000e+00 0.0000000000000000e+00 0.0000000000000000e+00 0.0000000000000000e+00  7.6374240386983703e-03 -9.1204430967477717e-07 0.0000000000000000e+00 -9.1204430967477717e-07 7.6374717947385734e-03 0.0000000000000000e+00 0.0000000000000000e+00 0.0000000000000000e+00 0.0000000000000000e+00  7.6398875692405711e-03 -3.8055130865037386e-06 0.0000000000000000e+00 -3.8055130865037386e-06 7.6401182148573468e-03 0.0000000000000000e+00 0.0000000000000000e+00 0.0000000000000000e+00 0.0000000000000000e+00  7.6412304191465080e-03 -8.0089332910156797e-06 0.0000000000000000e+00 -8.0089332910156797e-06 7.6415621657807565e-03 0.0000000000000000e+00 0.0000000000000000e+00 0.0000000000000000e+00 0.0000000000000000e+00  7.6410257004164792e-03 -1.3174267340198334e-05 0.0000000000000000e+00 -1.3174267340198334e-05 7.6414192464382587e-03 0.0000000000000000e+00 0.0000000000000000e+00 0.0000000000000000e+00 0.0000000000000000e+00  7.6390573749746931e-03 -1.9073461102708579e-05 0.0000000000000000e+00 -1.9073461102708579e-05 7.6394995988441593e-03 0.0000000000000000e+00 0.0000000000000000e+00 0.0000000000000000e+00 0.0000000000000000e+00  7.6351688590527858e-03 -2.5591654684142828e-05 0.0000000000000000e+00 -2.5591654684142828e-05 7.6356623838097042e-03 0.0000000000000000e+00 0.0000000000000000e+00 0.0000000000000000e+00 0.0000000000000000e+00  7.6291886095719427e-03 -3.2705347472574266e-05 0.0000000000000000e+00 -3.2705347472574266e-05 7.6297424922465371e-03 0.0000000000000000e+00 0.0000000000000000e+00 0.0000000000000000e+00 0.0000000000000000e+00  7.6208709739311901e-03 -4.0418475871184910e-05 0.0000000000000000e+00 -4.0418475871184910e-05 7.6214965193238896e-03 0.0000000000000000e+00 0.0000000000000000e+00 0.0000000000000000e+00 0.0000000000000000e+00  7.6099495955295419e-03 -4.8770114145474454e-05 0.0000000000000000e+00 -4.8770114145474454e-05 7.6106374767029982e-03 0.0000000000000000e+00 0.0000000000000000e+00 0.0000000000000000e+00 0.0000000000000000e+00  7.5961525369462992e-03 -5.7751940570164028e-05 0.0000000000000000e+00 -5.7751940570164028e-05 7.5969284200768702e-03 0.0000000000000000e+00 0.0000000000000000e+00 0.0000000000000000e+00 0.0000000000000000e+00  7.5793158085622099e-03 -6.7632193754382444e-05 0.0000000000000000e+00 -6.7632193754382444e-05 7.5802291042452990e-03 0.0000000000000000e+00 0.0000000000000000e+00 0.0000000000000000e+00 0.0000000000000000e+00  7.5591936515580702e-03 -7.9140320181090575e-05 0.0000000000000000e+00 -7.9140320181090575e-05 7.5604244523416707e-03 0.0000000000000000e+00 0.0000000000000000e+00 0.0000000000000000e+00 0.0000000000000000e+00  7.5344440527060925e-03 -9.3493108725480138e-05 0.0000000000000000e+00 -9.3493108725480138e-05 7.5363608473299100e-03 0.0000000000000000e+00 0.0000000000000000e+00 0.0000000000000000e+00 0.0000000000000000e+00  7.5020065958370415e-03 -1.1187762605285417e-04 0.0000000000000000e+00 -1.1187762605285417e-04 7.5044946697396531e-03 0.0000000000000000e+00 0.0000000000000000e+00 0.0000000000000000e+00 0.0000000000000000e+00  7.4594619529166958e-03 -1.3379424296734247e-04 0.0000000000000000e+00 -1.3379424296734247e-04 7.4629170604670614e-03 0.0000000000000000e+00 0.0000000000000000e+00 0.0000000000000000e+00 0.0000000000000000e+00  7.4045674089619588e-03 -1.6190880745646771e-04 0.0000000000000000e+00 -1.6190880745646771e-04 7.4098214858645912e-03 0.0000000000000000e+00 0.0000000000000000e+00 0.0000000000000000e+00 0.0000000000000000e+00  7.3268303946855996e-03 -1.9346267980468332e-04 0.0000000000000000e+00 -1.9346267980468332e-04 7.3312608235189102e-03 0.0000000000000000e+00 0.0000000000000000e+00 0.0000000000000000e+00 0.0000000000000000e+00  7.2343086739588558e-03 -2.3002600897877810e-04 0.0000000000000000e+00 -2.3002600897877810e-04 7.2483655316983959e-03 0.0000000000000000e+00 0.0000000000000000e+00 0.0000000000000000e+00 0.0000000000000000e+00  7.0983052476731407e-03 -2.7439468981902608e-04 0.0000000000000000e+00 -2.7439468981902608e-04 7.1119018523944340e-03 0.0000000000000000e+00 0.0000000000000000e+00 0.0000000000000000e+00 0.0000000000000000e+00  6.9420910331030750e-03 -3.4056658722167021e-04 0.0000000000000000e+00 -3.4056658722167021e-04 6.9382362140815099e-03 0.0000000000000000e+00 0.0000000000000000e+00 0.0000000000000000e+00 0.0000000000000000e+00  6.7326369852321981e-03 -3.7822882244950719e-04 0.0000000000000000e+00 -3.7822882244950719e-04 6.7382585732555251e-03 0.0000000000000000e+00 0.0000000000000000e+00 0.0000000000000000e+00 0.0000000000000000e+00  6.4742120061765853e-03 -3.8563199721575040e-04 0.0000000000000000e+00 -3.8563199721575040e-04 6.4752747463562802e-03 0.0000000000000000e+00 0.0000000000000000e+00 0.0000000000000000e+00 0.0000000000000000e+00  6.1994017359394225e-03 -4.0450825800415822e-04 0.0000000000000000e+00 -4.0450825800415822e-04 6.2143894007560957e-03 0.0000000000000000e+00 0.0000000000000000e+00 0.0000000000000000e+00 0.0000000000000000e+00  5.9187725746723836e-03 -4.4866994378941550e-04 0.0000000000000000e+00 -4.4866994378941550e-04 5.9316254913445460e-03 0.0000000000000000e+00 0.0000000000000000e+00 0.0000000000000000e+00 0.0000000000000000e+00  5.6009779893513396e-03 -4.9018004913552616e-04 0.0000000000000000e+00 -4.9018004913552616e-04 5.6002311443031014e-03 0.0000000000000000e+00 0.0000000000000000e+00 0.0000000000000000e+00 0.0000000000000000e+00  5.2296225242365350e-03 -5.1275785072287243e-04 0.0000000000000000e+00 -5.1275785072287243e-04 5.2337272122005762e-03 0.0000000000000000e+00 0.0000000000000000e+00 0.0000000000000000e+00 0.0000000000000000e+00  4.8356374875528733e-03 -5.1433861147128933e-04 0.0000000000000000e+00 -5.1433861147128933e-04 4.8429887997676734e-03 0.0000000000000000e+00 0.0000000000000000e+00 0.0000000000000000e+00 0.0000000000000000e+00  4.4432690209515544e-03 -5.0522731923101881e-04 0.0000000000000000e+00 -5.0522731923101881e-04 4.4427546810407673e-03 0.0000000000000000e+00 0.0000000000000000e+00 0.0000000000000000e+00 0.0000000000000000e+00  4.0765593943579825e-03 -4.9511929059936068e-04 0.0000000000000000e+00 -4.9511929059936068e-04 4.0605365585349631e-03 0.0000000000000000e+00 0.0000000000000000e+00 0.0000000000000000e+00 0.0000000000000000e+00  3.7304313964649132e-03 -4.7214267315851411e-04 0.0000000000000000e+00 -4.7214267315851411e-04 3.7027041201781134e-03 0.0000000000000000e+00 0.0000000000000000e+00 0.0000000000000000e+00 0.0000000000000000e+00  3.4139178500187336e-03 -4.2432802043352192e-04 0.0000000000000000e+00 -4.2432802043352192e-04 3.3575545917656421e-03 0.0000000000000000e+00 0.0000000000000000e+00 0.0000000000000000e+00 0.0000000000000000e+00  3.1712093018451321e-03 -3.4672423928389388e-04 0.0000000000000000e+00 -3.4672423928389388e-04 3.1287749483685460e-03 0.0000000000000000e+00 0.0000000000000000e+00 0.0000000000000000e+00 0.0000000000000000e+00  2.9917082208321334e-03 -2.8184191804548643e-04 0.0000000000000000e+00 -2.8184191804548643e-04 2.9896387540355824e-03 0.0000000000000000e+00 0.0000000000000000e+00 0.0000000000000000e+00 0.0000000000000000e+00  2.8687770146290995e-03 -2.7650706520059942e-04 0.0000000000000000e+00 -2.7650706520059942e-04 2.8450738657556335e-03 0.0000000000000000e+00 0.0000000000000000e+00 0.0000000000000000e+00 0.0000000000000000e+00  2.7590279499220029e-03 -2.2313562776627864e-04 0.0000000000000000e+00 -2.2313562776627864e-04 2.7637089677289639e-03 0.0000000000000000e+00 0.0000000000000000e+00 0.0000000000000000e+00 0.0000000000000000e+00  2.6371716659646747e-03 -1.5424170237367550e-04 0.0000000000000000e+00 -1.5424170237367550e-04 2.6217600730591116e-03 0.0000000000000000e+00 0.0000000000000000e+00 0.0000000000000000e+00 0.0000000000000000e+00  2.6040194006821844e-03 -1.3844703865769189e-04 0.0000000000000000e+00 -1.3844703865769189e-04 2.6015542734899697e-03 0.0000000000000000e+00 0.0000000000000000e+00 0.0000000000000000e+00 0.0000000000000000e+00  2.5600765515466240e-03 -1.1305435652108332e-04 0.0000000000000000e+00 -1.1305435652108332e-04 2.5701402374984457e-03 0.0000000000000000e+00 0.0000000000000000e+00 0.0000000000000000e+00 0.0000000000000000e+00  2.5310199722371773e-03 -9.5098950712073184e-05 0.0000000000000000e+00 -9.5098950712073184e-05 2.5257436281157291e-03 0.0000000000000000e+00 0.0000000000000000e+00 0.0000000000000000e+00 0.0000000000000000e+00  2.5106039978224598e-03 -7.9185779969191794e-05 0.0000000000000000e+00 -7.9185779969191794e-05 2.5116727736914468e-03 0.0000000000000000e+00 0.0000000000000000e+00 0.0000000000000000e+00 0.0000000000000000e+00  2.4944715577563943e-03 -6.8055695086955317e-05 0.0000000000000000e+00 -6.8055695086955317e-05 2.4936899440368946e-03 0.0000000000000000e+00 0.0000000000000000e+00 0.0000000000000000e+00 0.0000000000000000e+00  2.4804242141188274e-03 -5.9317377417252617e-05 0.0000000000000000e+00 -5.9317377417252617e-05 2.4801307341272595e-03 0.0000000000000000e+00 0.0000000000000000e+00 0.0000000000000000e+00 0.0000000000000000e+00  2.4670000336400959e-03 -5.1849254535802508e-05 0.0000000000000000e+00 -5.1849254535802508e-05 2.4666298540736071e-03 0.0000000000000000e+00 0.0000000000000000e+00 0.0000000000000000e+00 0.0000000000000000e+00  2.4546421491613351e-03 -4.4486993498007712e-05 0.0000000000000000e+00 -4.4486993498007712e-05 2.4542503028542476e-03 0.0000000000000000e+00 0.0000000000000000e+00 0.0000000000000000e+00 0.0000000000000000e+00  2.4438072501111615e-03 -3.6801692153352667e-05 0.0000000000000000e+00 -3.6801692153352667e-05 2.4433331682871132e-03 0.0000000000000000e+00 0.0000000000000000e+00 0.0000000000000000e+00 0.0000000000000000e+00  2.4348981052580479e-03 -2.8681208748133659e-05 0.0000000000000000e+00 -2.8681208748133659e-05 2.4343879407603790e-03 0.0000000000000000e+00 0.0000000000000000e+00 0.0000000000000000e+00 0.0000000000000000e+00  2.4281377733079501e-03 -2.0173643981314961e-05 0.0000000000000000e+00 -2.0173643981314961e-05 2.4275973879341888e-03 0.0000000000000000e+00 0.0000000000000000e+00 0.0000000000000000e+00 0.0000000000000000e+00  2.4237067143518323e-03 -1.1333040364606090e-05 0.0000000000000000e+00 -1.1333040364606090e-05 2.4231458432293581e-03 0.0000000000000000e+00 0.0000000000000000e+00 0.0000000000000000e+00 0.0000000000000000e+00  2.4217327592406042e-03 -2.2844568664396799e-06 0.0000000000000000e+00 -2.2844568664396799e-06 2.4211631239907188e-03 0.0000000000000000e+00 0.0000000000000000e+00 0.0000000000000000e+00 0.0000000000000000e+00  2.4222768017952865e-03 6.8020670476892951e-06 0.0000000000000000e+00 6.8020670476892951e-06 2.4217134520369719e-03 0.0000000000000000e+00 0.0000000000000000e+00 0.0000000000000000e+00 0.0000000000000000e+00  2.4252898851619608e-03 1.5752748342005254e-05 0.0000000000000000e+00 1.5752748342005254e-05 2.4247456056891749e-03 0.0000000000000000e+00 0.0000000000000000e+00 0.0000000000000000e+00 0.0000000000000000e+00  2.4306272316109473e-03 2.4460768041175536e-05 0.0000000000000000e+00 2.4460768041175536e-05 2.4301034813341083e-03 0.0000000000000000e+00 0.0000000000000000e+00 0.0000000000000000e+00 0.0000000000000000e+00  2.4380741079164962e-03 3.2989398800554062e-05 0.0000000000000000e+00 3.2989398800554062e-05 2.4375487958272373e-03 0.0000000000000000e+00 0.0000000000000000e+00 0.0000000000000000e+00 0.0000000000000000e+00  2.4475156766894223e-03 4.1624422175713422e-05 0.0000000000000000e+00 4.1624422175713422e-05 2.4469106991775848e-03 0.0000000000000000e+00 0.0000000000000000e+00 0.0000000000000000e+00 0.0000000000000000e+00  2.4590732508272166e-03 5.1065787529442761e-05 0.0000000000000000e+00 5.1065787529442761e-05 2.4582647446792661e-03 0.0000000000000000e+00 0.0000000000000000e+00 0.0000000000000000e+00 0.0000000000000000e+00  2.4736617523084146e-03 6.2143550506317118e-05 0.0000000000000000e+00 6.2143550506317118e-05 2.4724531392046681e-03 0.0000000000000000e+00 0.0000000000000000e+00 0.0000000000000000e+00 0.0000000000000000e+00  2.4932121543325770e-03 7.5492970661014376e-05 0.0000000000000000e+00 7.5492970661014376e-05 2.4917083479062542e-03 0.0000000000000000e+00 0.0000000000000000e+00 0.0000000000000000e+00 0.0000000000000000e+00  2.5196037568379951e-03 9.0426109112352106e-05 0.0000000000000000e+00 9.0426109112352106e-05 2.5182602508549007e-03 0.0000000000000000e+00 0.0000000000000000e+00 0.0000000000000000e+00 0.0000000000000000e+00  2.5523011586225499e-03 1.0737040171801093e-04 0.0000000000000000e+00 1.0737040171801093e-04 2.5494694589182918e-03 0.0000000000000000e+00 0.0000000000000000e+00 0.0000000000000000e+00 0.0000000000000000e+00  2.5963690590342513e-03 1.2944015210867787e-04 0.0000000000000000e+00 1.2944015210867787e-04 2.5941074826352005e-03 0.0000000000000000e+00 0.0000000000000000e+00 0.0000000000000000e+00 0.0000000000000000e+00  2.6558865237896233e-03 1.5111180204580601e-04 0.0000000000000000e+00 1.5111180204580601e-04 2.6552762338386774e-03 0.0000000000000000e+00 0.0000000000000000e+00 0.0000000000000000e+00 0.0000000000000000e+00  2.7268169555592051e-03 1.7835902823074782e-04 0.0000000000000000e+00 1.7835902823074782e-04 2.7252422050632131e-03 0.0000000000000000e+00 0.0000000000000000e+00 0.0000000000000000e+00 0.0000000000000000e+00  2.8171643707172751e-03 2.0804645662040428e-04 0.0000000000000000e+00 2.0804645662040428e-04 2.8227294240525985e-03 0.0000000000000000e+00 0.0000000000000000e+00 0.0000000000000000e+00 0.0000000000000000e+00  2.9466247443986405e-03 2.5910953693413874e-04 0.0000000000000000e+00 2.5910953693413874e-04 2.9455293377228936e-03 0.0000000000000000e+00 0.0000000000000000e+00 0.0000000000000000e+00 0.0000000000000000e+00  3.1213457724056310e-03 2.8808596670506321e-04 0.0000000000000000e+00 2.8808596670506321e-04 3.1399566396277537e-03 0.0000000000000000e+00 0.0000000000000000e+00 0.0000000000000000e+00 0.0000000000000000e+00  3.3382852480299571e-03 3.0691066425905626e-04 0.0000000000000000e+00 3.0691066425905626e-04 3.3615171167019143e-03 0.0000000000000000e+00 0.0000000000000000e+00 0.0000000000000000e+00 0.0000000000000000e+00  3.5040297243261378e-03 3.9005369743981566e-04 0.0000000000000000e+00 3.9005369743981566e-04 3.4649299473362202e-03 0.0000000000000000e+00 0.0000000000000000e+00 0.0000000000000000e+00 0.0000000000000000e+00  3.7626087498896358e-03 4.5357685821012511e-04 0.0000000000000000e+00 4.5357685821012511e-04 3.7338832156160510e-03 0.0000000000000000e+00 0.0000000000000000e+00 0.0000000000000000e+00 0.0000000000000000e+00  4.1111154970750385e-03 4.7779651921605790e-04 0.0000000000000000e+00 4.7779651921605790e-04 4.1050773853745677e-03 0.0000000000000000e+00 0.0000000000000000e+00 0.0000000000000000e+00 0.0000000000000000e+00  4.4872304681341808e-03 4.8501755804732864e-04 0.0000000000000000e+00 4.8501755804732864e-04 4.5036321610251355e-03 0.0000000000000000e+00 0.0000000000000000e+00 0.0000000000000000e+00 0.0000000000000000e+00  4.8649755650373222e-03 4.9149734571887836e-04 0.0000000000000000e+00 4.9149734571887836e-04 4.8782004322563436e-03 0.0000000000000000e+00 0.0000000000000000e+00 0.0000000000000000e+00 0.0000000000000000e+00  5.2266670582908400e-03 4.9546623558487134e-04 0.0000000000000000e+00 4.9546623558487134e-04 5.2250544441277214e-03 0.0000000000000000e+00 0.0000000000000000e+00 0.0000000000000000e+00 0.0000000000000000e+00  5.5779411015075614e-03 4.7769279396403400e-04 0.0000000000000000e+00 4.7769279396403400e-04 5.5804047798353011e-03 0.0000000000000000e+00 0.0000000000000000e+00 0.0000000000000000e+00 0.0000000000000000e+00  5.9038949980500374e-03 4.2907303475716967e-04 0.0000000000000000e+00 4.2907303475716967e-04 5.9420348212143852e-03 0.0000000000000000e+00 0.0000000000000000e+00 0.0000000000000000e+00 0.0000000000000000e+00  6.2047570449134792e-03 3.6844844742864454e-04 0.0000000000000000e+00 3.6844844742864454e-04 6.2317858454710422e-03 0.0000000000000000e+00 0.0000000000000000e+00 0.0000000000000000e+00 0.0000000000000000e+00  6.4205106411419320e-03 3.5095034357750433e-04 0.0000000000000000e+00 3.5095034357750433e-04 6.4301120907580313e-03 0.0000000000000000e+00 0.0000000000000000e+00 0.0000000000000000e+00 0.0000000000000000e+00  6.5759884368416276e-03 3.7433037121694897e-04 0.0000000000000000e+00 3.7433037121694897e-04 6.5500448561609725e-03 0.0000000000000000e+00 0.0000000000000000e+00 0.0000000000000000e+00 0.0000000000000000e+00  6.7766979939969732e-03 3.6610609508464886e-04 0.0000000000000000e+00 3.6610609508464886e-04 6.7500344756995564e-03 0.0000000000000000e+00 0.0000000000000000e+00 0.0000000000000000e+00 0.0000000000000000e+00  7.0122994784658430e-03 2.8696490670379501e-04 0.0000000000000000e+00 2.8696490670379501e-04 7.0112395583757344e-03 0.0000000000000000e+00 0.0000000000000000e+00 0.0000000000000000e+00 0.0000000000000000e+00  7.1914090965866269e-03 1.9483000876175576e-04 0.0000000000000000e+00 1.9483000876175576e-04 7.2626978347581535e-03 0.0000000000000000e+00 0.0000000000000000e+00 0.0000000000000000e+00 0.0000000000000000e+00  7.2734439657395622e-03 2.0689082014035601e-04 0.0000000000000000e+00 2.0689082014035601e-04 7.2635838076486620e-03 0.0000000000000000e+00 0.0000000000000000e+00 0.0000000000000000e+00 0.0000000000000000e+00  7.3667247093435646e-03 1.7914486533615614e-04 0.0000000000000000e+00 1.7914486533615614e-04 7.3606832102660821e-03 0.0000000000000000e+00 0.0000000000000000e+00 0.0000000000000000e+00 0.0000000000000000e+00  7.4709066417792663e-03 1.4452282802712997e-04 0.0000000000000000e+00 1.4452282802712997e-04 7.5099092572636326e-03 0.0000000000000000e+00 0.0000000000000000e+00 0.0000000000000000e+00 0.0000000000000000e+00  7.5262110927675190e-03 1.1938508055087882e-04 0.0000000000000000e+00 1.1938508055087882e-04 7.5188365063089818e-03 0.0000000000000000e+00 0.0000000000000000e+00 0.0000000000000000e+00 0.0000000000000000e+00  7.5747239876682504e-03 1.0141579492060427e-04 0.0000000000000000e+00 1.0141579492060427e-04 7.5832716887289367e-03 0.0000000000000000e+00 0.0000000000000000e+00 0.0000000000000000e+00 0.0000000000000000e+00  7.6092036196614785e-03 8.0926147789696568e-05 0.0000000000000000e+00 8.0926147789696568e-05 7.6112757765979498e-03 0.0000000000000000e+00 0.0000000000000000e+00 0.0000000000000000e+00 0.0000000000000000e+00  7.6317056918907998e-03 6.5446243761375542e-05 0.0000000000000000e+00 6.5446243761375542e-05 7.6333160386607216e-03 0.0000000000000000e+00 0.0000000000000000e+00 0.0000000000000000e+00 0.0000000000000000e+00  7.6474807292461183e-03 5.2929332143473933e-05 0.0000000000000000e+00 5.2929332143473933e-05 7.6485918234006720e-03 0.0000000000000000e+00 0.0000000000000000e+00 0.0000000000000000e+00 0.0000000000000000e+00  7.6587900012699602e-03 4.2901483530211233e-05 0.0000000000000000e+00 4.2901483530211233e-05 7.6595586590045691e-03 0.0000000000000000e+00 0.0000000000000000e+00 0.0000000000000000e+00 0.0000000000000000e+00  7.6671430021644522e-03 3.4715772313179225e-05 0.0000000000000000e+00 3.4715772313179225e-05 7.6677017802240649e-03 0.0000000000000000e+00 0.0000000000000000e+00 0.0000000000000000e+00 0.0000000000000000e+00  7.6733654607965551e-03 2.7758465577434191e-05 0.0000000000000000e+00 2.7758465577434191e-05 7.6738173414902435e-03 0.0000000000000000e+00 0.0000000000000000e+00 0.0000000000000000e+00 0.0000000000000000e+00  7.6778269271755243e-03 2.1599918093459703e-05 0.0000000000000000e+00 2.1599918093459703e-05 7.6782186245786732e-03 0.0000000000000000e+00 0.0000000000000000e+00 0.0000000000000000e+00 0.0000000000000000e+00  7.6806966048406358e-03 1.6041412988509440e-05 0.0000000000000000e+00 1.6041412988509440e-05 7.6810499895786626e-03 0.0000000000000000e+00 0.0000000000000000e+00 0.0000000000000000e+00 0.0000000000000000e+00  7.6820538071025500e-03 1.1030059841118337e-05 0.0000000000000000e+00 1.1030059841118337e-05 7.6823720881610382e-03 0.0000000000000000e+00 0.0000000000000000e+00 0.0000000000000000e+00 0.0000000000000000e+00  7.6819865646309392e-03 6.6507529846154461e-06 0.0000000000000000e+00 6.6507529846154461e-06 7.6822552448233454e-03 0.0000000000000000e+00 0.0000000000000000e+00 0.0000000000000000e+00 0.0000000000000000e+00  7.6806600439087522e-03 3.1035531234886827e-06 0.0000000000000000e+00 3.1035531234886827e-06 7.6808425091713286e-03 0.0000000000000000e+00 0.0000000000000000e+00 0.0000000000000000e+00 0.0000000000000000e+00  7.6784411651512272e-03 6.9061894074965793e-07 0.0000000000000000e+00 6.9061894074965793e-07 7.6784652637815476e-03 0.0000000000000000e+00 0.0000000000000000e+00 0.0000000000000000e+00 0.0000000000000000e+00  7.6761867860510999e-03 -2.1666054752947167e-07 0.0000000000000000e+00 -2.1666054752947167e-07 7.6758670465957891e-03 0.0000000000000000e+00 0.0000000000000000e+00 0.0000000000000000e+00 0.0000000000000000e+00  7.6753838851223756e-03 2.8547139862277062e-10 0.0000000000000000e+00 2.8547139862277062e-10 7.6752991433023925e-03 0.0000000000000000e+00 0.0000000000000000e+00 0.0000000000000000e+00 0.0000000000000000e+00  7.6331650163562904e-03 -2.2146367385759241e-07 0.0000000000000000e+00 -2.2146367385759241e-07 7.6328074654925717e-03 0.0000000000000000e+00 0.0000000000000000e+00 0.0000000000000000e+00 0.0000000000000000e+00  7.6323912365485608e-03 -3.3745930357033542e-09 0.0000000000000000e+00 -3.3745930357033542e-09 7.6352421198854241e-03 0.0000000000000000e+00 0.0000000000000000e+00 0.0000000000000000e+00 0.0000000000000000e+00  7.6313612518309620e-03 -1.6440986883882752e-06 0.0000000000000000e+00 -1.6440986883882752e-06 7.6395485566306855e-03 0.0000000000000000e+00 0.0000000000000000e+00 0.0000000000000000e+00 0.0000000000000000e+00  7.6304379283120673e-03 -4.1587669485737029e-06 0.0000000000000000e+00 -4.1587669485737029e-06 7.6433226642109962e-03 0.0000000000000000e+00 0.0000000000000000e+00 0.0000000000000000e+00 0.0000000000000000e+00  7.6290962838777825e-03 -7.3760009015368384e-06 0.0000000000000000e+00 -7.3760009015368384e-06 7.6456431563674161e-03 0.0000000000000000e+00 0.0000000000000000e+00 0.0000000000000000e+00 0.0000000000000000e+00  7.6268219219345727e-03 -1.1148414397815159e-05 0.0000000000000000e+00 -1.1148414397815159e-05 7.6461739655960346e-03 0.0000000000000000e+00 0.0000000000000000e+00 0.0000000000000000e+00 0.0000000000000000e+00  7.6231900673447168e-03 -1.5358685956762699e-05 0.0000000000000000e+00 -1.5358685956762699e-05 7.6447940580086768e-03 0.0000000000000000e+00 0.0000000000000000e+00 0.0000000000000000e+00 0.0000000000000000e+00  7.6178449459846842e-03 -1.9934165997178764e-05 0.0000000000000000e+00 -1.9934165997178764e-05 7.6414377753882840e-03 0.0000000000000000e+00 0.0000000000000000e+00 0.0000000000000000e+00 0.0000000000000000e+00  7.6104508801528113e-03 -2.4832747974564341e-05 0.0000000000000000e+00 -2.4832747974564341e-05 7.6359792615827513e-03 0.0000000000000000e+00 0.0000000000000000e+00 0.0000000000000000e+00 0.0000000000000000e+00  7.6007303604036496e-03 -3.0081134271983400e-05 0.0000000000000000e+00 -3.0081134271983400e-05 7.6282164735137978e-03 0.0000000000000000e+00 0.0000000000000000e+00 0.0000000000000000e+00 0.0000000000000000e+00  7.5883421145296042e-03 -3.5610025849601471e-05 0.0000000000000000e+00 -3.5610025849601471e-05 7.6178267056809627e-03 0.0000000000000000e+00 0.0000000000000000e+00 0.0000000000000000e+00 0.0000000000000000e+00  7.5729666182934507e-03 -4.1474798530090124e-05 0.0000000000000000e+00 -4.1474798530090124e-05 7.6045870825263671e-03 0.0000000000000000e+00 0.0000000000000000e+00 0.0000000000000000e+00 0.0000000000000000e+00  7.5537371827001775e-03 -4.7386827263672858e-05 0.0000000000000000e+00 -4.7386827263672858e-05 7.5887129592639652e-03 0.0000000000000000e+00 0.0000000000000000e+00 0.0000000000000000e+00 0.0000000000000000e+00  7.5289788755004009e-03 -5.3604377394903587e-05 0.0000000000000000e+00 -5.3604377394903587e-05 7.5703126781586621e-03 0.0000000000000000e+00 0.0000000000000000e+00 0.0000000000000000e+00 0.0000000000000000e+00  7.4973447304831214e-03 -6.1254801854315443e-05 0.0000000000000000e+00 -6.1254801854315443e-05 7.5487814699925580e-03 0.0000000000000000e+00 0.0000000000000000e+00 0.0000000000000000e+00 0.0000000000000000e+00  7.4579753957993928e-03 -7.0467599560806440e-05 0.0000000000000000e+00 -7.0467599560806440e-05 7.5197890682052191e-03 0.0000000000000000e+00 0.0000000000000000e+00 0.0000000000000000e+00 0.0000000000000000e+00  7.4076039998631901e-03 -7.9750501567690241e-05 0.0000000000000000e+00 -7.9750501567690241e-05 7.4808492844927249e-03 0.0000000000000000e+00 0.0000000000000000e+00 0.0000000000000000e+00 0.0000000000000000e+00  7.3422071678844051e-03 -9.2201450218878583e-05 0.0000000000000000e+00 -9.2201450218878583e-05 7.4334208932836177e-03 0.0000000000000000e+00 0.0000000000000000e+00 0.0000000000000000e+00 0.0000000000000000e+00  7.2670875067215668e-03 -1.0768671091956497e-04 0.0000000000000000e+00 -1.0768671091956497e-04 7.3528835728636621e-03 0.0000000000000000e+00 0.0000000000000000e+00 0.0000000000000000e+00 0.0000000000000000e+00  7.1672681326813530e-03 -1.1717783398319162e-04 0.0000000000000000e+00 -1.1717783398319162e-04 7.2857339495414801e-03 0.0000000000000000e+00 0.0000000000000000e+00 0.0000000000000000e+00 0.0000000000000000e+00  7.0304319407121420e-03 -1.0874405231803172e-04 0.0000000000000000e+00 -1.0874405231803172e-04 7.1414819279073376e-03 0.0000000000000000e+00 0.0000000000000000e+00 0.0000000000000000e+00 0.0000000000000000e+00  6.8711180556297003e-03 -1.7302658239224097e-04 0.0000000000000000e+00 -1.7302658239224097e-04 6.9847365416732783e-03 0.0000000000000000e+00 0.0000000000000000e+00 0.0000000000000000e+00 0.0000000000000000e+00  6.6979086254277728e-03 -1.6778494298081521e-04 0.0000000000000000e+00 -1.6778494298081521e-04 6.7740017670401623e-03 0.0000000000000000e+00 0.0000000000000000e+00 0.0000000000000000e+00 0.0000000000000000e+00  6.4669922344770397e-03 -1.3243816680898161e-04 0.0000000000000000e+00 -1.3243816680898161e-04 6.4930804505229289e-03 0.0000000000000000e+00 0.0000000000000000e+00 0.0000000000000000e+00 0.0000000000000000e+00  6.1902767055442591e-03 -1.2264261970781716e-04 0.0000000000000000e+00 -1.2264261970781716e-04 6.2399661224633854e-03 0.0000000000000000e+00 0.0000000000000000e+00 0.0000000000000000e+00 0.0000000000000000e+00  5.8768884397105287e-03 -1.3515669227605177e-04 0.0000000000000000e+00 -1.3515669227605177e-04 5.9576095001722326e-03 0.0000000000000000e+00 0.0000000000000000e+00 0.0000000000000000e+00 0.0000000000000000e+00  5.5483999647528339e-03 -1.5552775468262602e-04 0.0000000000000000e+00 -1.5552775468262602e-04 5.6332370643257627e-03 0.0000000000000000e+00 0.0000000000000000e+00 0.0000000000000000e+00 0.0000000000000000e+00  5.2188908448758719e-03 -1.5668403594403999e-04 0.0000000000000000e+00 -1.5668403594403999e-04 5.2624584373586305e-03 0.0000000000000000e+00 0.0000000000000000e+00 0.0000000000000000e+00 0.0000000000000000e+00  4.8592710731317950e-03 -1.3940083512002023e-04 0.0000000000000000e+00 -1.3940083512002023e-04 4.8535975442822081e-03 0.0000000000000000e+00 0.0000000000000000e+00 0.0000000000000000e+00 0.0000000000000000e+00  4.4851004883570541e-03 -1.3157970556339891e-04 0.0000000000000000e+00 -1.3157970556339891e-04 4.4399422486483152e-03 0.0000000000000000e+00 0.0000000000000000e+00 0.0000000000000000e+00 0.0000000000000000e+00  4.1425656286120677e-03 -1.5550428317476372e-04 0.0000000000000000e+00 -1.5550428317476372e-04 4.0501870591028947e-03 0.0000000000000000e+00 0.0000000000000000e+00 0.0000000000000000e+00 0.0000000000000000e+00  3.8486917240638167e-03 -1.6739139176750510e-04 0.0000000000000000e+00 -1.6739139176750510e-04 3.7116980321077260e-03 0.0000000000000000e+00 0.0000000000000000e+00 0.0000000000000000e+00 0.0000000000000000e+00  3.5373650820922009e-03 -1.6027828281785719e-04 0.0000000000000000e+00 -1.6027828281785719e-04 3.3761529956096168e-03 0.0000000000000000e+00 0.0000000000000000e+00 0.0000000000000000e+00 0.0000000000000000e+00  3.2832632632306380e-03 -1.4774440075501479e-04 0.0000000000000000e+00 -1.4774440075501479e-04 3.1422509633726998e-03 0.0000000000000000e+00 0.0000000000000000e+00 0.0000000000000000e+00 0.0000000000000000e+00  3.1158542953918828e-03 -9.1445982852062882e-05 0.0000000000000000e+00 -9.1445982852062882e-05 2.9980129996388205e-03 0.0000000000000000e+00 0.0000000000000000e+00 0.0000000000000000e+00 0.0000000000000000e+00  2.9652932904969684e-03 -1.6200167302051686e-04 0.0000000000000000e+00 -1.6200167302051686e-04 2.8228243829873192e-03 0.0000000000000000e+00 0.0000000000000000e+00 0.0000000000000000e+00 0.0000000000000000e+00  2.8740694748097830e-03 -1.2939423414127201e-04 0.0000000000000000e+00 -1.2939423414127201e-04 2.7335193925071390e-03 0.0000000000000000e+00 0.0000000000000000e+00 0.0000000000000000e+00 0.0000000000000000e+00  2.7395709081705030e-03 -5.9851786140026144e-05 0.0000000000000000e+00 -5.9851786140026144e-05 2.5922427896549445e-03 0.0000000000000000e+00 0.0000000000000000e+00 0.0000000000000000e+00 0.0000000000000000e+00  2.6614673859102784e-03 -1.0558036511763308e-04 0.0000000000000000e+00 -1.0558036511763308e-04 2.5987343671681497e-03 0.0000000000000000e+00 0.0000000000000000e+00 0.0000000000000000e+00 0.0000000000000000e+00  2.6239955938587188e-03 -6.9521207952801260e-05 0.0000000000000000e+00 -6.9521207952801260e-05 2.5502322773675074e-03 0.0000000000000000e+00 0.0000000000000000e+00 0.0000000000000000e+00 0.0000000000000000e+00  2.5754115558444760e-03 -6.5764286138437301e-05 0.0000000000000000e+00 -6.5764286138437301e-05 2.5127749613441924e-03 0.0000000000000000e+00 0.0000000000000000e+00 0.0000000000000000e+00 0.0000000000000000e+00  2.5442742575180802e-03 -5.6161327018402978e-05 0.0000000000000000e+00 -5.6161327018402978e-05 2.5018094117180015e-03 0.0000000000000000e+00 0.0000000000000000e+00 0.0000000000000000e+00 0.0000000000000000e+00  2.5211923648416875e-03 -4.9698018688257157e-05 0.0000000000000000e+00 -4.9698018688257157e-05 2.4849925238420085e-03 0.0000000000000000e+00 0.0000000000000000e+00 0.0000000000000000e+00 0.0000000000000000e+00  2.5015213019117214e-03 -4.3987391638429780e-05 0.0000000000000000e+00 -4.3987391638429780e-05 2.4731556677729276e-03 0.0000000000000000e+00 0.0000000000000000e+00 0.0000000000000000e+00 0.0000000000000000e+00  2.4867246497718670e-03 -3.8696789017006025e-05 0.0000000000000000e+00 -3.8696789017006025e-05 2.4602615672357302e-03 0.0000000000000000e+00 0.0000000000000000e+00 0.0000000000000000e+00 0.0000000000000000e+00  2.4745779870658808e-03 -3.3221964345378663e-05 0.0000000000000000e+00 -3.3221964345378663e-05 2.4475738125672975e-03 0.0000000000000000e+00 0.0000000000000000e+00 0.0000000000000000e+00 0.0000000000000000e+00  2.4645934099979242e-03 -2.7382423035915373e-05 0.0000000000000000e+00 -2.7382423035915373e-05 2.4364225134285277e-03 0.0000000000000000e+00 0.0000000000000000e+00 0.0000000000000000e+00 0.0000000000000000e+00  2.4566419765967144e-03 -2.1336374526447328e-05 0.0000000000000000e+00 -2.1336374526447328e-05 2.4271265462153602e-03 0.0000000000000000e+00 0.0000000000000000e+00 0.0000000000000000e+00 0.0000000000000000e+00  2.4508096201599637e-03 -1.4994759572522192e-05 0.0000000000000000e+00 -1.4994759572522192e-05 2.4200320832511455e-03 0.0000000000000000e+00 0.0000000000000000e+00 0.0000000000000000e+00 0.0000000000000000e+00  2.4470823756033849e-03 -8.3977546291896210e-06 0.0000000000000000e+00 -8.3977546291896210e-06 2.4153349192566004e-03 0.0000000000000000e+00 0.0000000000000000e+00 0.0000000000000000e+00 0.0000000000000000e+00  2.4454412634586937e-03 -1.6221517709705084e-06 0.0000000000000000e+00 -1.6221517709705084e-06 2.4132390813319513e-03 0.0000000000000000e+00 0.0000000000000000e+00 0.0000000000000000e+00 0.0000000000000000e+00  2.4458592208356721e-03 5.1879700264242589e-06 0.0000000000000000e+00 5.1879700264242589e-06 2.4138329502964690e-03 0.0000000000000000e+00 0.0000000000000000e+00 0.0000000000000000e+00 0.0000000000000000e+00  2.4483693101893253e-03 1.1873235620484513e-05 0.0000000000000000e+00 1.1873235620484513e-05 2.4170512031283405e-03 0.0000000000000000e+00 0.0000000000000000e+00 0.0000000000000000e+00 0.0000000000000000e+00  2.4530726340534280e-03 1.8315967272629299e-05 0.0000000000000000e+00 1.8315967272629299e-05 2.4226350838754012e-03 0.0000000000000000e+00 0.0000000000000000e+00 0.0000000000000000e+00 0.0000000000000000e+00  2.4602464935903558e-03 2.4452251712254446e-05 0.0000000000000000e+00 2.4452251712254446e-05 2.4302341644349083e-03 0.0000000000000000e+00 0.0000000000000000e+00 0.0000000000000000e+00 0.0000000000000000e+00  2.4703096852860436e-03 3.0409329804706860e-05 0.0000000000000000e+00 3.0409329804706860e-05 2.4393985996604807e-03 0.0000000000000000e+00 0.0000000000000000e+00 0.0000000000000000e+00 0.0000000000000000e+00  2.4842112008671641e-03 3.6289723736345462e-05 0.0000000000000000e+00 3.6289723736345462e-05 2.4500306523483838e-03 0.0000000000000000e+00 0.0000000000000000e+00 0.0000000000000000e+00 0.0000000000000000e+00  2.5028164321434210e-03 4.2908142767835033e-05 0.0000000000000000e+00 4.2908142767835033e-05 2.4628147415370117e-03 0.0000000000000000e+00 0.0000000000000000e+00 0.0000000000000000e+00 0.0000000000000000e+00  2.5266598905755032e-03 5.0703100312314064e-05 0.0000000000000000e+00 5.0703100312314064e-05 2.4804946060118546e-03 0.0000000000000000e+00 0.0000000000000000e+00 0.0000000000000000e+00 0.0000000000000000e+00  2.5556496144267279e-03 5.9056740645390177e-05 0.0000000000000000e+00 5.9056740645390177e-05 2.5069690440428067e-03 0.0000000000000000e+00 0.0000000000000000e+00 0.0000000000000000e+00 0.0000000000000000e+00  2.5944186357246542e-03 6.5300324421669882e-05 0.0000000000000000e+00 6.5300324421669882e-05 2.5367319873026771e-03 0.0000000000000000e+00 0.0000000000000000e+00 0.0000000000000000e+00 0.0000000000000000e+00  2.6461900685898084e-03 7.5843546934950833e-05 0.0000000000000000e+00 7.5843546934950833e-05 2.5777018383929024e-03 0.0000000000000000e+00 0.0000000000000000e+00 0.0000000000000000e+00 0.0000000000000000e+00  2.7074357872390702e-03 8.3484151933389090e-05 0.0000000000000000e+00 8.3484151933389090e-05 2.6474955365004328e-03 0.0000000000000000e+00 0.0000000000000000e+00 0.0000000000000000e+00 0.0000000000000000e+00  2.7917750503795684e-03 8.9907672076943975e-05 0.0000000000000000e+00 8.9907672076943975e-05 2.7041395388456894e-03 0.0000000000000000e+00 0.0000000000000000e+00 0.0000000000000000e+00 0.0000000000000000e+00  2.9122455012562010e-03 9.0940034209626526e-05 0.0000000000000000e+00 9.0940034209626526e-05 2.8298009652534487e-03 0.0000000000000000e+00 0.0000000000000000e+00 0.0000000000000000e+00 0.0000000000000000e+00  3.0359042081664765e-03 1.2972016290617490e-04 0.0000000000000000e+00 1.2972016290617490e-04 2.9060187076585106e-03 0.0000000000000000e+00 0.0000000000000000e+00 0.0000000000000000e+00 0.0000000000000000e+00  3.2375051261876574e-03 9.2241365522735248e-05 0.0000000000000000e+00 9.2241365522735248e-05 3.1684033057677867e-03 0.0000000000000000e+00 0.0000000000000000e+00 0.0000000000000000e+00 0.0000000000000000e+00  3.4585671541726101e-03 1.2240595132928072e-04 0.0000000000000000e+00 1.2240595132928072e-04 3.3236742869923092e-03 0.0000000000000000e+00 0.0000000000000000e+00 0.0000000000000000e+00 0.0000000000000000e+00  3.6119969760633483e-03 1.6446233576802456e-04 0.0000000000000000e+00 1.6446233576802456e-04 3.4495809828488156e-03 0.0000000000000000e+00 0.0000000000000000e+00 0.0000000000000000e+00 0.0000000000000000e+00  3.8461563408274902e-03 1.6296542731935787e-04 0.0000000000000000e+00 1.6296542731935787e-04 3.7356378167463537e-03 0.0000000000000000e+00 0.0000000000000000e+00 0.0000000000000000e+00 0.0000000000000000e+00  4.1621681598806122e-03 1.4053313440120282e-04 0.0000000000000000e+00 1.4053313440120282e-04 4.0991348981858329e-03 0.0000000000000000e+00 0.0000000000000000e+00 0.0000000000000000e+00 0.0000000000000000e+00  4.5369758184167289e-03 1.2722106768852775e-04 0.0000000000000000e+00 1.2722106768852775e-04 4.5028615942129865e-03 0.0000000000000000e+00 0.0000000000000000e+00 0.0000000000000000e+00 0.0000000000000000e+00  4.8916160616791649e-03 1.3911106734352234e-04 0.0000000000000000e+00 1.3911106734352234e-04 4.8863288610726243e-03 0.0000000000000000e+00 0.0000000000000000e+00 0.0000000000000000e+00 0.0000000000000000e+00  5.2128826593993705e-03 1.5276834010793293e-04 0.0000000000000000e+00 1.5276834010793293e-04 5.2571751900643404e-03 0.0000000000000000e+00 0.0000000000000000e+00 0.0000000000000000e+00 0.0000000000000000e+00  5.5319635418142670e-03 1.4669789583682738e-04 0.0000000000000000e+00 1.4669789583682738e-04 5.6157582371564102e-03 0.0000000000000000e+00 0.0000000000000000e+00 0.0000000000000000e+00 0.0000000000000000e+00  5.8905803344338073e-03 1.3344726138457755e-04 0.0000000000000000e+00 1.3344726138457755e-04 5.9686600439913650e-03 0.0000000000000000e+00 0.0000000000000000e+00 0.0000000000000000e+00 0.0000000000000000e+00  6.2115281355630226e-03 1.1875942945860441e-04 0.0000000000000000e+00 1.1875942945860441e-04 6.2483990858944885e-03 0.0000000000000000e+00 0.0000000000000000e+00 0.0000000000000000e+00 0.0000000000000000e+00  6.4395440072476783e-03 1.3626551251059361e-04 0.0000000000000000e+00 1.3626551251059361e-04 6.4679507361153190e-03 0.0000000000000000e+00 0.0000000000000000e+00 0.0000000000000000e+00 0.0000000000000000e+00  6.5563244506131541e-03 1.6262427783936034e-04 0.0000000000000000e+00 1.6262427783936034e-04 6.6288994249854051e-03 0.0000000000000000e+00 0.0000000000000000e+00 0.0000000000000000e+00 0.0000000000000000e+00  6.6938712178104386e-03 1.8776991189602130e-04 0.0000000000000000e+00 1.8776991189602130e-04 6.8300718285341112e-03 0.0000000000000000e+00 0.0000000000000000e+00 0.0000000000000000e+00 0.0000000000000000e+00  6.9287081621852743e-03 1.0968190625158759e-04 0.0000000000000000e+00 1.0968190625158759e-04 7.0564936152243754e-03 0.0000000000000000e+00 0.0000000000000000e+00 0.0000000000000000e+00 0.0000000000000000e+00  7.2044420046118215e-03 5.6910282385526030e-05 0.0000000000000000e+00 5.6910282385526030e-05 7.3088356618589223e-03 0.0000000000000000e+00 0.0000000000000000e+00 0.0000000000000000e+00 0.0000000000000000e+00  7.2246865924197436e-03 1.4575663707842591e-04 0.0000000000000000e+00 1.4575663707842591e-04 7.2584463066512799e-03 0.0000000000000000e+00 0.0000000000000000e+00 0.0000000000000000e+00 0.0000000000000000e+00  7.3294227177442463e-03 7.6627699983383360e-05 0.0000000000000000e+00 7.6627699983383360e-05 7.4113378301224357e-03 0.0000000000000000e+00 0.0000000000000000e+00 0.0000000000000000e+00 0.0000000000000000e+00  7.4410405729292053e-03 7.3908465659873641e-05 0.0000000000000000e+00 7.3908465659873641e-05 7.5253873594045622e-03 0.0000000000000000e+00 0.0000000000000000e+00 0.0000000000000000e+00 0.0000000000000000e+00  7.4901904089001358e-03 7.2969913544181219e-05 0.0000000000000000e+00 7.2969913544181219e-05 7.5277298838669704e-03 0.0000000000000000e+00 0.0000000000000000e+00 0.0000000000000000e+00 0.0000000000000000e+00  7.5358347883748133e-03 6.0571400605952450e-05 0.0000000000000000e+00 6.0571400605952450e-05 7.6021258413961840e-03 0.0000000000000000e+00 0.0000000000000000e+00 0.0000000000000000e+00 0.0000000000000000e+00  7.5736385356160391e-03 5.1312880707754696e-05 0.0000000000000000e+00 5.1312880707754696e-05 7.6221172534305928e-03 0.0000000000000000e+00 0.0000000000000000e+00 0.0000000000000000e+00 0.0000000000000000e+00  7.6000951108251957e-03 4.3739763417267508e-05 0.0000000000000000e+00 4.3739763417267508e-05 7.6439875381733103e-03 0.0000000000000000e+00 0.0000000000000000e+00 0.0000000000000000e+00 0.0000000000000000e+00  7.6211381358171045e-03 3.6885227515277990e-05 0.0000000000000000e+00 3.6885227515277990e-05 7.6573309821165725e-03 0.0000000000000000e+00 0.0000000000000000e+00 0.0000000000000000e+00 0.0000000000000000e+00  7.6367725281842004e-03 3.1114634468295441e-05 0.0000000000000000e+00 3.1114634468295441e-05 7.6667756526029515e-03 0.0000000000000000e+00 0.0000000000000000e+00 0.0000000000000000e+00 0.0000000000000000e+00  7.6483005172275111e-03 2.6073294054704112e-05 0.0000000000000000e+00 2.6073294054704112e-05 7.6739262133095230e-03 0.0000000000000000e+00 0.0000000000000000e+00 0.0000000000000000e+00 0.0000000000000000e+00  7.6567174950747151e-03 2.1446481927010699e-05 0.0000000000000000e+00 2.1446481927010699e-05 7.6793215936420498e-03 0.0000000000000000e+00 0.0000000000000000e+00 0.0000000000000000e+00 0.0000000000000000e+00  7.6628015609792261e-03 1.7181823521631270e-05 0.0000000000000000e+00 1.7181823521631270e-05 7.6832128125638522e-03 0.0000000000000000e+00 0.0000000000000000e+00 0.0000000000000000e+00 0.0000000000000000e+00  7.6670616884476905e-03 1.3208896124667330e-05 0.0000000000000000e+00 1.3208896124667330e-05 7.6855957952787881e-03 0.0000000000000000e+00 0.0000000000000000e+00 0.0000000000000000e+00 0.0000000000000000e+00  7.6698963325100861e-03 9.5603076287563393e-06 0.0000000000000000e+00 9.5603076287563393e-06 7.6864422572252540e-03 0.0000000000000000e+00 0.0000000000000000e+00 0.0000000000000000e+00 0.0000000000000000e+00  7.6716372214038911e-03 6.3001916507472730e-06 0.0000000000000000e+00 6.3001916507472730e-06 7.6857372433326594e-03 0.0000000000000000e+00 0.0000000000000000e+00 0.0000000000000000e+00 0.0000000000000000e+00  7.6726477540574115e-03 3.5319103853307408e-06 0.0000000000000000e+00 3.5319103853307408e-06 7.6835600557006887e-03 0.0000000000000000e+00 0.0000000000000000e+00 0.0000000000000000e+00 0.0000000000000000e+00  7.6733576811649383e-03 1.3832570601578167e-06 0.0000000000000000e+00 1.3832570601578167e-06 7.6802054540909765e-03 0.0000000000000000e+00 0.0000000000000000e+00 0.0000000000000000e+00 0.0000000000000000e+00  7.6741939422429644e-03 3.1868153516734390e-09 0.0000000000000000e+00 3.1868153516734390e-09 7.6764881135744237e-03 0.0000000000000000e+00 0.0000000000000000e+00 0.0000000000000000e+00 0.0000000000000000e+00  7.6748128933702506e-03 2.1480889139099825e-07 0.0000000000000000e+00 2.1480889139099825e-07 7.6744952948825306e-03 0.0000000000000000e+00 0.0000000000000000e+00 0.0000000000000000e+00 0.0000000000000000e+00  7.6301843386178281e-03 9.2425609615051454e-07 0.0000000000000000e+00 9.2425609615051454e-07 7.6302435557653713e-03 0.0000000000000000e+00 0.0000000000000000e+00 0.0000000000000000e+00 0.0000000000000000e+00  7.6281164171134825e-03 1.6473375356797954e-06 0.0000000000000000e+00 1.6473375356797954e-06 7.6362472042066859e-03 0.0000000000000000e+00 0.0000000000000000e+00 0.0000000000000000e+00 0.0000000000000000e+00  7.6258973887069368e-03 8.0430595990652652e-08 0.0000000000000000e+00 8.0430595990652652e-08 7.6416672396578279e-03 0.0000000000000000e+00 0.0000000000000000e+00 0.0000000000000000e+00 0.0000000000000000e+00  7.6234919715426758e-03 -2.2589394372731405e-06 0.0000000000000000e+00 -2.2589394372731405e-06 7.6460190170015690e-03 0.0000000000000000e+00 0.0000000000000000e+00 0.0000000000000000e+00 0.0000000000000000e+00  7.6207416929362391e-03 -4.8957986770341024e-06 0.0000000000000000e+00 -4.8957986770341024e-06 7.6487309063791387e-03 0.0000000000000000e+00 0.0000000000000000e+00 0.0000000000000000e+00 0.0000000000000000e+00  7.6172907634545293e-03 -7.6536106674926010e-06 0.0000000000000000e+00 -7.6536106674926010e-06 7.6495399897391391e-03 0.0000000000000000e+00 0.0000000000000000e+00 0.0000000000000000e+00 0.0000000000000000e+00  7.6127401553338723e-03 -1.0445490841835795e-05 0.0000000000000000e+00 -1.0445490841835795e-05 7.6483675160495977e-03 0.0000000000000000e+00 0.0000000000000000e+00 0.0000000000000000e+00 0.0000000000000000e+00  7.6066650980452415e-03 -1.3211257365813381e-05 0.0000000000000000e+00 -1.3211257365813381e-05 7.6451656349742769e-03 0.0000000000000000e+00 0.0000000000000000e+00 0.0000000000000000e+00 0.0000000000000000e+00  7.5987132066611934e-03 -1.5986724553732708e-05 0.0000000000000000e+00 -1.5986724553732708e-05 7.6398999002678927e-03 0.0000000000000000e+00 0.0000000000000000e+00 0.0000000000000000e+00 0.0000000000000000e+00  7.5884116103809400e-03 -1.8691193986061902e-05 0.0000000000000000e+00 -1.8691193986061902e-05 7.6322719541595469e-03 0.0000000000000000e+00 0.0000000000000000e+00 0.0000000000000000e+00 0.0000000000000000e+00  7.5757075519049160e-03 -2.1619828463558631e-05 0.0000000000000000e+00 -2.1619828463558631e-05 7.6220587369938064e-03 0.0000000000000000e+00 0.0000000000000000e+00 0.0000000000000000e+00 0.0000000000000000e+00  7.5598616961512254e-03 -2.3844833621894012e-05 0.0000000000000000e+00 -2.3844833621894012e-05 7.6086250144259075e-03 0.0000000000000000e+00 0.0000000000000000e+00 0.0000000000000000e+00 0.0000000000000000e+00  7.5408340518415013e-03 -2.5726940364446448e-05 0.0000000000000000e+00 -2.5726940364446448e-05 7.5917181355272499e-03 0.0000000000000000e+00 0.0000000000000000e+00 0.0000000000000000e+00 0.0000000000000000e+00  7.5166520997371885e-03 -2.5037301517174442e-05 0.0000000000000000e+00 -2.5037301517174442e-05 7.5741125353185916e-03 0.0000000000000000e+00 0.0000000000000000e+00 0.0000000000000000e+00 0.0000000000000000e+00  7.4824519705867770e-03 -2.3051942387794980e-05 0.0000000000000000e+00 -2.3051942387794980e-05 7.5532701272704242e-03 0.0000000000000000e+00 0.0000000000000000e+00 0.0000000000000000e+00 0.0000000000000000e+00  7.4456546760883367e-03 -2.9772159927229597e-05 0.0000000000000000e+00 -2.9772159927229597e-05 7.5254639582376824e-03 0.0000000000000000e+00 0.0000000000000000e+00 0.0000000000000000e+00 0.0000000000000000e+00  7.4040206725446726e-03 -2.3158572902897601e-05 0.0000000000000000e+00 -2.3158572902897601e-05 7.4855408862591882e-03 0.0000000000000000e+00 0.0000000000000000e+00 0.0000000000000000e+00 0.0000000000000000e+00  7.3332077035510174e-03 -1.4509146711573686e-05 0.0000000000000000e+00 -1.4509146711573686e-05 7.4527419112362329e-03 0.0000000000000000e+00 0.0000000000000000e+00 0.0000000000000000e+00 0.0000000000000000e+00  7.2754480763912886e-03 -3.6685663163725958e-05 0.0000000000000000e+00 -3.6685663163725958e-05 7.3518335207270798e-03 0.0000000000000000e+00 0.0000000000000000e+00 0.0000000000000000e+00 0.0000000000000000e+00  7.2179575966027625e-03 -2.6543648675863143e-05 0.0000000000000000e+00 -2.6543648675863143e-05 7.3124806213552907e-03 0.0000000000000000e+00 0.0000000000000000e+00 0.0000000000000000e+00 0.0000000000000000e+00  7.1162029494169872e-03 6.6989891974743299e-05 0.0000000000000000e+00 6.6989891974743299e-05 7.1507875731129499e-03 0.0000000000000000e+00 0.0000000000000000e+00 0.0000000000000000e+00 0.0000000000000000e+00  6.9582745450543111e-03 -1.5755990633664598e-05 0.0000000000000000e+00 -1.5755990633664598e-05 7.0388899063135498e-03 0.0000000000000000e+00 0.0000000000000000e+00 0.0000000000000000e+00 0.0000000000000000e+00  6.7280056431755757e-03 4.9520282800849911e-05 0.0000000000000000e+00 4.9520282800849911e-05 6.8102402087411185e-03 0.0000000000000000e+00 0.0000000000000000e+00 0.0000000000000000e+00 0.0000000000000000e+00  6.4871301067779587e-03 1.4590239930827167e-04 0.0000000000000000e+00 1.4590239930827167e-04 6.5319778186395750e-03 0.0000000000000000e+00 0.0000000000000000e+00 0.0000000000000000e+00 0.0000000000000000e+00  6.2919702182706108e-03 1.6561261618622372e-04 0.0000000000000000e+00 1.6561261618622372e-04 6.3052357143350132e-03 0.0000000000000000e+00 0.0000000000000000e+00 0.0000000000000000e+00 0.0000000000000000e+00  6.0373183520650671e-03 1.6799705564795499e-04 0.0000000000000000e+00 1.6799705564795499e-04 6.0368779874954478e-03 0.0000000000000000e+00 0.0000000000000000e+00 0.0000000000000000e+00 0.0000000000000000e+00  5.7131040807519261e-03 2.0208254903275591e-04 0.0000000000000000e+00 2.0208254903275591e-04 5.7288625746842953e-03 0.0000000000000000e+00 0.0000000000000000e+00 0.0000000000000000e+00 0.0000000000000000e+00  5.3113858250198442e-03 2.3757252120852235e-04 0.0000000000000000e+00 2.3757252120852235e-04 5.3811053779981447e-03 0.0000000000000000e+00 0.0000000000000000e+00 0.0000000000000000e+00 0.0000000000000000e+00  4.8847891192779214e-03 2.3883291961669184e-04 0.0000000000000000e+00 2.3883291961669184e-04 4.9836548337189217e-03 0.0000000000000000e+00 0.0000000000000000e+00 0.0000000000000000e+00 0.0000000000000000e+00  4.4949139910019720e-03 1.9920771528405415e-04 0.0000000000000000e+00 1.9920771528405415e-04 4.5618705778466117e-03 0.0000000000000000e+00 0.0000000000000000e+00 0.0000000000000000e+00 0.0000000000000000e+00  4.1455988929511110e-03 1.4405352648695871e-04 0.0000000000000000e+00 1.4405352648695871e-04 4.1761782164353826e-03 0.0000000000000000e+00 0.0000000000000000e+00 0.0000000000000000e+00 0.0000000000000000e+00  3.7758751699201306e-03 1.1941018118180828e-04 0.0000000000000000e+00 1.1941018118180828e-04 3.7981419446243068e-03 0.0000000000000000e+00 0.0000000000000000e+00 0.0000000000000000e+00 0.0000000000000000e+00  3.4196937423140155e-03 1.0892761585708253e-04 0.0000000000000000e+00 1.0892761585708253e-04 3.4538234234780738e-03 0.0000000000000000e+00 0.0000000000000000e+00 0.0000000000000000e+00 0.0000000000000000e+00  3.1848813929497288e-03 1.0370046891458674e-04 0.0000000000000000e+00 1.0370046891458674e-04 3.1889231268982200e-03 0.0000000000000000e+00 0.0000000000000000e+00 0.0000000000000000e+00 0.0000000000000000e+00  3.1244020261624057e-03 9.5371676781916444e-05 0.0000000000000000e+00 9.5371676781916444e-05 3.0349623962518482e-03 0.0000000000000000e+00 0.0000000000000000e+00 0.0000000000000000e+00 0.0000000000000000e+00  3.0308227186662800e-03 -7.0557854551470204e-05 0.0000000000000000e+00 -7.0557854551470204e-05 2.8645605974641042e-03 0.0000000000000000e+00 0.0000000000000000e+00 0.0000000000000000e+00 0.0000000000000000e+00  2.8297701494808601e-03 1.6652763964170383e-05 0.0000000000000000e+00 1.6652763964170383e-05 2.7062798685954198e-03 0.0000000000000000e+00 0.0000000000000000e+00 0.0000000000000000e+00 0.0000000000000000e+00  2.7446970047520143e-03 4.1553737122607988e-05 0.0000000000000000e+00 4.1553737122607988e-05 2.6025489912582882e-03 0.0000000000000000e+00 0.0000000000000000e+00 0.0000000000000000e+00 0.0000000000000000e+00  2.7243231453471248e-03 -8.7820367883413480e-05 0.0000000000000000e+00 -8.7820367883413480e-05 2.6460114603714851e-03 0.0000000000000000e+00 0.0000000000000000e+00 0.0000000000000000e+00 0.0000000000000000e+00  2.6695784602811324e-03 2.9303916339212423e-06 0.0000000000000000e+00 2.9303916339212423e-06 2.5133406099728029e-03 0.0000000000000000e+00 0.0000000000000000e+00 0.0000000000000000e+00 0.0000000000000000e+00  2.5926615000805260e-03 -3.5115411277204579e-05 0.0000000000000000e+00 -3.5115411277204579e-05 2.5321445978199095e-03 0.0000000000000000e+00 0.0000000000000000e+00 0.0000000000000000e+00 0.0000000000000000e+00  2.5746414432672371e-03 -2.6396667256859913e-05 0.0000000000000000e+00 -2.6396667256859913e-05 2.4941074149597881e-03 0.0000000000000000e+00 0.0000000000000000e+00 0.0000000000000000e+00 0.0000000000000000e+00  2.5380180898755423e-03 -2.4522169809499049e-05 0.0000000000000000e+00 -2.4522169809499049e-05 2.4815943107955639e-03 0.0000000000000000e+00 0.0000000000000000e+00 0.0000000000000000e+00 0.0000000000000000e+00  2.5162041338356762e-03 -2.6222415653394083e-05 0.0000000000000000e+00 -2.6222415653394083e-05 2.4710229283419795e-03 0.0000000000000000e+00 0.0000000000000000e+00 0.0000000000000000e+00 0.0000000000000000e+00  2.5010214935394311e-03 -2.5483268281440364e-05 0.0000000000000000e+00 -2.5483268281440364e-05 2.4559570345203856e-03 0.0000000000000000e+00 0.0000000000000000e+00 0.0000000000000000e+00 0.0000000000000000e+00  2.4889951077977568e-03 -2.2152121750338961e-05 0.0000000000000000e+00 -2.2152121750338961e-05 2.4431342867350533e-03 0.0000000000000000e+00 0.0000000000000000e+00 0.0000000000000000e+00 0.0000000000000000e+00  2.4792752406686894e-03 -1.8732884590217970e-05 0.0000000000000000e+00 -1.8732884590217970e-05 2.4315043007278512e-03 0.0000000000000000e+00 0.0000000000000000e+00 0.0000000000000000e+00 0.0000000000000000e+00  2.4719954330127765e-03 -1.4770123626225231e-05 0.0000000000000000e+00 -1.4770123626225231e-05 2.4220069677721406e-03 0.0000000000000000e+00 0.0000000000000000e+00 0.0000000000000000e+00 0.0000000000000000e+00  2.4668098420257980e-03 -1.0547187810266565e-05 0.0000000000000000e+00 -1.0547187810266565e-05 2.4145894082441117e-03 0.0000000000000000e+00 0.0000000000000000e+00 0.0000000000000000e+00 0.0000000000000000e+00  2.4636565379752878e-03 -5.9379529184199245e-06 0.0000000000000000e+00 -5.9379529184199245e-06 2.4096320316924673e-03 0.0000000000000000e+00 0.0000000000000000e+00 0.0000000000000000e+00 0.0000000000000000e+00  2.4622830263472590e-03 -1.0569098855535485e-06 0.0000000000000000e+00 -1.0569098855535485e-06 2.4073970496754321e-03 0.0000000000000000e+00 0.0000000000000000e+00 0.0000000000000000e+00 0.0000000000000000e+00  2.4626059497718316e-03 3.8693730029164302e-06 0.0000000000000000e+00 3.8693730029164302e-06 2.4080620326767015e-03 0.0000000000000000e+00 0.0000000000000000e+00 0.0000000000000000e+00 0.0000000000000000e+00  2.4646659770640104e-03 8.5616493978249024e-06 0.0000000000000000e+00 8.5616493978249024e-06 2.4115391859291092e-03 0.0000000000000000e+00 0.0000000000000000e+00 0.0000000000000000e+00 0.0000000000000000e+00  2.4687366225989754e-03 1.2735073039714443e-05 0.0000000000000000e+00 1.2735073039714443e-05 2.4175952855989002e-03 0.0000000000000000e+00 0.0000000000000000e+00 0.0000000000000000e+00 0.0000000000000000e+00  2.4751172527182909e-03 1.6211056700975425e-05 0.0000000000000000e+00 1.6211056700975425e-05 2.4256679975732929e-03 0.0000000000000000e+00 0.0000000000000000e+00 0.0000000000000000e+00 0.0000000000000000e+00  2.4847463471658767e-03 1.8546958845641085e-05 0.0000000000000000e+00 1.8546958845641085e-05 2.4355564423651681e-03 0.0000000000000000e+00 0.0000000000000000e+00 0.0000000000000000e+00 0.0000000000000000e+00  2.4979136922817428e-03 2.0330330777473832e-05 0.0000000000000000e+00 2.0330330777473832e-05 2.4463315183955343e-03 0.0000000000000000e+00 0.0000000000000000e+00 0.0000000000000000e+00 0.0000000000000000e+00  2.5171752037554782e-03 2.0618625403882966e-05 0.0000000000000000e+00 2.0618625403882966e-05 2.4584342344698201e-03 0.0000000000000000e+00 0.0000000000000000e+00 0.0000000000000000e+00 0.0000000000000000e+00  2.5420847265193152e-03 2.4160784173599481e-05 0.0000000000000000e+00 2.4160784173599481e-05 2.4750097528252464e-03 0.0000000000000000e+00 0.0000000000000000e+00 0.0000000000000000e+00 0.0000000000000000e+00  2.5700364962821490e-03 2.8775715352410403e-05 0.0000000000000000e+00 2.8775715352410403e-05 2.5034788773352920e-03 0.0000000000000000e+00 0.0000000000000000e+00 0.0000000000000000e+00 0.0000000000000000e+00  2.6069106234595102e-03 1.8720080501295033e-05 0.0000000000000000e+00 1.8720080501295033e-05 2.5425553876350527e-03 0.0000000000000000e+00 0.0000000000000000e+00 0.0000000000000000e+00 0.0000000000000000e+00  2.6623803343758311e-03 2.0250031507725507e-05 0.0000000000000000e+00 2.0250031507725507e-05 2.5677592211807453e-03 0.0000000000000000e+00 0.0000000000000000e+00 0.0000000000000000e+00 0.0000000000000000e+00  2.7301631258644537e-03 2.9059296777191219e-05 0.0000000000000000e+00 2.9059296777191219e-05 2.6757532130453582e-03 0.0000000000000000e+00 0.0000000000000000e+00 0.0000000000000000e+00 0.0000000000000000e+00  2.8086647765736242e-03 -1.3093094278219098e-05 0.0000000000000000e+00 -1.3093094278219098e-05 2.7048124823669324e-03 0.0000000000000000e+00 0.0000000000000000e+00 0.0000000000000000e+00 0.0000000000000000e+00  2.9929696107769931e-03 -1.7417828345363581e-05 0.0000000000000000e+00 -1.7417828345363581e-05 2.8990014069479324e-03 0.0000000000000000e+00 0.0000000000000000e+00 0.0000000000000000e+00 0.0000000000000000e+00  3.0179890589324822e-03 4.9808632210703041e-05 0.0000000000000000e+00 4.9808632210703041e-05 2.8731642276492511e-03 0.0000000000000000e+00 0.0000000000000000e+00 0.0000000000000000e+00 0.0000000000000000e+00  3.3719043505414906e-03 -9.4402226169260073e-05 0.0000000000000000e+00 -9.4402226169260073e-05 3.2705994328410259e-03 0.0000000000000000e+00 0.0000000000000000e+00 0.0000000000000000e+00 0.0000000000000000e+00  3.3891809607757236e-03 -8.1418166299845556e-05 0.0000000000000000e+00 -8.1418166299845556e-05 3.3308439893638187e-03 0.0000000000000000e+00 0.0000000000000000e+00 0.0000000000000000e+00 0.0000000000000000e+00  3.4744222050004346e-03 -8.5582242428743375e-05 0.0000000000000000e+00 -8.5582242428743375e-05 3.4796485854850395e-03 0.0000000000000000e+00 0.0000000000000000e+00 0.0000000000000000e+00 0.0000000000000000e+00  3.7846393188609296e-03 -1.1215973117163936e-04 0.0000000000000000e+00 -1.1215973117163936e-04 3.7879808491735572e-03 0.0000000000000000e+00 0.0000000000000000e+00 0.0000000000000000e+00 0.0000000000000000e+00  4.1705981313688916e-03 -1.4758550030768394e-04 0.0000000000000000e+00 -1.4758550030768394e-04 4.2039334316788697e-03 0.0000000000000000e+00 0.0000000000000000e+00 0.0000000000000000e+00 0.0000000000000000e+00  4.5462632558101622e-03 -1.9684453504801544e-04 0.0000000000000000e+00 -1.9684453504801544e-04 4.6269755868424672e-03 0.0000000000000000e+00 0.0000000000000000e+00 0.0000000000000000e+00 0.0000000000000000e+00  4.9192680257766326e-03 -2.2993425624146573e-04 0.0000000000000000e+00 -2.2993425624146573e-04 5.0213465988590954e-03 0.0000000000000000e+00 0.0000000000000000e+00 0.0000000000000000e+00 0.0000000000000000e+00  5.3011041211655056e-03 -2.2191620182648275e-04 0.0000000000000000e+00 -2.2191620182648275e-04 5.3575933084759322e-03 0.0000000000000000e+00 0.0000000000000000e+00 0.0000000000000000e+00 0.0000000000000000e+00  5.6876967122793101e-03 -1.8259438987407986e-04 0.0000000000000000e+00 -1.8259438987407986e-04 5.6888805766005619e-03 0.0000000000000000e+00 0.0000000000000000e+00 0.0000000000000000e+00 0.0000000000000000e+00  6.0310210844542154e-03 -1.5871789379579170e-04 0.0000000000000000e+00 -1.5871789379579170e-04 6.0122244274031988e-03 0.0000000000000000e+00 0.0000000000000000e+00 0.0000000000000000e+00 0.0000000000000000e+00  6.2881996235693190e-03 -1.5576095196334774e-04 0.0000000000000000e+00 -1.5576095196334774e-04 6.3014733430950343e-03 0.0000000000000000e+00 0.0000000000000000e+00 0.0000000000000000e+00 0.0000000000000000e+00  6.4640440168733876e-03 -1.2399271544755508e-04 0.0000000000000000e+00 -1.2399271544755508e-04 6.5128710603447257e-03 0.0000000000000000e+00 0.0000000000000000e+00 0.0000000000000000e+00 0.0000000000000000e+00  6.6435605098240187e-03 -3.7128990290086378e-05 0.0000000000000000e+00 -3.7128990290086378e-05 6.7401429427593621e-03 0.0000000000000000e+00 0.0000000000000000e+00 0.0000000000000000e+00 0.0000000000000000e+00  6.7226572043284178e-03 5.0040857101740088e-05 0.0000000000000000e+00 5.0040857101740088e-05 6.8493098602519066e-03 0.0000000000000000e+00 0.0000000000000000e+00 0.0000000000000000e+00 0.0000000000000000e+00  7.1098922467154923e-03 -7.2711173206563406e-05 0.0000000000000000e+00 -7.2711173206563406e-05 7.1714867974024508e-03 0.0000000000000000e+00 0.0000000000000000e+00 0.0000000000000000e+00 0.0000000000000000e+00  7.2610333965105458e-03 -3.2945948733683395e-05 0.0000000000000000e+00 -3.2945948733683395e-05 7.3001136540123282e-03 0.0000000000000000e+00 0.0000000000000000e+00 0.0000000000000000e+00 0.0000000000000000e+00  7.1474513971102448e-03 9.9492681491313131e-05 0.0000000000000000e+00 9.9492681491313131e-05 7.2329140527168699e-03 0.0000000000000000e+00 0.0000000000000000e+00 0.0000000000000000e+00 0.0000000000000000e+00  7.3877129910976929e-03 -4.3210920884158108e-05 0.0000000000000000e+00 -4.3210920884158108e-05 7.5132410155980310e-03 0.0000000000000000e+00 0.0000000000000000e+00 0.0000000000000000e+00 0.0000000000000000e+00  7.4600212342962229e-03 4.4748862761686067e-05 0.0000000000000000e+00 4.4748862761686067e-05 7.4868328488626353e-03 0.0000000000000000e+00 0.0000000000000000e+00 0.0000000000000000e+00 0.0000000000000000e+00  7.4728743231531189e-03 2.2067422170998396e-05 0.0000000000000000e+00 2.2067422170998396e-05 7.5532392220913286e-03 0.0000000000000000e+00 0.0000000000000000e+00 0.0000000000000000e+00 0.0000000000000000e+00  7.5444228023414193e-03 2.3569525284513051e-05 0.0000000000000000e+00 2.3569525284513051e-05 7.6076733464583192e-03 0.0000000000000000e+00 0.0000000000000000e+00 0.0000000000000000e+00 0.0000000000000000e+00  7.5646323455526776e-03 2.5361418879288548e-05 0.0000000000000000e+00 2.5361418879288548e-05 7.6259285006368121e-03 0.0000000000000000e+00 0.0000000000000000e+00 0.0000000000000000e+00 0.0000000000000000e+00  7.5882366297236352e-03 1.9870193605844313e-05 0.0000000000000000e+00 1.9870193605844313e-05 7.6490400406790940e-03 0.0000000000000000e+00 0.0000000000000000e+00 0.0000000000000000e+00 0.0000000000000000e+00  7.6092073944873679e-03 1.8284168496720486e-05 0.0000000000000000e+00 1.8284168496720486e-05 7.6606226636792025e-03 0.0000000000000000e+00 0.0000000000000000e+00 0.0000000000000000e+00 0.0000000000000000e+00  7.6250283367010159e-03 1.7328426121627249e-05 0.0000000000000000e+00 1.7328426121627249e-05 7.6701336466526090e-03 0.0000000000000000e+00 0.0000000000000000e+00 0.0000000000000000e+00 0.0000000000000000e+00  7.6370589564130282e-03 1.5683334298467613e-05 0.0000000000000000e+00 1.5683334298467613e-05 7.6771445834740836e-03 0.0000000000000000e+00 0.0000000000000000e+00 0.0000000000000000e+00 0.0000000000000000e+00  7.6461415100272656e-03 1.3884211043176849e-05 0.0000000000000000e+00 1.3884211043176849e-05 7.6825749346853718e-03 0.0000000000000000e+00 0.0000000000000000e+00 0.0000000000000000e+00 0.0000000000000000e+00  7.6528239215603727e-03 1.1651799802001154e-05 0.0000000000000000e+00 1.1651799802001154e-05 7.6864222345202930e-03 0.0000000000000000e+00 0.0000000000000000e+00 0.0000000000000000e+00 0.0000000000000000e+00  7.6578185394154319e-03 9.2537789804164681e-06 0.0000000000000000e+00 9.2537789804164681e-06 7.6887197248888895e-03 0.0000000000000000e+00 0.0000000000000000e+00 0.0000000000000000e+00 0.0000000000000000e+00  7.6615219128375323e-03 6.7738399433924066e-06 0.0000000000000000e+00 6.7738399433924066e-06 7.6893928938681589e-03 0.0000000000000000e+00 0.0000000000000000e+00 0.0000000000000000e+00 0.0000000000000000e+00  7.6643344021052520e-03 4.3210735568474093e-06 0.0000000000000000e+00 4.3210735568474093e-06 7.6884354339772859e-03 0.0000000000000000e+00 0.0000000000000000e+00 0.0000000000000000e+00 0.0000000000000000e+00  7.6665997482871871e-03 1.9928482020501384e-06 0.0000000000000000e+00 1.9928482020501384e-06 7.6859004527552620e-03 0.0000000000000000e+00 0.0000000000000000e+00 0.0000000000000000e+00 0.0000000000000000e+00  7.6686132467635899e-03 -4.7055921004227481e-08 0.0000000000000000e+00 -4.7055921004227481e-08 7.6820219558081104e-03 0.0000000000000000e+00 0.0000000000000000e+00 0.0000000000000000e+00 0.0000000000000000e+00  7.6704928061317734e-03 -1.3804320451533513e-06 0.0000000000000000e+00 -1.3804320451533513e-06 7.6773157012890864e-03 0.0000000000000000e+00 0.0000000000000000e+00 0.0000000000000000e+00 0.0000000000000000e+00  7.6722295081846524e-03 -7.0255317231861898e-07 0.0000000000000000e+00 -7.0255317231861898e-07 7.6722629707809218e-03 0.0000000000000000e+00 0.0000000000000000e+00 0.0000000000000000e+00 0.0000000000000000e+00  7.6276816478236791e-03 3.7881110490390422e-06 0.0000000000000000e+00 3.7881110490390422e-06 7.6279280052834559e-03 0.0000000000000000e+00 0.0000000000000000e+00 0.0000000000000000e+00 0.0000000000000000e+00  7.6245756227786444e-03 4.1489434172021390e-06 0.0000000000000000e+00 4.1489434172021390e-06 7.6370248408823872e-03 0.0000000000000000e+00 0.0000000000000000e+00 0.0000000000000000e+00 0.0000000000000000e+00  7.6217939301156390e-03 2.6850771249332151e-06 0.0000000000000000e+00 2.6850771249332151e-06 7.6436698853374800e-03 0.0000000000000000e+00 0.0000000000000000e+00 0.0000000000000000e+00 0.0000000000000000e+00  7.6189078296249992e-03 5.7297395084509632e-07 0.0000000000000000e+00 5.7297395084509632e-07 7.6483809492376657e-03 0.0000000000000000e+00 0.0000000000000000e+00 0.0000000000000000e+00 0.0000000000000000e+00  7.6157179484285450e-03 -1.5939602564548647e-06 0.0000000000000000e+00 -1.5939602564548647e-06 7.6511156114979486e-03 0.0000000000000000e+00 0.0000000000000000e+00 0.0000000000000000e+00 0.0000000000000000e+00  7.6119711061699603e-03 -3.5434797585565931e-06 0.0000000000000000e+00 -3.5434797585565931e-06 7.6518044736128797e-03 0.0000000000000000e+00 0.0000000000000000e+00 0.0000000000000000e+00 0.0000000000000000e+00  7.6073108465704352e-03 -5.1248794738141776e-06 0.0000000000000000e+00 -5.1248794738141776e-06 7.6504134338926345e-03 0.0000000000000000e+00 0.0000000000000000e+00 0.0000000000000000e+00 0.0000000000000000e+00  7.6014128254190899e-03 -6.3158585638828757e-06 0.0000000000000000e+00 -6.3158585638828757e-06 7.6470283316594561e-03 0.0000000000000000e+00 0.0000000000000000e+00 0.0000000000000000e+00 0.0000000000000000e+00  7.5936770983972713e-03 -6.9666680032850078e-06 0.0000000000000000e+00 -6.9666680032850078e-06 7.6414431022382347e-03 0.0000000000000000e+00 0.0000000000000000e+00 0.0000000000000000e+00 0.0000000000000000e+00  7.5841769634486418e-03 -7.6224051875079338e-06 0.0000000000000000e+00 -7.6224051875079338e-06 7.6339743337045856e-03 0.0000000000000000e+00 0.0000000000000000e+00 0.0000000000000000e+00 0.0000000000000000e+00  7.5713689219157193e-03 -7.0665398468777844e-06 0.0000000000000000e+00 -7.0665398468777844e-06 7.6231207183675188e-03 0.0000000000000000e+00 0.0000000000000000e+00 0.0000000000000000e+00 0.0000000000000000e+00  7.5579294433511619e-03 -8.5747902132523900e-06 0.0000000000000000e+00 -8.5747902132523900e-06 7.6093822968971653e-03 0.0000000000000000e+00 0.0000000000000000e+00 0.0000000000000000e+00 0.0000000000000000e+00  7.5400316640239252e-03 -3.7871293596658734e-06 0.0000000000000000e+00 -3.7871293596658734e-06 7.5910586859782823e-03 0.0000000000000000e+00 0.0000000000000000e+00 0.0000000000000000e+00 0.0000000000000000e+00  7.5204132125193269e-03 -5.1543687192404028e-08 0.0000000000000000e+00 -5.1543687192404028e-08 7.5651187077687221e-03 0.0000000000000000e+00 0.0000000000000000e+00 0.0000000000000000e+00 0.0000000000000000e+00  7.5006899922808864e-03 8.0399761160324247e-06 0.0000000000000000e+00 8.0399761160324247e-06 7.5593326828314548e-03 0.0000000000000000e+00 0.0000000000000000e+00 0.0000000000000000e+00 0.0000000000000000e+00  7.4480082585994308e-03 2.5218946922298973e-05 0.0000000000000000e+00 2.5218946922298973e-05 7.5309028464763048e-03 0.0000000000000000e+00 0.0000000000000000e+00 0.0000000000000000e+00 0.0000000000000000e+00  7.4342995595354771e-03 -6.7317099848463605e-06 0.0000000000000000e+00 -6.7317099848463605e-06 7.4539097574614094e-03 0.0000000000000000e+00 0.0000000000000000e+00 0.0000000000000000e+00 0.0000000000000000e+00  7.4612227088043485e-03 3.3819087279670940e-05 0.0000000000000000e+00 3.3819087279670940e-05 7.5049389008083958e-03 0.0000000000000000e+00 0.0000000000000000e+00 0.0000000000000000e+00 0.0000000000000000e+00  7.3550449945533058e-03 1.0090177176198844e-04 0.0000000000000000e+00 1.0090177176198844e-04 7.3854583660439340e-03 0.0000000000000000e+00 0.0000000000000000e+00 0.0000000000000000e+00 0.0000000000000000e+00  7.2453015974368500e-03 8.7883138551756303e-05 0.0000000000000000e+00 8.7883138551756303e-05 7.2680573564000836e-03 0.0000000000000000e+00 0.0000000000000000e+00 0.0000000000000000e+00 0.0000000000000000e+00  7.2676644681160816e-03 7.3611307915800222e-05 0.0000000000000000e+00 7.3611307915800222e-05 7.1602752388534724e-03 0.0000000000000000e+00 0.0000000000000000e+00 0.0000000000000000e+00 0.0000000000000000e+00  7.3562993977440098e-03 1.0996081520951602e-04 0.0000000000000000e+00 1.0996081520951602e-04 7.4392204414889408e-03 0.0000000000000000e+00 0.0000000000000000e+00 0.0000000000000000e+00 0.0000000000000000e+00  6.8182026379013218e-03 4.4092854168549745e-04 0.0000000000000000e+00 4.4092854168549745e-04 7.1273685788922252e-03 0.0000000000000000e+00 0.0000000000000000e+00 0.0000000000000000e+00 0.0000000000000000e+00  6.4647165239545999e-03 3.2003855220362335e-04 0.0000000000000000e+00 3.2003855220362335e-04 6.9970014019046104e-03 0.0000000000000000e+00 0.0000000000000000e+00 0.0000000000000000e+00 0.0000000000000000e+00  5.8739982282523945e-03 3.6702654239977018e-04 0.0000000000000000e+00 3.6702654239977018e-04 6.7603058041225484e-03 0.0000000000000000e+00 0.0000000000000000e+00 0.0000000000000000e+00 0.0000000000000000e+00  5.0730808380597533e-03 4.4285491959611883e-04 0.0000000000000000e+00 4.4285491959611883e-04 6.4163278672089196e-03 0.0000000000000000e+00 0.0000000000000000e+00 0.0000000000000000e+00 0.0000000000000000e+00  4.3260344874330786e-03 5.2548414663548067e-04 0.0000000000000000e+00 5.2548414663548067e-04 6.1736337350108070e-03 0.0000000000000000e+00 0.0000000000000000e+00 0.0000000000000000e+00 0.0000000000000000e+00  3.7268756793358369e-03 6.0711313087832884e-04 0.0000000000000000e+00 6.0711313087832884e-04 5.9444725147084730e-03 0.0000000000000000e+00 0.0000000000000000e+00 0.0000000000000000e+00 0.0000000000000000e+00  3.3312805332185295e-03 6.6477176641867124e-04 0.0000000000000000e+00 6.6477176641867124e-04 5.6503590517352070e-03 0.0000000000000000e+00 0.0000000000000000e+00 0.0000000000000000e+00 0.0000000000000000e+00  3.1476514981711675e-03 6.4016999962736938e-04 0.0000000000000000e+00 6.4016999962736938e-04 5.2718297005621339e-03 0.0000000000000000e+00 0.0000000000000000e+00 0.0000000000000000e+00 0.0000000000000000e+00  3.1309657425083902e-03 5.3018472312821405e-04 0.0000000000000000e+00 5.3018472312821405e-04 4.8987307771871163e-03 0.0000000000000000e+00 0.0000000000000000e+00 0.0000000000000000e+00 0.0000000000000000e+00  3.1685380102020413e-03 4.2547258053327156e-04 0.0000000000000000e+00 4.2547258053327156e-04 4.5209834937923266e-03 0.0000000000000000e+00 0.0000000000000000e+00 0.0000000000000000e+00 0.0000000000000000e+00  3.1274362144837232e-03 3.9763696668970483e-04 0.0000000000000000e+00 3.9763696668970483e-04 4.0357711528088407e-03 0.0000000000000000e+00 0.0000000000000000e+00 0.0000000000000000e+00 0.0000000000000000e+00  2.8894251927364550e-03 2.0869248992646868e-04 0.0000000000000000e+00 2.0869248992646868e-04 3.5524221957206575e-03 0.0000000000000000e+00 0.0000000000000000e+00 0.0000000000000000e+00 0.0000000000000000e+00  2.9975260692799172e-03 2.4421276802522772e-04 0.0000000000000000e+00 2.4421276802522772e-04 3.3957330464387085e-03 0.0000000000000000e+00 0.0000000000000000e+00 0.0000000000000000e+00 0.0000000000000000e+00  2.8812816079742030e-03 2.4400110627706669e-04 0.0000000000000000e+00 2.4400110627706669e-04 2.9882856998048979e-03 0.0000000000000000e+00 0.0000000000000000e+00 0.0000000000000000e+00 0.0000000000000000e+00  2.3701200466321880e-03 1.6086811586851286e-04 0.0000000000000000e+00 1.6086811586851286e-04 2.5906285871622752e-03 0.0000000000000000e+00 0.0000000000000000e+00 0.0000000000000000e+00 0.0000000000000000e+00  2.6799592297052080e-03 2.5853320628142951e-05 0.0000000000000000e+00 2.5853320628142951e-05 2.7369078934588406e-03 0.0000000000000000e+00 0.0000000000000000e+00 0.0000000000000000e+00 0.0000000000000000e+00  2.7791272318718994e-03 -2.6220848976011775e-05 0.0000000000000000e+00 -2.6220848976011775e-05 2.6710150754275471e-03 0.0000000000000000e+00 0.0000000000000000e+00 0.0000000000000000e+00 0.0000000000000000e+00  2.5938844691192875e-03 1.2432637832367264e-04 0.0000000000000000e+00 1.2432637832367264e-04 2.4550251778041520e-03 0.0000000000000000e+00 0.0000000000000000e+00 0.0000000000000000e+00 0.0000000000000000e+00  2.6264875268068970e-03 -4.6965442177224064e-05 0.0000000000000000e+00 -4.6965442177224064e-05 2.6107716836756422e-03 0.0000000000000000e+00 0.0000000000000000e+00 0.0000000000000000e+00 0.0000000000000000e+00  2.5974049950162324e-03 2.3184606700057997e-05 0.0000000000000000e+00 2.3184606700057997e-05 2.4610570316689461e-03 0.0000000000000000e+00 0.0000000000000000e+00 0.0000000000000000e+00 0.0000000000000000e+00  2.5431649497812204e-03 8.3255183657015650e-06 0.0000000000000000e+00 8.3255183657015650e-06 2.5044452838589525e-03 0.0000000000000000e+00 0.0000000000000000e+00 0.0000000000000000e+00 0.0000000000000000e+00  2.5237625591938684e-03 -1.2375661065168993e-05 0.0000000000000000e+00 -1.2375661065168993e-05 2.4694095292711478e-03 0.0000000000000000e+00 0.0000000000000000e+00 0.0000000000000000e+00 0.0000000000000000e+00  2.5093930763927267e-03 -1.0018078223658944e-05 0.0000000000000000e+00 -1.0018078223658944e-05 2.4564791887357875e-03 0.0000000000000000e+00 0.0000000000000000e+00 0.0000000000000000e+00 0.0000000000000000e+00  2.4963950196393702e-03 -1.2175349868000500e-05 0.0000000000000000e+00 -1.2175349868000500e-05 2.4404908377856772e-03 0.0000000000000000e+00 0.0000000000000000e+00 0.0000000000000000e+00 0.0000000000000000e+00  2.4877961191138820e-03 -1.0276446740355757e-05 0.0000000000000000e+00 -1.0276446740355757e-05 2.4290764479700726e-03 0.0000000000000000e+00 0.0000000000000000e+00 0.0000000000000000e+00 0.0000000000000000e+00  2.4807002603861612e-03 -8.9084055115817620e-06 0.0000000000000000e+00 -8.9084055115817620e-06 2.4189952783688533e-03 0.0000000000000000e+00 0.0000000000000000e+00 0.0000000000000000e+00 0.0000000000000000e+00  2.4764251726014856e-03 -6.7786302896779515e-06 0.0000000000000000e+00 -6.7786302896779515e-06 2.4111815166924112e-03 0.0000000000000000e+00 0.0000000000000000e+00 0.0000000000000000e+00 0.0000000000000000e+00  2.4738989083950024e-03 -3.9389423923775346e-06 0.0000000000000000e+00 -3.9389423923775346e-06 2.4056972714052746e-03 0.0000000000000000e+00 0.0000000000000000e+00 0.0000000000000000e+00 0.0000000000000000e+00  2.4728575911540569e-03 -5.8166331470324475e-07 0.0000000000000000e+00 -5.8166331470324475e-07 2.4032378395802100e-03 0.0000000000000000e+00 0.0000000000000000e+00 0.0000000000000000e+00 0.0000000000000000e+00  2.4730256754959541e-03 2.8722258193385789e-06 0.0000000000000000e+00 2.8722258193385789e-06 2.4040059641008749e-03 0.0000000000000000e+00 0.0000000000000000e+00 0.0000000000000000e+00 0.0000000000000000e+00  2.4745190540461539e-03 5.9287492249459413e-06 0.0000000000000000e+00 5.9287492249459413e-06 2.4080301299549342e-03 0.0000000000000000e+00 0.0000000000000000e+00 0.0000000000000000e+00 0.0000000000000000e+00  2.4774670017180811e-03 8.1530383354437448e-06 0.0000000000000000e+00 8.1530383354437448e-06 2.4147876664797506e-03 0.0000000000000000e+00 0.0000000000000000e+00 0.0000000000000000e+00 0.0000000000000000e+00  2.4827408165398394e-03 8.9806972259070264e-06 0.0000000000000000e+00 8.9806972259070264e-06 2.4244051157716337e-03 0.0000000000000000e+00 0.0000000000000000e+00 0.0000000000000000e+00 0.0000000000000000e+00  2.4895007576210453e-03 8.8277678719067831e-06 0.0000000000000000e+00 8.8277678719067831e-06 2.4349299909041757e-03 0.0000000000000000e+00 0.0000000000000000e+00 0.0000000000000000e+00 0.0000000000000000e+00  2.5019171201803411e-03 4.2742817225119250e-06 0.0000000000000000e+00 4.2742817225119250e-06 2.4488136169370008e-03 0.0000000000000000e+00 0.0000000000000000e+00 0.0000000000000000e+00 0.0000000000000000e+00  2.5144963170140302e-03 3.3108991296305678e-06 0.0000000000000000e+00 3.3108991296305678e-06 2.4602559165880483e-03 0.0000000000000000e+00 0.0000000000000000e+00 0.0000000000000000e+00 0.0000000000000000e+00  2.5408028767078769e-03 -7.0616409719933985e-06 0.0000000000000000e+00 -7.0616409719933985e-06 2.4711356052287202e-03 0.0000000000000000e+00 0.0000000000000000e+00 0.0000000000000000e+00 0.0000000000000000e+00  2.5744565039186509e-03 1.7016688863342360e-06 0.0000000000000000e+00 1.7016688863342360e-06 2.5120592781103118e-03 0.0000000000000000e+00 0.0000000000000000e+00 0.0000000000000000e+00 0.0000000000000000e+00  2.5858963548544720e-03 3.0469412747577701e-06 0.0000000000000000e+00 3.0469412747577701e-06 2.5676784986749181e-03 0.0000000000000000e+00 0.0000000000000000e+00 0.0000000000000000e+00 0.0000000000000000e+00  2.6512357962699415e-03 -7.3980220530635440e-05 0.0000000000000000e+00 -7.3980220530635440e-05 2.5650988046648912e-03 0.0000000000000000e+00 0.0000000000000000e+00 0.0000000000000000e+00 0.0000000000000000e+00  2.7695936462048235e-03 -8.0378843989875202e-06 0.0000000000000000e+00 -8.0378843989875202e-06 2.7278071750113466e-03 0.0000000000000000e+00 0.0000000000000000e+00 0.0000000000000000e+00 0.0000000000000000e+00  2.8402022564639837e-03 -3.5015153134791397e-05 0.0000000000000000e+00 -3.5015153134791397e-05 2.8234433486233972e-03 0.0000000000000000e+00 0.0000000000000000e+00 0.0000000000000000e+00 0.0000000000000000e+00  2.7503963967720757e-03 -8.1514457501855132e-05 0.0000000000000000e+00 -8.1514457501855132e-05 2.7761096776708193e-03 0.0000000000000000e+00 0.0000000000000000e+00 0.0000000000000000e+00 0.0000000000000000e+00  2.9829377692002540e-03 -2.3232387179525192e-04 0.0000000000000000e+00 -2.3232387179525192e-04 3.0434005109975459e-03 0.0000000000000000e+00 0.0000000000000000e+00 0.0000000000000000e+00 0.0000000000000000e+00  3.2481014276009084e-03 -2.0556339019021195e-04 0.0000000000000000e+00 -2.0556339019021195e-04 3.6825455127043501e-03 0.0000000000000000e+00 0.0000000000000000e+00 0.0000000000000000e+00 0.0000000000000000e+00  3.0402183790120781e-03 -1.8775299026753709e-04 0.0000000000000000e+00 -1.8775299026753709e-04 3.7225637287760355e-03 0.0000000000000000e+00 0.0000000000000000e+00 0.0000000000000000e+00 0.0000000000000000e+00  3.1610751406027328e-03 -3.8506595317810836e-04 0.0000000000000000e+00 -3.8506595317810836e-04 4.0549565090224936e-03 0.0000000000000000e+00 0.0000000000000000e+00 0.0000000000000000e+00 0.0000000000000000e+00  3.1389923318244097e-03 -4.3510826994091030e-04 0.0000000000000000e+00 -4.3510826994091030e-04 4.4426329619848791e-03 0.0000000000000000e+00 0.0000000000000000e+00 0.0000000000000000e+00 0.0000000000000000e+00  3.0575800015170194e-03 -5.4967795336595328e-04 0.0000000000000000e+00 -5.4967795336595328e-04 4.8050666255342774e-03 0.0000000000000000e+00 0.0000000000000000e+00 0.0000000000000000e+00 0.0000000000000000e+00  3.1048228841624782e-03 -6.3632437305667069e-04 0.0000000000000000e+00 -6.3632437305667069e-04 5.2419219310067692e-03 0.0000000000000000e+00 0.0000000000000000e+00 0.0000000000000000e+00 0.0000000000000000e+00  3.3361701754611134e-03 -6.4135730608984092e-04 0.0000000000000000e+00 -6.4135730608984092e-04 5.6513707438663012e-03 0.0000000000000000e+00 0.0000000000000000e+00 0.0000000000000000e+00 0.0000000000000000e+00  3.7687866746120178e-03 -5.7440204879113336e-04 0.0000000000000000e+00 -5.7440204879113336e-04 5.9596643992552772e-03 0.0000000000000000e+00 0.0000000000000000e+00 0.0000000000000000e+00 0.0000000000000000e+00  4.3841710114865956e-03 -4.9025129293794412e-04 0.0000000000000000e+00 -4.9025129293794412e-04 6.2037765436282312e-03 0.0000000000000000e+00 0.0000000000000000e+00 0.0000000000000000e+00 0.0000000000000000e+00  5.1438173997456604e-03 -4.1450518856543086e-04 0.0000000000000000e+00 -4.1450518856543086e-04 6.4842723587205768e-03 0.0000000000000000e+00 0.0000000000000000e+00 0.0000000000000000e+00 0.0000000000000000e+00  5.9396403546411449e-03 -3.4177455984696283e-04 0.0000000000000000e+00 -3.4177455984696283e-04 6.8786243139821960e-03 0.0000000000000000e+00 0.0000000000000000e+00 0.0000000000000000e+00 0.0000000000000000e+00  6.4400447672093228e-03 -3.1202998805973832e-04 0.0000000000000000e+00 -3.1202998805973832e-04 6.9877932927370212e-03 0.0000000000000000e+00 0.0000000000000000e+00 0.0000000000000000e+00 0.0000000000000000e+00  6.7078255026036338e-03 -4.4817504612562083e-04 0.0000000000000000e+00 -4.4817504612562083e-04 7.0040298438293460e-03 0.0000000000000000e+00 0.0000000000000000e+00 0.0000000000000000e+00 0.0000000000000000e+00  7.1979882700025045e-03 -1.0098036306749382e-04 0.0000000000000000e+00 -1.0098036306749382e-04 7.1804487630151579e-03 0.0000000000000000e+00 0.0000000000000000e+00 0.0000000000000000e+00 0.0000000000000000e+00  7.3156147312201754e-03 -3.7626142728179429e-05 0.0000000000000000e+00 -3.7626142728179429e-05 7.2002362965059210e-03 0.0000000000000000e+00 0.0000000000000000e+00 0.0000000000000000e+00 0.0000000000000000e+00  7.0881272069683371e-03 -1.0115043676147785e-04 0.0000000000000000e+00 -1.0115043676147785e-04 7.1797925746191500e-03 0.0000000000000000e+00 0.0000000000000000e+00 0.0000000000000000e+00 0.0000000000000000e+00  7.1462221174240469e-03 -3.2937775596559145e-05 0.0000000000000000e+00 -3.2937775596559145e-05 7.3044119503129700e-03 0.0000000000000000e+00 0.0000000000000000e+00 0.0000000000000000e+00 0.0000000000000000e+00  7.6237412731061452e-03 -1.2848646780107848e-04 0.0000000000000000e+00 -1.2848646780107848e-04 7.6115037892504978e-03 0.0000000000000000e+00 0.0000000000000000e+00 0.0000000000000000e+00 0.0000000000000000e+00  7.3749689653353255e-03 7.6041730035339335e-05 0.0000000000000000e+00 7.6041730035339335e-05 7.3507143061034884e-03 0.0000000000000000e+00 0.0000000000000000e+00 0.0000000000000000e+00 0.0000000000000000e+00  7.5280964841110834e-03 -7.1236674631940529e-05 0.0000000000000000e+00 -7.1236674631940529e-05 7.6562674843745297e-03 0.0000000000000000e+00 0.0000000000000000e+00 0.0000000000000000e+00 0.0000000000000000e+00  7.5720307774852910e-03 1.8286239784398542e-05 0.0000000000000000e+00 1.8286239784398542e-05 7.5521885765942719e-03 0.0000000000000000e+00 0.0000000000000000e+00 0.0000000000000000e+00 0.0000000000000000e+00  7.5743287609282024e-03 6.5601245072162968e-06 0.0000000000000000e+00 6.5601245072162968e-06 7.6502590179662244e-03 0.0000000000000000e+00 0.0000000000000000e+00 0.0000000000000000e+00 0.0000000000000000e+00  7.5957783489684211e-03 -2.6704617377458389e-06 0.0000000000000000e+00 -2.6704617377458389e-06 7.6434996595781826e-03 0.0000000000000000e+00 0.0000000000000000e+00 0.0000000000000000e+00 0.0000000000000000e+00  7.6104018621325131e-03 3.5928352949917583e-06 0.0000000000000000e+00 3.5928352949917583e-06 7.6606299498795409e-03 0.0000000000000000e+00 0.0000000000000000e+00 0.0000000000000000e+00 0.0000000000000000e+00  7.6227769093506793e-03 3.5100329601458192e-06 0.0000000000000000e+00 3.5100329601458192e-06 7.6693514348523109e-03 0.0000000000000000e+00 0.0000000000000000e+00 0.0000000000000000e+00 0.0000000000000000e+00  7.6338290468425489e-03 6.0343211738350682e-06 0.0000000000000000e+00 6.0343211738350682e-06 7.6774344988653999e-03 0.0000000000000000e+00 0.0000000000000000e+00 0.0000000000000000e+00 0.0000000000000000e+00  7.6414994279557754e-03 6.2890617060546339e-06 0.0000000000000000e+00 6.2890617060546339e-06 7.6834824898284453e-03 0.0000000000000000e+00 0.0000000000000000e+00 0.0000000000000000e+00 0.0000000000000000e+00  7.6478596721688006e-03 5.9526490255300349e-06 0.0000000000000000e+00 5.9526490255300349e-06 7.6879662089556922e-03 0.0000000000000000e+00 0.0000000000000000e+00 0.0000000000000000e+00 0.0000000000000000e+00  7.6527122576669580e-03 4.8753457250380228e-06 0.0000000000000000e+00 4.8753457250380228e-06 7.6905605270574471e-03 0.0000000000000000e+00 0.0000000000000000e+00 0.0000000000000000e+00 0.0000000000000000e+00  7.6565876074766734e-03 3.3848005711822080e-06 0.0000000000000000e+00 3.3848005711822080e-06 7.6914538922540181e-03 0.0000000000000000e+00 0.0000000000000000e+00 0.0000000000000000e+00 0.0000000000000000e+00  7.6597272547219483e-03 1.5764673207427783e-06 0.0000000000000000e+00 1.5764673207427783e-06 7.6905850820261426e-03 0.0000000000000000e+00 0.0000000000000000e+00 0.0000000000000000e+00 0.0000000000000000e+00  7.6624278475075679e-03 -3.9114954521599922e-07 0.0000000000000000e+00 -3.9114954521599922e-07 7.6879986628044465e-03 0.0000000000000000e+00 0.0000000000000000e+00 0.0000000000000000e+00 0.0000000000000000e+00  7.6648983136334281e-03 -2.2665640187814808e-06 0.0000000000000000e+00 -2.2665640187814808e-06 7.6837642736879959e-03 0.0000000000000000e+00 0.0000000000000000e+00 0.0000000000000000e+00 0.0000000000000000e+00  7.6672958055112777e-03 -3.5192989911448009e-06 0.0000000000000000e+00 -3.5192989911448009e-06 7.6779438750661389e-03 0.0000000000000000e+00 0.0000000000000000e+00 0.0000000000000000e+00 0.0000000000000000e+00  7.6699534198520283e-03 -3.1071297190861498e-06 0.0000000000000000e+00 -3.1071297190861498e-06 7.6701511190854395e-03 0.0000000000000000e+00 0.0000000000000000e+00 0.0000000000000000e+00 0.0000000000000000e+00  7.6265639178318212e-03 7.7969447969912049e-06 0.0000000000000000e+00 7.7969447969912049e-06 7.6269004743597128e-03 0.0000000000000000e+00 0.0000000000000000e+00 0.0000000000000000e+00 0.0000000000000000e+00  7.6228007934848966e-03 7.2293567783647327e-06 0.0000000000000000e+00 7.2293567783647327e-06 7.6380109166409443e-03 0.0000000000000000e+00 0.0000000000000000e+00 0.0000000000000000e+00 0.0000000000000000e+00  7.6197606928868136e-03 5.5731350028784619e-06 0.0000000000000000e+00 5.5731350028784619e-06 7.6455757240396103e-03 0.0000000000000000e+00 0.0000000000000000e+00 0.0000000000000000e+00 0.0000000000000000e+00  7.6168718517325385e-03 3.5704512471020211e-06 0.0000000000000000e+00 3.5704512471020211e-06 7.6504556646147187e-03 0.0000000000000000e+00 0.0000000000000000e+00 0.0000000000000000e+00 0.0000000000000000e+00  7.6138663567665845e-03 1.7384008244882575e-06 0.0000000000000000e+00 1.7384008244882575e-06 7.6529529336874661e-03 0.0000000000000000e+00 0.0000000000000000e+00 0.0000000000000000e+00 0.0000000000000000e+00  7.6104840422036796e-03 4.1135900724779933e-07 0.0000000000000000e+00 4.1135900724779933e-07 7.6531599314634720e-03 0.0000000000000000e+00 0.0000000000000000e+00 0.0000000000000000e+00 0.0000000000000000e+00  7.6065261269381299e-03 -2.5761425556391061e-07 0.0000000000000000e+00 -2.5761425556391061e-07 7.6512395951766135e-03 0.0000000000000000e+00 0.0000000000000000e+00 0.0000000000000000e+00 0.0000000000000000e+00  7.6014288283938001e-03 -6.6316633713086617e-10 0.0000000000000000e+00 -6.6316633713086617e-10 7.6470229322125726e-03 0.0000000000000000e+00 0.0000000000000000e+00 0.0000000000000000e+00 0.0000000000000000e+00  7.5955189868920584e-03 7.1409841470983218e-07 0.0000000000000000e+00 7.1409841470983218e-07 7.6413506507973222e-03 0.0000000000000000e+00 0.0000000000000000e+00 0.0000000000000000e+00 0.0000000000000000e+00  7.5862504856353940e-03 3.5635112655054855e-06 0.0000000000000000e+00 3.5635112655054855e-06 7.6320147436027379e-03 0.0000000000000000e+00 0.0000000000000000e+00 0.0000000000000000e+00 0.0000000000000000e+00  7.5787790125056865e-03 2.7043176742405794e-06 0.0000000000000000e+00 2.7043176742405794e-06 7.6240364443896334e-03 0.0000000000000000e+00 0.0000000000000000e+00 0.0000000000000000e+00 0.0000000000000000e+00  7.5595415949887088e-03 1.3380184245474728e-05 0.0000000000000000e+00 1.3380184245474728e-05 7.6051552132500467e-03 0.0000000000000000e+00 0.0000000000000000e+00 0.0000000000000000e+00 0.0000000000000000e+00  7.5577623407221501e-03 -2.8180637132332019e-06 0.0000000000000000e+00 -2.8180637132332019e-06 7.5858512448651822e-03 0.0000000000000000e+00 0.0000000000000000e+00 0.0000000000000000e+00 0.0000000000000000e+00  7.5391308667426453e-03 3.3394456170841443e-05 0.0000000000000000e+00 3.3394456170841443e-05 7.5754078959927671e-03 0.0000000000000000e+00 0.0000000000000000e+00 0.0000000000000000e+00 0.0000000000000000e+00  7.4993260527513135e-03 4.7767784565568761e-05 0.0000000000000000e+00 4.7767784565568761e-05 7.4944591499553305e-03 0.0000000000000000e+00 0.0000000000000000e+00 0.0000000000000000e+00 0.0000000000000000e+00  7.6117420121663776e-03 -5.2676715957495298e-05 0.0000000000000000e+00 -5.2676715957495298e-05 7.6225306148631454e-03 0.0000000000000000e+00 0.0000000000000000e+00 0.0000000000000000e+00 0.0000000000000000e+00  7.4555895451292112e-03 2.1993831700963155e-04 0.0000000000000000e+00 2.1993831700963155e-04 7.5508261455731378e-03 0.0000000000000000e+00 0.0000000000000000e+00 0.0000000000000000e+00 0.0000000000000000e+00  7.2965291571825729e-03 1.1123544542614583e-04 0.0000000000000000e+00 1.1123544542614583e-04 7.1190972276483945e-03 0.0000000000000000e+00 0.0000000000000000e+00 0.0000000000000000e+00 0.0000000000000000e+00  7.9452934100204941e-03 -4.6835407945470869e-04 0.0000000000000000e+00 -4.6835407945470869e-04 7.7854739053796586e-03 0.0000000000000000e+00 0.0000000000000000e+00 0.0000000000000000e+00 0.0000000000000000e+00  7.6644320726814343e-03 3.4487369429957252e-04 0.0000000000000000e+00 3.4487369429957252e-04 8.5780238175886883e-03 0.0000000000000000e+00 0.0000000000000000e+00 0.0000000000000000e+00 0.0000000000000000e+00  5.1143103959245591e-03 1.7444539437378344e-03 0.0000000000000000e+00 1.7444539437378344e-03 7.4091475848474331e-03 0.0000000000000000e+00 0.0000000000000000e+00 0.0000000000000000e+00 0.0000000000000000e+00  1.5106139103656419e-03 -5.9381634808004227e-04 0.0000000000000000e+00 -5.9381634808004227e-04 5.2217831174305018e-03 0.0000000000000000e+00 0.0000000000000000e+00 0.0000000000000000e+00 0.0000000000000000e+00  5.7859920364348159e-04 -3.7455625226451576e-03 0.0000000000000000e+00 -3.7455625226451576e-03 8.9663073764450815e-03 0.0000000000000000e+00 0.0000000000000000e+00 0.0000000000000000e+00 0.0000000000000000e+00  -1.9172887079113312e-03 -1.9951604764002887e-03 0.0000000000000000e+00 -1.9951604764002887e-03 1.2127703510894294e-02 0.0000000000000000e+00 0.0000000000000000e+00 0.0000000000000000e+00 0.0000000000000000e+00  -4.7956862950423538e-03 -1.4266334858863193e-04 0.0000000000000000e+00 -1.4266334858863193e-04 1.1807044454041706e-02 0.0000000000000000e+00 0.0000000000000000e+00 0.0000000000000000e+00 0.0000000000000000e+00  -7.9344775454457100e-03 9.7807592343415154e-04 0.0000000000000000e+00 9.7807592343415154e-04 9.0562931424865191e-03 0.0000000000000000e+00 0.0000000000000000e+00 0.0000000000000000e+00 0.0000000000000000e+00  -1.1861115993201221e-02 1.5762490856126102e-03 0.0000000000000000e+00 1.5762490856126102e-03 5.2031817863095369e-03 0.0000000000000000e+00 0.0000000000000000e+00 0.0000000000000000e+00 0.0000000000000000e+00  -1.5192428805771570e-02 1.3902575036203371e-03 0.0000000000000000e+00 1.3902575036203371e-03 2.0097264973478650e-03 0.0000000000000000e+00 0.0000000000000000e+00 0.0000000000000000e+00 0.0000000000000000e+00  -1.5889934243709627e-02 6.1707736158963101e-04 0.0000000000000000e+00 6.1707736158963101e-04 1.4483544908465457e-03 0.0000000000000000e+00 0.0000000000000000e+00 0.0000000000000000e+00 0.0000000000000000e+00  -1.3732336508114149e-02 1.7705328090776709e-04 0.0000000000000000e+00 1.7705328090776709e-04 3.7188429132690268e-03 0.0000000000000000e+00 0.0000000000000000e+00 0.0000000000000000e+00 0.0000000000000000e+00  -1.0586100066359011e-02 5.0765594584119983e-04 0.0000000000000000e+00 5.0765594584119983e-04 6.9470870795487411e-03 0.0000000000000000e+00 0.0000000000000000e+00 0.0000000000000000e+00 0.0000000000000000e+00  -8.0464473371655350e-03 1.3403853354626749e-03 0.0000000000000000e+00 1.3403853354626749e-03 9.2885358715847164e-03 0.0000000000000000e+00 0.0000000000000000e+00 0.0000000000000000e+00 0.0000000000000000e+00  -5.8168812768689335e-03 2.7508283436034351e-03 0.0000000000000000e+00 2.7508283436034351e-03 9.5463845834787564e-03 0.0000000000000000e+00 0.0000000000000000e+00 0.0000000000000000e+00 0.0000000000000000e+00  -3.4671362232550559e-03 4.5606862960578106e-03 0.0000000000000000e+00 4.5606862960578106e-03 6.5924692293712417e-03 0.0000000000000000e+00 0.0000000000000000e+00 0.0000000000000000e+00 0.0000000000000000e+00  -2.6889646326545003e-03 2.1506238909669317e-03 0.0000000000000000e+00 2.1506238909669317e-03 2.2759061009453791e-03 0.0000000000000000e+00 0.0000000000000000e+00 0.0000000000000000e+00 0.0000000000000000e+00  -1.3361500232126312e-04 -1.3857806117635570e-03 0.0000000000000000e+00 -1.3857806117635570e-03 2.9832624636323109e-03 0.0000000000000000e+00 0.0000000000000000e+00 0.0000000000000000e+00 0.0000000000000000e+00  2.4818609573255403e-03 -2.1027764720739836e-04 0.0000000000000000e+00 -2.1027764720739836e-04 4.0412011738217984e-03 0.0000000000000000e+00 0.0000000000000000e+00 0.0000000000000000e+00 0.0000000000000000e+00  3.0103610261590580e-03 7.2325901228311124e-04 0.0000000000000000e+00 7.2325901228311124e-04 3.2780902894668975e-03 0.0000000000000000e+00 0.0000000000000000e+00 0.0000000000000000e+00 0.0000000000000000e+00  2.1153967733631767e-03 2.4716010116924449e-04 0.0000000000000000e+00 2.4716010116924449e-04 2.1042995079817821e-03 0.0000000000000000e+00 0.0000000000000000e+00 0.0000000000000000e+00 0.0000000000000000e+00  2.3241438612981460e-03 -1.0856666987251982e-04 0.0000000000000000e+00 -1.0856666987251982e-04 2.6331598942682570e-03 0.0000000000000000e+00 0.0000000000000000e+00 0.0000000000000000e+00 0.0000000000000000e+00  2.7327886113980983e-03 4.6600380685438835e-05 0.0000000000000000e+00 4.6600380685438835e-05 2.6721440500653052e-03 0.0000000000000000e+00 0.0000000000000000e+00 0.0000000000000000e+00 0.0000000000000000e+00  2.5263139017762145e-03 9.9245079742775442e-05 0.0000000000000000e+00 9.9245079742775442e-05 2.3929296489521279e-03 0.0000000000000000e+00 0.0000000000000000e+00 0.0000000000000000e+00 0.0000000000000000e+00  2.5525907776281298e-03 -4.8567058354883371e-06 0.0000000000000000e+00 -4.8567058354883371e-06 2.5581806526896243e-03 0.0000000000000000e+00 0.0000000000000000e+00 0.0000000000000000e+00 0.0000000000000000e+00  2.5323852584206775e-03 2.9337242538406423e-05 0.0000000000000000e+00 2.9337242538406423e-05 2.4769264445364766e-03 0.0000000000000000e+00 0.0000000000000000e+00 0.0000000000000000e+00 0.0000000000000000e+00  2.5044621101138515e-03 -6.1490308148498511e-06 0.0000000000000000e+00 -6.1490308148498511e-06 2.4560619695265370e-03 0.0000000000000000e+00 0.0000000000000000e+00 0.0000000000000000e+00 0.0000000000000000e+00  2.5010580715688581e-03 1.1322350591222804e-06 0.0000000000000000e+00 1.1322350591222804e-06 2.4423712035595911e-03 0.0000000000000000e+00 0.0000000000000000e+00 0.0000000000000000e+00 0.0000000000000000e+00  2.4876753233188113e-03 -2.8338916151595398e-06 0.0000000000000000e+00 -2.8338916151595398e-06 2.4282472728404930e-03 0.0000000000000000e+00 0.0000000000000000e+00 0.0000000000000000e+00 0.0000000000000000e+00  2.4831667120348245e-03 -3.9515940948751709e-06 0.0000000000000000e+00 -3.9515940948751709e-06 2.4188406350870201e-03 0.0000000000000000e+00 0.0000000000000000e+00 0.0000000000000000e+00 0.0000000000000000e+00  2.4797254170932635e-03 -3.9443718717210986e-06 0.0000000000000000e+00 -3.9443718717210986e-06 2.4094863400389286e-03 0.0000000000000000e+00 0.0000000000000000e+00 0.0000000000000000e+00 0.0000000000000000e+00  2.4783398656078258e-03 -2.5771018332451479e-06 0.0000000000000000e+00 -2.5771018332451479e-06 2.4032307129132745e-03 0.0000000000000000e+00 0.0000000000000000e+00 0.0000000000000000e+00 0.0000000000000000e+00  2.4777036150008674e-03 -2.1510318920827565e-07 0.0000000000000000e+00 -2.1510318920827565e-07 2.4002548429596106e-03 0.0000000000000000e+00 0.0000000000000000e+00 0.0000000000000000e+00 0.0000000000000000e+00  2.4777150615806023e-03 2.3361958545985031e-06 0.0000000000000000e+00 2.3361958545985031e-06 2.4012644155617527e-03 0.0000000000000000e+00 0.0000000000000000e+00 0.0000000000000000e+00 0.0000000000000000e+00  2.4782517878577529e-03 4.2496336493098018e-06 0.0000000000000000e+00 4.2496336493098018e-06 2.4059126493787453e-03 0.0000000000000000e+00 0.0000000000000000e+00 0.0000000000000000e+00 0.0000000000000000e+00  2.4802123359440884e-03 4.9522689057469011e-06 0.0000000000000000e+00 4.9522689057469011e-06 2.4144690078802809e-03 0.0000000000000000e+00 0.0000000000000000e+00 0.0000000000000000e+00 0.0000000000000000e+00  2.4823126022526262e-03 4.2996419623112489e-06 0.0000000000000000e+00 4.2996419623112489e-06 2.4240705070866292e-03 0.0000000000000000e+00 0.0000000000000000e+00 0.0000000000000000e+00 0.0000000000000000e+00  2.4901756751583314e-03 -4.1006059326772095e-07 0.0000000000000000e+00 -4.1006059326772079e-07 2.4411833310578725e-03 0.0000000000000000e+00 0.0000000000000000e+00 0.0000000000000000e+00 0.0000000000000000e+00  2.4883649180677146e-03 9.8493432629600423e-07 0.0000000000000000e+00 9.8493432629600423e-07 2.4484522142253517e-03 0.0000000000000000e+00 0.0000000000000000e+00 0.0000000000000000e+00 0.0000000000000000e+00  2.5170204354031831e-03 -3.0242428407224148e-05 0.0000000000000000e+00 -3.0242428407224148e-05 2.4766155933473198e-03 0.0000000000000000e+00 0.0000000000000000e+00 0.0000000000000000e+00 0.0000000000000000e+00  2.5063642876840984e-03 2.6235082462611089e-06 0.0000000000000000e+00 2.6235082462611089e-06 2.4876229351990867e-03 0.0000000000000000e+00 0.0000000000000000e+00 0.0000000000000000e+00 0.0000000000000000e+00  2.5387831227860324e-03 -4.9227287665309835e-05 0.0000000000000000e+00 -4.9227287665309835e-05 2.4595743785628139e-03 0.0000000000000000e+00 0.0000000000000000e+00 0.0000000000000000e+00 0.0000000000000000e+00  2.6931979919214309e-03 -8.5674549523868948e-05 0.0000000000000000e+00 -8.5674549523868948e-05 2.7160455553618219e-03 0.0000000000000000e+00 0.0000000000000000e+00 0.0000000000000000e+00 0.0000000000000000e+00  2.5367819805378823e-03 1.2048897609424276e-04 0.0000000000000000e+00 1.2048897609424276e-04 2.6630499579836102e-03 0.0000000000000000e+00 0.0000000000000000e+00 0.0000000000000000e+00 0.0000000000000000e+00  2.4468887447257641e-03 -1.6817136314484929e-04 0.0000000000000000e+00 -1.6817136314484929e-04 2.3207382849881829e-03 0.0000000000000000e+00 0.0000000000000000e+00 0.0000000000000000e+00 0.0000000000000000e+00  3.2139580590074025e-03 -6.6380095357180700e-04 0.0000000000000000e+00 -6.6380095357180700e-04 3.4813893699778917e-03 0.0000000000000000e+00 0.0000000000000000e+00 0.0000000000000000e+00 0.0000000000000000e+00  2.6735880654333243e-03 2.2726218727400058e-04 0.0000000000000000e+00 2.2726218727400058e-04 4.2303456614443931e-03 0.0000000000000000e+00 0.0000000000000000e+00 0.0000000000000000e+00 0.0000000000000000e+00  -1.5715435314683332e-04 1.3235121266961393e-03 0.0000000000000000e+00 1.3235121266961393e-03 2.8832454718803586e-03 0.0000000000000000e+00 0.0000000000000000e+00 0.0000000000000000e+00 0.0000000000000000e+00  -2.8406519403250180e-03 -2.1962077872543597e-03 0.0000000000000000e+00 -2.1962077872543597e-03 2.1743618909900900e-03 0.0000000000000000e+00 0.0000000000000000e+00 0.0000000000000000e+00 0.0000000000000000e+00  -3.4336672182060930e-03 -4.5444355146334247e-03 0.0000000000000000e+00 -4.5444355146334247e-03 6.6888533501827437e-03 0.0000000000000000e+00 0.0000000000000000e+00 0.0000000000000000e+00 0.0000000000000000e+00  -5.6464027012254761e-03 -2.6997809840573540e-03 0.0000000000000000e+00 -2.6997809840573540e-03 9.6523596266383047e-03 0.0000000000000000e+00 0.0000000000000000e+00 0.0000000000000000e+00 0.0000000000000000e+00  -7.8335447378906284e-03 -1.2805488991181578e-03 0.0000000000000000e+00 -1.2805488991181578e-03 9.4226673611080003e-03 0.0000000000000000e+00 0.0000000000000000e+00 0.0000000000000000e+00 0.0000000000000000e+00  -1.0367893731053122e-02 -4.8676349614294463e-04 0.0000000000000000e+00 -4.8676349614294463e-04 7.0615525944331837e-03 0.0000000000000000e+00 0.0000000000000000e+00 0.0000000000000000e+00 0.0000000000000000e+00  -1.3548699545207850e-02 -1.9941315149407611e-04 0.0000000000000000e+00 -1.9941315149407611e-04 3.8192183078565173e-03 0.0000000000000000e+00 0.0000000000000000e+00 0.0000000000000000e+00 0.0000000000000000e+00  -1.5740235653779057e-02 -6.2690390657724865e-04 0.0000000000000000e+00 -6.2690390657724865e-04 1.5655124808023001e-03 0.0000000000000000e+00 0.0000000000000000e+00 0.0000000000000000e+00 0.0000000000000000e+00  -1.5102423937587735e-02 -1.3632140022608475e-03 0.0000000000000000e+00 -1.3632140022608475e-03 2.0982617860766661e-03 0.0000000000000000e+00 0.0000000000000000e+00 0.0000000000000000e+00 0.0000000000000000e+00  -1.1860324726595371e-02 -1.5312865745591079e-03 0.0000000000000000e+00 -1.5312865745591079e-03 5.2260680429352018e-03 0.0000000000000000e+00 0.0000000000000000e+00 0.0000000000000000e+00 0.0000000000000000e+00  -8.0105510900743328e-03 -9.3066066280884832e-04 0.0000000000000000e+00 -9.3066066280884832e-04 9.0210418945817165e-03 0.0000000000000000e+00 0.0000000000000000e+00 0.0000000000000000e+00 0.0000000000000000e+00  -4.8873341622181861e-03 2.0400252674749415e-04 0.0000000000000000e+00 2.0400252674749415e-04 1.1752479488828030e-02 0.0000000000000000e+00 0.0000000000000000e+00 0.0000000000000000e+00 0.0000000000000000e+00  -1.9537968941596697e-03 2.0383462303749608e-03 0.0000000000000000e+00 2.0383462303749608e-03 1.2072227823576989e-02 0.0000000000000000e+00 0.0000000000000000e+00 0.0000000000000000e+00 0.0000000000000000e+00  5.8487421647685411e-04 3.7450476780872626e-03 0.0000000000000000e+00 3.7450476780872626e-03 8.8450874159228393e-03 0.0000000000000000e+00 0.0000000000000000e+00 0.0000000000000000e+00 0.0000000000000000e+00  1.6245014981016448e-03 5.3870859680836211e-04 0.0000000000000000e+00 5.3870859680836211e-04 5.2198151220314761e-03 0.0000000000000000e+00 0.0000000000000000e+00 0.0000000000000000e+00 0.0000000000000000e+00  5.1811832900586158e-03 -1.7995760531125272e-03 0.0000000000000000e+00 -1.7995760531125272e-03 7.5375612268840427e-03 0.0000000000000000e+00 0.0000000000000000e+00 0.0000000000000000e+00 0.0000000000000000e+00  7.5370582068268769e-03 -3.8987484682586861e-04 0.0000000000000000e+00 -3.8987484682586861e-04 8.4672230304177441e-03 0.0000000000000000e+00 0.0000000000000000e+00 0.0000000000000000e+00 0.0000000000000000e+00  7.9418812267652537e-03 5.1120456383949150e-04 0.0000000000000000e+00 5.1120456383949150e-04 7.6712301762091846e-03 0.0000000000000000e+00 0.0000000000000000e+00 0.0000000000000000e+00 0.0000000000000000e+00  7.2136614495309989e-03 -1.3228466127990742e-04 0.0000000000000000e+00 -1.3228466127990742e-04 7.0609339683237746e-03 0.0000000000000000e+00 0.0000000000000000e+00 0.0000000000000000e+00 0.0000000000000000e+00  7.2321258015335928e-03 -1.5779160445519557e-04 0.0000000000000000e+00 -1.5779160445519557e-04 7.4852702651225242e-03 0.0000000000000000e+00 0.0000000000000000e+00 0.0000000000000000e+00 0.0000000000000000e+00  7.7954750266680285e-03 -3.0191949851020940e-05 0.0000000000000000e+00 -3.0191949851020940e-05 7.7424016406288220e-03 0.0000000000000000e+00 0.0000000000000000e+00 0.0000000000000000e+00 0.0000000000000000e+00  7.4877488968722169e-03 1.1319729519732231e-05 0.0000000000000000e+00 1.1319729519732232e-05 7.4117364814677714e-03 0.0000000000000000e+00 0.0000000000000000e+00 0.0000000000000000e+00 0.0000000000000000e+00  7.6338015377202988e-03 -3.2279271643340885e-05 0.0000000000000000e+00 -3.2279271643340885e-05 7.7124871105236723e-03 0.0000000000000000e+00 0.0000000000000000e+00 0.0000000000000000e+00 0.0000000000000000e+00  7.6130375289218894e-03 4.8011455712594800e-06 0.0000000000000000e+00 4.8011455712594800e-06 7.6257547594632312e-03 0.0000000000000000e+00 0.0000000000000000e+00 0.0000000000000000e+00 0.0000000000000000e+00  7.6165637357821147e-03 -1.8286731642348408e-05 0.0000000000000000e+00 -1.8286731642348408e-05 7.6588574147488852e-03 0.0000000000000000e+00 0.0000000000000000e+00 0.0000000000000000e+00 0.0000000000000000e+00  7.6328846052321105e-03 -2.9362482815991289e-06 0.0000000000000000e+00 -2.9362482815991289e-06 7.6662626976192064e-03 0.0000000000000000e+00 0.0000000000000000e+00 0.0000000000000000e+00 0.0000000000000000e+00  7.6354849330963932e-03 -2.6432455317090009e-06 0.0000000000000000e+00 -2.6432455317090009e-06 7.6745721459951398e-03 0.0000000000000000e+00 0.0000000000000000e+00 0.0000000000000000e+00 0.0000000000000000e+00  7.6426535609406699e-03 2.7625505627658672e-07 0.0000000000000000e+00 2.7625505627658672e-07 7.6830909105864856e-03 0.0000000000000000e+00 0.0000000000000000e+00 0.0000000000000000e+00 0.0000000000000000e+00  7.6471861613204243e-03 7.9832904275683627e-07 0.0000000000000000e+00 7.9832904275683627e-07 7.6879951535285687e-03 0.0000000000000000e+00 0.0000000000000000e+00 0.0000000000000000e+00 0.0000000000000000e+00  7.6514475855141212e-03 8.1495914573141248e-07 0.0000000000000000e+00 8.1495914573141248e-07 7.6914381344099936e-03 0.0000000000000000e+00 0.0000000000000000e+00 0.0000000000000000e+00 0.0000000000000000e+00  7.6548179742408308e-03 4.3123333016206240e-08 0.0000000000000000e+00 4.3123333016206280e-08 7.6927791571341445e-03 0.0000000000000000e+00 0.0000000000000000e+00 0.0000000000000000e+00 0.0000000000000000e+00  7.6577298457891968e-03 -1.2636044975246678e-06 0.0000000000000000e+00 -1.2636044975246678e-06 7.6923040741928711e-03 0.0000000000000000e+00 0.0000000000000000e+00 0.0000000000000000e+00 0.0000000000000000e+00  7.6603341431337423e-03 -2.9702108586517065e-06 0.0000000000000000e+00 -2.9702108586517065e-06 7.6898809572247956e-03 0.0000000000000000e+00 0.0000000000000000e+00 0.0000000000000000e+00 0.0000000000000000e+00  7.6628552640436495e-03 -4.7715302539248604e-06 0.0000000000000000e+00 -4.7715302539248604e-06 7.6854413094585017e-03 0.0000000000000000e+00 0.0000000000000000e+00 0.0000000000000000e+00 0.0000000000000000e+00  7.6655171296944906e-03 -6.1925344584978833e-06 0.0000000000000000e+00 -6.1925344584978833e-06 7.6787383278711261e-03 0.0000000000000000e+00 0.0000000000000000e+00 0.0000000000000000e+00 0.0000000000000000e+00  7.6687893574243987e-03 -6.5429067568092799e-06 0.0000000000000000e+00 -6.5429067568092799e-06 7.6690700235956645e-03 0.0000000000000000e+00 0.0000000000000000e+00 0.0000000000000000e+00 0.0000000000000000e+00  7.6271899930864346e-03 1.2428451610093347e-05 0.0000000000000000e+00 1.2428451610093347e-05 7.6275584736609408e-03 0.0000000000000000e+00 0.0000000000000000e+00 0.0000000000000000e+00 0.0000000000000000e+00  7.6231250547247132e-03 1.0618548879360549e-05 0.0000000000000000e+00 1.0618548879360549e-05 7.6396258300897883e-03 0.0000000000000000e+00 0.0000000000000000e+00 0.0000000000000000e+00 0.0000000000000000e+00  7.6200526763680072e-03 8.4473613306973765e-06 0.0000000000000000e+00 8.4473613306973765e-06 7.6476243982148600e-03 0.0000000000000000e+00 0.0000000000000000e+00 0.0000000000000000e+00 0.0000000000000000e+00  7.6174391196743695e-03 6.2998627624819802e-06 0.0000000000000000e+00 6.2998627624819802e-06 7.6524191771411565e-03 0.0000000000000000e+00 0.0000000000000000e+00 0.0000000000000000e+00 0.0000000000000000e+00  7.6149660645729120e-03 4.5805015074486701e-06 0.0000000000000000e+00 4.5805015074486701e-06 7.6544221967674011e-03 0.0000000000000000e+00 0.0000000000000000e+00 0.0000000000000000e+00 0.0000000000000000e+00  7.6124924504637611e-03 3.5554638494904754e-06 0.0000000000000000e+00 3.5554638494904754e-06 7.6539529889905061e-03 0.0000000000000000e+00 0.0000000000000000e+00 0.0000000000000000e+00 0.0000000000000000e+00  7.6095406710702633e-03 3.5905920432441818e-06 0.0000000000000000e+00 3.5905920432441818e-06 7.6509107353840830e-03 0.0000000000000000e+00 0.0000000000000000e+00 0.0000000000000000e+00 0.0000000000000000e+00  7.6067464726658537e-03 4.3707054215021885e-06 0.0000000000000000e+00 4.3707054215021885e-06 7.6463497431151703e-03 0.0000000000000000e+00 0.0000000000000000e+00 0.0000000000000000e+00 0.0000000000000000e+00  7.6011142604423560e-03 7.7154614017428269e-06 0.0000000000000000e+00 7.7154614017428269e-06 7.6374441840924862e-03 0.0000000000000000e+00 0.0000000000000000e+00 0.0000000000000000e+00 0.0000000000000000e+00  7.6005590432542897e-03 7.6507854595578834e-06 0.0000000000000000e+00 7.6507854595578834e-06 7.6333774892245621e-03 0.0000000000000000e+00 0.0000000000000000e+00 0.0000000000000000e+00 0.0000000000000000e+00  7.5805134340998816e-03 2.4709515096824731e-05 0.0000000000000000e+00 2.4709515096824731e-05 7.6089071556130379e-03 0.0000000000000000e+00 0.0000000000000000e+00 0.0000000000000000e+00 0.0000000000000000e+00  7.6050107199954900e-03 -8.8391112079904901e-06 0.0000000000000000e+00 -8.8391112079904901e-06 7.6242968638355058e-03 0.0000000000000000e+00 0.0000000000000000e+00 0.0000000000000000e+00 0.0000000000000000e+00  7.5256409133959874e-03 9.1963167147787771e-05 0.0000000000000000e+00 9.1963167147787771e-05 7.5623740703662148e-03 0.0000000000000000e+00 0.0000000000000000e+00 0.0000000000000000e+00 0.0000000000000000e+00  7.6234267782958730e-03 -1.0849552112931030e-04 0.0000000000000000e+00 -1.0849552112931030e-04 7.5199211896176061e-03 0.0000000000000000e+00 0.0000000000000000e+00 0.0000000000000000e+00 0.0000000000000000e+00  7.6545475303054136e-03 1.4742828276952707e-04 0.0000000000000000e+00 1.4742828276952707e-04 7.8352833022393778e-03 0.0000000000000000e+00 0.0000000000000000e+00 0.0000000000000000e+00 0.0000000000000000e+00  7.1096210685702016e-03 4.2547516507957357e-04 0.0000000000000000e+00 4.2547516507957357e-04 6.9182770538640812e-03 0.0000000000000000e+00 0.0000000000000000e+00 0.0000000000000000e+00 0.0000000000000000e+00  8.5151705819286432e-03 -1.4493090798981113e-03 0.0000000000000000e+00 -1.4493090798981113e-03 8.1083197297435548e-03 0.0000000000000000e+00 0.0000000000000000e+00 0.0000000000000000e+00 0.0000000000000000e+00  7.5038851436289630e-03 1.3995396526490316e-03 0.0000000000000000e+00 1.3995396526490316e-03 1.0145830604538891e-02 0.0000000000000000e+00 0.0000000000000000e+00 0.0000000000000000e+00 0.0000000000000000e+00  3.4604995513079224e-04 3.6067213340172134e-03 0.0000000000000000e+00 3.6067213340172134e-03 3.8238076725143526e-03 0.0000000000000000e+00 0.0000000000000000e+00 0.0000000000000000e+00 0.0000000000000000e+00  7.4752123207111993e-04 -9.8556371656509829e-03 0.0000000000000000e+00 -9.8556371656509829e-03 4.7523052169988703e-03 0.0000000000000000e+00 0.0000000000000000e+00 0.0000000000000000e+00 0.0000000000000000e+00  4.4971496293698529e-03 -1.4937807298635766e-02 0.0000000000000000e+00 -1.4937807298635766e-02 3.2079520193901423e-02 0.0000000000000000e+00 0.0000000000000000e+00 0.0000000000000000e+00 0.0000000000000000e+00  -3.4381119950732883e-02 2.2183423777283783e-02 0.0000000000000000e+00 2.2183423777283783e-02 3.6181283615098904e-02 0.0000000000000000e+00 0.0000000000000000e+00 0.0000000000000000e+00 0.0000000000000000e+00  -1.4855623624996844e-01 5.2356287634878179e-02 0.0000000000000000e+00 5.2356287634878179e-02 -6.2384595504916159e-02 0.0000000000000000e+00 0.0000000000000000e+00 0.0000000000000000e+00 0.0000000000000000e+00  -2.7698880409327475e-01 3.1587268423296108e-02 0.0000000000000000e+00 3.1587268423296108e-02 -2.1533348078501133e-01 0.0000000000000000e+00 0.0000000000000000e+00 0.0000000000000000e+00 0.0000000000000000e+00  -3.7386289016155788e-01 7.8643926694055028e-03 0.0000000000000000e+00 7.8643926694055028e-03 -3.6009074040412892e-01 0.0000000000000000e+00 0.0000000000000000e+00 0.0000000000000000e+00 0.0000000000000000e+00  -4.3641665587154810e-01 -2.5563870797624439e-03 0.0000000000000000e+00 -2.5563870797624439e-03 -4.7702447072464627e-01 0.0000000000000000e+00 0.0000000000000000e+00 0.0000000000000000e+00 0.0000000000000000e+00  -4.7440423161027856e-01 -4.2177765891511241e-03 0.0000000000000000e+00 -4.2177765891511241e-03 -5.6066798521161820e-01 0.0000000000000000e+00 0.0000000000000000e+00 0.0000000000000000e+00 0.0000000000000000e+00  -4.9341195808900312e-01 -1.3286243703389861e-03 0.0000000000000000e+00 -1.3286243703389861e-03 -6.0599596832412805e-01 0.0000000000000000e+00 0.0000000000000000e+00 0.0000000000000000e+00 0.0000000000000000e+00  -4.9563931082822282e-01 3.2425010872805401e-03 0.0000000000000000e+00 3.2425010872805401e-03 -6.1035433218339630e-01 0.0000000000000000e+00 0.0000000000000000e+00 0.0000000000000000e+00 0.0000000000000000e+00  -4.8120848373824604e-01 6.6272050878885720e-03 0.0000000000000000e+00 6.6272050878885720e-03 -5.7356530696564501e-01 0.0000000000000000e+00 0.0000000000000000e+00 0.0000000000000000e+00 0.0000000000000000e+00  -4.4816210225416481e-01 5.9136367295255900e-03 0.0000000000000000e+00 5.9136367295255900e-03 -4.9763261352137350e-01 0.0000000000000000e+00 0.0000000000000000e+00 0.0000000000000000e+00 0.0000000000000000e+00  -3.9156818612403183e-01 -2.8190351421918825e-03 0.0000000000000000e+00 -2.8190351421918825e-03 -3.8706698432440201e-01 0.0000000000000000e+00 0.0000000000000000e+00 0.0000000000000000e+00 0.0000000000000000e+00  -3.0196316691695202e-01 -2.4732345184386315e-02 0.0000000000000000e+00 -2.4732345184386315e-02 -2.4677939592014261e-01 0.0000000000000000e+00 0.0000000000000000e+00 0.0000000000000000e+00 0.0000000000000000e+00  -1.7748136254509883e-01 -5.0093009741776419e-02 0.0000000000000000e+00 -5.0093009741776419e-02 -9.1940469722967127e-02 0.0000000000000000e+00 0.0000000000000000e+00 0.0000000000000000e+00 0.0000000000000000e+00  -5.5310879371902856e-02 -3.0631329097122642e-02 0.0000000000000000e+00 -3.0631329097122642e-02 2.2942944606036186e-02 0.0000000000000000e+00 0.0000000000000000e+00 0.0000000000000000e+00 0.0000000000000000e+00  -1.7964633581369065e-03 1.2696529379249413e-02 0.0000000000000000e+00 1.2696529379249413e-02 3.4048178753654804e-02 0.0000000000000000e+00 0.0000000000000000e+00 0.0000000000000000e+00 0.0000000000000000e+00  -3.0053473670626856e-03 1.2767703486899465e-02 0.0000000000000000e+00 1.2767703486899465e-02 3.3756075930796129e-03 0.0000000000000000e+00 0.0000000000000000e+00 0.0000000000000000e+00 0.0000000000000000e+00  -5.1821912244370757e-03 -1.8168974746074491e-03 0.0000000000000000e+00 -1.8168974746074491e-03 -1.4557784477609822e-03 0.0000000000000000e+00 0.0000000000000000e+00 0.0000000000000000e+00 0.0000000000000000e+00  1.1757006165817416e-03 -2.3093378014325443e-03 0.0000000000000000e+00 -2.3093378014325443e-03 4.7899998918084826e-03 0.0000000000000000e+00 0.0000000000000000e+00 0.0000000000000000e+00 0.0000000000000000e+00  3.5107032333544117e-03 1.6761559348282952e-03 0.0000000000000000e+00 1.6761559348282952e-03 3.7460838023505669e-03 0.0000000000000000e+00 0.0000000000000000e+00 0.0000000000000000e+00 0.0000000000000000e+00  1.7999202613161287e-03 6.7479788450435592e-05 0.0000000000000000e+00 6.7479788450435592e-05 1.6279416428268386e-03 0.0000000000000000e+00 0.0000000000000000e+00 0.0000000000000000e+00 0.0000000000000000e+00  2.3554294117851616e-03 -2.6388392601167480e-04 0.0000000000000000e+00 -2.6388392601167480e-04 2.7859716991033225e-03 0.0000000000000000e+00 0.0000000000000000e+00 0.0000000000000000e+00 0.0000000000000000e+00  2.6593739489004747e-03 2.4176753924830022e-04 0.0000000000000000e+00 2.4176753924830022e-04 2.5263936393169996e-03 0.0000000000000000e+00 0.0000000000000000e+00 0.0000000000000000e+00 0.0000000000000000e+00  2.4567983495626211e-03 -5.2345408428655291e-05 0.0000000000000000e+00 -5.2345408428655291e-05 2.4796413573970281e-03 0.0000000000000000e+00 0.0000000000000000e+00 0.0000000000000000e+00 0.0000000000000000e+00  2.5407528352609835e-03 3.7139508073494366e-05 0.0000000000000000e+00 3.7139508073494366e-05 2.4754387228582580e-03 0.0000000000000000e+00 0.0000000000000000e+00 0.0000000000000000e+00 0.0000000000000000e+00  2.4798303345688281e-03 8.7974541244815857e-06 0.0000000000000000e+00 8.7974541244815857e-06 2.4364333933449868e-03 0.0000000000000000e+00 0.0000000000000000e+00 0.0000000000000000e+00 0.0000000000000000e+00  2.4850774040764954e-03 4.0541193063325564e-06 0.0000000000000000e+00 4.0541193063325564e-06 2.4363754213409098e-03 0.0000000000000000e+00 0.0000000000000000e+00 0.0000000000000000e+00 0.0000000000000000e+00  2.4776092957052957e-03 -4.5977898482802862e-07 0.0000000000000000e+00 -4.5977898482802862e-07 2.4194276237116414e-03 0.0000000000000000e+00 0.0000000000000000e+00 0.0000000000000000e+00 0.0000000000000000e+00  2.4777497183572942e-03 -2.8167937755777619e-06 0.0000000000000000e+00 -2.8167937755777619e-06 2.4099291681864599e-03 0.0000000000000000e+00 0.0000000000000000e+00 0.0000000000000000e+00 0.0000000000000000e+00  2.4774482759554084e-03 -2.0704479032664905e-06 0.0000000000000000e+00 -2.0704479032664905e-06 2.4014280197294582e-03 0.0000000000000000e+00 0.0000000000000000e+00 0.0000000000000000e+00 0.0000000000000000e+00  2.4775922844648890e-03 7.8140401438525212e-09 0.0000000000000000e+00 7.8140401438525195e-09 2.3978938053687915e-03 0.0000000000000000e+00 0.0000000000000000e+00 0.0000000000000000e+00 0.0000000000000000e+00  2.4771441519394698e-03 2.3624347810718647e-06 0.0000000000000000e+00 2.3624347810718647e-06 2.3989939870259023e-03 0.0000000000000000e+00 0.0000000000000000e+00 0.0000000000000000e+00 0.0000000000000000e+00  2.4770043910553388e-03 4.0012994697427105e-06 0.0000000000000000e+00 4.0012994697427105e-06 2.4053425261310948e-03 0.0000000000000000e+00 0.0000000000000000e+00 0.0000000000000000e+00 0.0000000000000000e+00  2.4758833891224707e-03 3.3730738900436627e-06 0.0000000000000000e+00 3.3730738900436627e-06 2.4137512472098012e-03 0.0000000000000000e+00 0.0000000000000000e+00 0.0000000000000000e+00 0.0000000000000000e+00  2.4804991276841919e-03 9.9051684569860365e-07 0.0000000000000000e+00 9.9051684569860386e-07 2.4316166832036535e-03 0.0000000000000000e+00 0.0000000000000000e+00 0.0000000000000000e+00 0.0000000000000000e+00  2.4709655373842702e-03 9.3659504845399991e-07 0.0000000000000000e+00 9.3659504845399991e-07 2.4311103894741849e-03 0.0000000000000000e+00 0.0000000000000000e+00 0.0000000000000000e+00 0.0000000000000000e+00  2.5109382853129867e-03 -3.0075088879728812e-05 0.0000000000000000e+00 -3.0075088879728812e-05 2.4938829790102303e-03 0.0000000000000000e+00 0.0000000000000000e+00 0.0000000000000000e+00 0.0000000000000000e+00  2.4184442626251127e-03 5.0786935304653311e-05 0.0000000000000000e+00 5.0786935304653311e-05 2.4230560461156016e-03 0.0000000000000000e+00 0.0000000000000000e+00 0.0000000000000000e+00 0.0000000000000000e+00  2.6328351759508776e-03 -2.3164897167996562e-04 0.0000000000000000e+00 -2.3164897167996562e-04 2.5559088337252446e-03 0.0000000000000000e+00 0.0000000000000000e+00 0.0000000000000000e+00 0.0000000000000000e+00  2.4443556861470398e-03 2.4624569146653851e-04 0.0000000000000000e+00 2.4624569146653851e-04 2.7334368091955926e-03 0.0000000000000000e+00 0.0000000000000000e+00 0.0000000000000000e+00 0.0000000000000000e+00  2.1546680804059677e-03 1.9499294282370390e-06 0.0000000000000000e+00 1.9499294282370390e-06 1.8810275501505828e-03 0.0000000000000000e+00 0.0000000000000000e+00 0.0000000000000000e+00 0.0000000000000000e+00  3.7375874404559865e-03 -1.6037394498212884e-03 0.0000000000000000e+00 -1.6037394498212884e-03 3.9915800853873680e-03 0.0000000000000000e+00 0.0000000000000000e+00 0.0000000000000000e+00 0.0000000000000000e+00  1.3701855978791033e-03 2.2784822416795610e-03 0.0000000000000000e+00 2.2784822416795610e-03 4.9517082455331840e-03 0.0000000000000000e+00 0.0000000000000000e+00 0.0000000000000000e+00 0.0000000000000000e+00  -5.3960636660740913e-03 1.7307859306646999e-03 0.0000000000000000e+00 1.7307859306646999e-03 -1.7908347031234959e-03 0.0000000000000000e+00 0.0000000000000000e+00 0.0000000000000000e+00 0.0000000000000000e+00  -2.9684235233183713e-03 -1.2694833237425715e-02 0.0000000000000000e+00 -1.2694833237425715e-02 3.6366037570825520e-03 0.0000000000000000e+00 0.0000000000000000e+00 0.0000000000000000e+00 0.0000000000000000e+00  -1.4383467472173209e-03 -1.2601064484897827e-02 0.0000000000000000e+00 -1.2601064484897827e-02 3.4099008517221932e-02 0.0000000000000000e+00 0.0000000000000000e+00 0.0000000000000000e+00 0.0000000000000000e+00  -5.4431575210064205e-02 3.0335041374251668e-02 0.0000000000000000e+00 3.0335041374251668e-02 2.3342155211574667e-02 0.0000000000000000e+00 0.0000000000000000e+00 0.0000000000000000e+00 0.0000000000000000e+00  -1.7649603626812393e-01 4.9947663544494668e-02 0.0000000000000000e+00 4.9947663544494668e-02 -9.0998744764129544e-02 0.0000000000000000e+00 0.0000000000000000e+00 0.0000000000000000e+00 0.0000000000000000e+00  -3.0095619901643528e-01 2.4796917247223053e-02 0.0000000000000000e+00 2.4796917247223053e-02 -2.4541038601713369e-01 0.0000000000000000e+00 0.0000000000000000e+00 0.0000000000000000e+00 0.0000000000000000e+00  -3.9045356265258263e-01 3.0037646271000953e-03 0.0000000000000000e+00 3.0037646271000953e-03 -3.8521009215002511e-01 0.0000000000000000e+00 0.0000000000000000e+00 0.0000000000000000e+00 0.0000000000000000e+00  -4.4693579600694094e-01 -5.6701452675034019e-03 0.0000000000000000e+00 -5.6701452675034019e-03 -4.9541754299274504e-01 0.0000000000000000e+00 0.0000000000000000e+00 0.0000000000000000e+00 0.0000000000000000e+00  -4.7997712877362697e-01 -6.4318338622066512e-03 0.0000000000000000e+00 -6.4318338622066512e-03 -5.7124899688206232e-01 0.0000000000000000e+00 0.0000000000000000e+00 0.0000000000000000e+00 0.0000000000000000e+00  -4.9451967107540246e-01 -3.1487846738937741e-03 0.0000000000000000e+00 -3.1487846738937741e-03 -6.0813867167900759e-01 0.0000000000000000e+00 0.0000000000000000e+00 0.0000000000000000e+00 0.0000000000000000e+00  -4.9242926077863319e-01 1.3424386328446428e-03 0.0000000000000000e+00 1.3424386328446428e-03 -6.0399495949880055e-01 0.0000000000000000e+00 0.0000000000000000e+00 0.0000000000000000e+00 0.0000000000000000e+00  -4.7353273718055822e-01 4.2009230868011223e-03 0.0000000000000000e+00 4.2009230868011223e-03 -5.5895684972653781e-01 0.0000000000000000e+00 0.0000000000000000e+00 0.0000000000000000e+00 0.0000000000000000e+00  -4.3561944425874172e-01 2.5289364452836592e-03 0.0000000000000000e+00 2.5289364452836592e-03 -4.7567496174874047e-01 0.0000000000000000e+00 0.0000000000000000e+00 0.0000000000000000e+00 0.0000000000000000e+00  -3.7307568030151111e-01 -7.9468150771931281e-03 0.0000000000000000e+00 -7.9468150771931281e-03 -3.5903502569692053e-01 0.0000000000000000e+00 0.0000000000000000e+00 0.0000000000000000e+00 0.0000000000000000e+00  -2.7618926797972121e-01 -3.1741587924087246e-02 0.0000000000000000e+00 -3.1741587924087246e-02 -2.1444012097335452e-01 0.0000000000000000e+00 0.0000000000000000e+00 0.0000000000000000e+00 0.0000000000000000e+00  -1.4791203293930452e-01 -5.2396257215736451e-02 0.0000000000000000e+00 -5.2396257215736451e-02 -6.1771538902603236e-02 0.0000000000000000e+00 0.0000000000000000e+00 0.0000000000000000e+00 0.0000000000000000e+00  -3.4209492524004993e-02 -2.1970537017637272e-02 0.0000000000000000e+00 -2.1970537017637272e-02 3.6229229938826928e-02 0.0000000000000000e+00 0.0000000000000000e+00 0.0000000000000000e+00 0.0000000000000000e+00  4.3874208061194225e-03 1.5038548628160300e-02 0.0000000000000000e+00 1.5038548628160300e-02 3.1881926455493384e-02 0.0000000000000000e+00 0.0000000000000000e+00 0.0000000000000000e+00 0.0000000000000000e+00  7.2909622521837004e-04 9.8144203594864345e-03 0.0000000000000000e+00 9.8144203594864345e-03 4.5457704483773476e-03 0.0000000000000000e+00 0.0000000000000000e+00 0.0000000000000000e+00 0.0000000000000000e+00  4.2840236517043147e-04 -3.7205372365598358e-03 0.0000000000000000e+00 -3.7205372365598358e-03 3.9167201242318221e-03 0.0000000000000000e+00 0.0000000000000000e+00 0.0000000000000000e+00 0.0000000000000000e+00  7.4405055853722681e-03 -1.4336221047031579e-03 0.0000000000000000e+00 -1.4336221047031579e-03 1.0148799942393106e-02 0.0000000000000000e+00 0.0000000000000000e+00 0.0000000000000000e+00 0.0000000000000000e+00  8.5168779540168386e-03 1.4988482139470739e-03 0.0000000000000000e+00 1.4988482139470739e-03 7.9853801504472851e-03 0.0000000000000000e+00 0.0000000000000000e+00 0.0000000000000000e+00 0.0000000000000000e+00  6.9309117742476344e-03 -4.3878838961389086e-04 0.0000000000000000e+00 -4.3878838961389086e-04 6.7786774499707589e-03 0.0000000000000000e+00 0.0000000000000000e+00 0.0000000000000000e+00 0.0000000000000000e+00  7.6105481924766093e-03 -1.4165305234912693e-04 0.0000000000000000e+00 -1.4165305234912695e-04 7.8853401363458957e-03 0.0000000000000000e+00 0.0000000000000000e+00 0.0000000000000000e+00 0.0000000000000000e+00  7.6983567739051864e-03 1.0677911818061373e-04 0.0000000000000000e+00 1.0677911818061373e-04 7.5409744309460226e-03 0.0000000000000000e+00 0.0000000000000000e+00 0.0000000000000000e+00 0.0000000000000000e+00  7.5900999058189705e-03 -9.5041768469855865e-05 0.0000000000000000e+00 -9.5041768469855865e-05 7.6603716202447523e-03 0.0000000000000000e+00 0.0000000000000000e+00 0.0000000000000000e+00 0.0000000000000000e+00  7.6722174763773363e-03 1.1164143584200378e-05 0.0000000000000000e+00 1.1164143584200378e-05 7.6523382066541242e-03 0.0000000000000000e+00 0.0000000000000000e+00 0.0000000000000000e+00 0.0000000000000000e+00  7.6310269868930195e-03 -1.7550101070430142e-05 0.0000000000000000e+00 -1.7550101070430142e-05 7.6542328100834955e-03 0.0000000000000000e+00 0.0000000000000000e+00 0.0000000000000000e+00 0.0000000000000000e+00  7.6476922693065486e-03 -3.9910055120843188e-06 0.0000000000000000e+00 -3.9910055120843188e-06 7.6756643515082908e-03 0.0000000000000000e+00 0.0000000000000000e+00 0.0000000000000000e+00 0.0000000000000000e+00  7.6459855227649165e-03 -5.0566817631548734e-06 0.0000000000000000e+00 -5.0566817631548734e-06 7.6797939750935804e-03 0.0000000000000000e+00 0.0000000000000000e+00 0.0000000000000000e+00 0.0000000000000000e+00  7.6508552684298988e-03 -2.8150367212234374e-06 0.0000000000000000e+00 -2.8150367212234374e-06 7.6878714428174066e-03 0.0000000000000000e+00 0.0000000000000000e+00 0.0000000000000000e+00 0.0000000000000000e+00  7.6533328759177269e-03 -2.5226472153913051e-06 0.0000000000000000e+00 -2.5226472153913051e-06 7.6913684514181907e-03 0.0000000000000000e+00 0.0000000000000000e+00 0.0000000000000000e+00 0.0000000000000000e+00  7.6559962931010703e-03 -2.7035684672437167e-06 0.0000000000000000e+00 -2.7035684672437167e-06 7.6936598456632341e-03 0.0000000000000000e+00 0.0000000000000000e+00 0.0000000000000000e+00 0.0000000000000000e+00  7.6582092462181501e-03 -3.7555671407563381e-06 0.0000000000000000e+00 -3.7555671407563381e-06 7.6937198418635683e-03 0.0000000000000000e+00 0.0000000000000000e+00 0.0000000000000000e+00 0.0000000000000000e+00  7.6604146521146305e-03 -5.3712628824817885e-06 0.0000000000000000e+00 -5.3712628824817885e-06 7.6916856184729293e-03 0.0000000000000000e+00 0.0000000000000000e+00 0.0000000000000000e+00 0.0000000000000000e+00  7.6627451382978587e-03 -7.3097401752329207e-06 0.0000000000000000e+00 -7.3097401752329207e-06 7.6872530165403496e-03 0.0000000000000000e+00 0.0000000000000000e+00 0.0000000000000000e+00 0.0000000000000000e+00  7.6654819703839399e-03 -9.1791038032663261e-06 0.0000000000000000e+00 -9.1791038032663261e-06 7.6800654895826988e-03 0.0000000000000000e+00 0.0000000000000000e+00 0.0000000000000000e+00 0.0000000000000000e+00  7.6690757878018568e-03 -1.0582317926206116e-05 0.0000000000000000e+00 -1.0582317926206116e-05 7.6693908711878067e-03 0.0000000000000000e+00 0.0000000000000000e+00 0.0000000000000000e+00 0.0000000000000000e+00  7.6296248306077317e-03 1.7264068178920432e-05 0.0000000000000000e+00 1.7264068178920432e-05 7.6299926235281097e-03 0.0000000000000000e+00 0.0000000000000000e+00 0.0000000000000000e+00 0.0000000000000000e+00  7.6255386348946692e-03 1.4077620991970666e-05 0.0000000000000000e+00 1.4077620991970666e-05 7.6421677223468413e-03 0.0000000000000000e+00 0.0000000000000000e+00 0.0000000000000000e+00 0.0000000000000000e+00  7.6226195283525915e-03 1.1107777858113655e-05 0.0000000000000000e+00 1.1107777858113655e-05 7.6501192395265032e-03 0.0000000000000000e+00 0.0000000000000000e+00 0.0000000000000000e+00 0.0000000000000000e+00  7.6204262003740919e-03 8.5286271486442369e-06 0.0000000000000000e+00 8.5286271486442369e-06 7.6545241890143131e-03 0.0000000000000000e+00 0.0000000000000000e+00 0.0000000000000000e+00 0.0000000000000000e+00  7.6187645282034333e-03 6.5665093251003764e-06 0.0000000000000000e+00 6.5665093251003764e-06 7.6558905275525774e-03 0.0000000000000000e+00 0.0000000000000000e+00 0.0000000000000000e+00 0.0000000000000000e+00  7.6171901675722038e-03 5.6298093541039993e-06 0.0000000000000000e+00 5.6298093541039993e-06 7.6542726418694310e-03 0.0000000000000000e+00 0.0000000000000000e+00 0.0000000000000000e+00 0.0000000000000000e+00  7.6164645571974391e-03 5.4630207526514860e-06 0.0000000000000000e+00 5.4630207526514860e-06 7.6507947045220915e-03 0.0000000000000000e+00 0.0000000000000000e+00 0.0000000000000000e+00 0.0000000000000000e+00  7.6134056754751517e-03 7.7689048782823936e-06 0.0000000000000000e+00 7.7689048782823936e-06 7.6425308330545037e-03 0.0000000000000000e+00 0.0000000000000000e+00 0.0000000000000000e+00 0.0000000000000000e+00  7.6179405443573206e-03 7.3348034427254177e-06 0.0000000000000000e+00 7.3348034427254177e-06 7.6401750492449882e-03 0.0000000000000000e+00 0.0000000000000000e+00 0.0000000000000000e+00 0.0000000000000000e+00  7.5985778797677392e-03 2.3654451098951918e-05 0.0000000000000000e+00 2.3654451098951918e-05 7.6094387707989026e-03 0.0000000000000000e+00 0.0000000000000000e+00 0.0000000000000000e+00 0.0000000000000000e+00  7.6511793635152623e-03 -1.3846346527828987e-05 0.0000000000000000e+00 -1.3846346527828987e-05 7.6568703974989050e-03 0.0000000000000000e+00 0.0000000000000000e+00 0.0000000000000000e+00 0.0000000000000000e+00  7.4976034361728342e-03 1.4246032848877141e-04 0.0000000000000000e+00 1.4246032848877141e-04 7.4875279813202871e-03 0.0000000000000000e+00 0.0000000000000000e+00 0.0000000000000000e+00 0.0000000000000000e+00  7.8846078611941733e-03 -3.2080922695417976e-04 0.0000000000000000e+00 -3.2080922695417976e-04 7.7968084995131077e-03 0.0000000000000000e+00 0.0000000000000000e+00 0.0000000000000000e+00 0.0000000000000000e+00  7.1702337529904901e-03 8.4660106098742485e-04 0.0000000000000000e+00 8.4660106098742485e-04 7.4420674627146627e-03 0.0000000000000000e+00 0.0000000000000000e+00 0.0000000000000000e+00 0.0000000000000000e+00  7.8283872190341823e-03 -1.2550624881155147e-03 0.0000000000000000e+00 -1.2550624881155147e-03 6.8378412500433774e-03 0.0000000000000000e+00 0.0000000000000000e+00 0.0000000000000000e+00 0.0000000000000000e+00  9.4552345991192714e-03 -4.5249008058028805e-04 0.0000000000000000e+00 -4.5249008058028805e-04 1.2098112027584604e-02 0.0000000000000000e+00 0.0000000000000000e+00 0.0000000000000000e+00 0.0000000000000000e+00  -2.2180023941989033e-03 7.9271218157706564e-03 0.0000000000000000e+00 7.9271218157706564e-03 1.6258944432849256e-03 0.0000000000000000e+00 0.0000000000000000e+00 0.0000000000000000e+00 0.0000000000000000e+00  5.3533684185515561e-03 -2.2401331189670491e-02 0.0000000000000000e+00 -2.2401331189670491e-02 6.1987194756274984e-03 0.0000000000000000e+00 0.0000000000000000e+00 0.0000000000000000e+00 0.0000000000000000e+00  7.6175806946360445e-03 -1.2717599619597727e-02 0.0000000000000000e+00 -1.2717599619597727e-02 7.0982720053714393e-02 0.0000000000000000e+00 0.0000000000000000e+00 0.0000000000000000e+00 0.0000000000000000e+00  -1.1455793552353638e-01 7.8529649427642498e-02 0.0000000000000000e+00 7.8529649427642498e-02 -6.9963187293257253e-03 0.0000000000000000e+00 0.0000000000000000e+00 0.0000000000000000e+00 0.0000000000000000e+00  -2.8671220867279912e-01 3.3522272782280593e-02 0.0000000000000000e+00 3.3522272782280593e-02 -3.4161674799921371e-01 0.0000000000000000e+00 0.0000000000000000e+00 0.0000000000000000e+00 0.0000000000000000e+00  -3.6865509862904383e-01 -5.4330030131020002e-02 0.0000000000000000e+00 -5.4330030131020002e-02 -6.6187012801446321e-01 0.0000000000000000e+00 0.0000000000000000e+00 0.0000000000000000e+00 0.0000000000000000e+00  -2.5367845430101982e-01 -4.8290387023666989e-02 0.0000000000000000e+00 -4.8290387023666989e-02 -5.9006807647776149e-01 0.0000000000000000e+00 0.0000000000000000e+00 0.0000000000000000e+00 0.0000000000000000e+00  -9.1979712983458153e-02 -1.0376485910393174e-02 0.0000000000000000e+00 -1.0376485910393174e-02 -3.1081612839966349e-01 0.0000000000000000e+00 0.0000000000000000e+00 0.0000000000000000e+00 0.0000000000000000e+00  2.8257941424019811e-02 1.6394815282654504e-02 0.0000000000000000e+00 1.6394815282654504e-02 -1.0422012735681546e-01 0.0000000000000000e+00 0.0000000000000000e+00 0.0000000000000000e+00 0.0000000000000000e+00  9.6919371292172957e-02 2.6630715618034494e-02 0.0000000000000000e+00 2.6630715618034494e-02 -8.7362072554694279e-03 0.0000000000000000e+00 0.0000000000000000e+00 0.0000000000000000e+00 0.0000000000000000e+00  1.2467888175181321e-01 2.3391774046991123e-02 0.0000000000000000e+00 2.3391774046991123e-02 2.2970148433172660e-02 0.0000000000000000e+00 0.0000000000000000e+00 0.0000000000000000e+00 0.0000000000000000e+00  1.3181229180342693e-01 1.1440225719469016e-02 0.0000000000000000e+00 1.1440225719469016e-02 2.8742276323919461e-02 0.0000000000000000e+00 0.0000000000000000e+00 0.0000000000000000e+00 0.0000000000000000e+00  1.3144011880418183e-01 -4.0172900059065476e-03 0.0000000000000000e+00 -4.0172900059065476e-03 2.8691868434633748e-02 0.0000000000000000e+00 0.0000000000000000e+00 0.0000000000000000e+00 0.0000000000000000e+00  1.2478329699419398e-01 -1.7271073020410317e-02 0.0000000000000000e+00 -1.7271073020410317e-02 2.4634715092705831e-02 0.0000000000000000e+00 0.0000000000000000e+00 0.0000000000000000e+00 0.0000000000000000e+00  1.0089943494981585e-01 -2.2986520649497209e-02 0.0000000000000000e+00 -2.2986520649497209e-02 -1.9847040473403466e-04 0.0000000000000000e+00 0.0000000000000000e+00 0.0000000000000000e+00 0.0000000000000000e+00  3.9944373948260274e-02 -1.6314191738101298e-02 0.0000000000000000e+00 -1.6314191738101298e-02 -8.0302312901897849e-02 0.0000000000000000e+00 0.0000000000000000e+00 0.0000000000000000e+00 0.0000000000000000e+00  -7.2025347656706207e-02 6.6189926751691617e-03 0.0000000000000000e+00 6.6189926751691617e-03 -2.6470010900386115e-01 0.0000000000000000e+00 0.0000000000000000e+00 0.0000000000000000e+00 0.0000000000000000e+00  -2.2931884103332087e-01 4.2705993999198631e-02 0.0000000000000000e+00 4.2705993999198631e-02 -5.4433302314420262e-01 0.0000000000000000e+00 0.0000000000000000e+00 0.0000000000000000e+00 0.0000000000000000e+00  -3.6731374424197516e-01 6.0775864500738110e-02 0.0000000000000000e+00 6.0775864500738110e-02 -6.8342714912349789e-01 0.0000000000000000e+00 0.0000000000000000e+00 0.0000000000000000e+00 0.0000000000000000e+00  -3.2006186770296335e-01 -1.3842161638558942e-02 0.0000000000000000e+00 -1.3842161638558942e-02 -4.1895372886906623e-01 0.0000000000000000e+00 0.0000000000000000e+00 0.0000000000000000e+00 0.0000000000000000e+00  -1.5109104426544639e-01 -8.2506150929135727e-02 0.0000000000000000e+00 -8.2506150929135727e-02 -5.6031836326212121e-02 0.0000000000000000e+00 0.0000000000000000e+00 0.0000000000000000e+00 0.0000000000000000e+00  -1.0179258727614568e-02 -4.0396805939349571e-03 0.0000000000000000e+00 -4.0396805939349571e-03 7.0780589003265448e-02 0.0000000000000000e+00 0.0000000000000000e+00 0.0000000000000000e+00 0.0000000000000000e+00  4.7448244261845797e-03 2.8747473790010161e-02 0.0000000000000000e+00 2.8747473790010161e-02 1.1787642183063074e-02 0.0000000000000000e+00 0.0000000000000000e+00 0.0000000000000000e+00 0.0000000000000000e+00  -8.5871204850045471e-03 -4.8562959725255038e-03 0.0000000000000000e+00 -4.8562959725255038e-03 -6.2356802803952473e-03 0.0000000000000000e+00 0.0000000000000000e+00 0.0000000000000000e+00 0.0000000000000000e+00  2.2414466314408729e-03 -2.0275590213655248e-03 0.0000000000000000e+00 -2.0275590213655248e-03 6.5419335236172899e-03 0.0000000000000000e+00 0.0000000000000000e+00 0.0000000000000000e+00 0.0000000000000000e+00  3.5093758018847144e-03 2.4037702416011557e-03 0.0000000000000000e+00 2.4037702416011557e-03 2.8165603145668249e-03 0.0000000000000000e+00 0.0000000000000000e+00 0.0000000000000000e+00 0.0000000000000000e+00  1.3826898273664170e-03 -8.5800179326604134e-04 0.0000000000000000e+00 -8.5800179326604134e-04 1.7310606812719243e-03 0.0000000000000000e+00 0.0000000000000000e+00 0.0000000000000000e+00 0.0000000000000000e+00  2.8743196161339791e-03 2.8115126682960078e-04 0.0000000000000000e+00 2.8115126682960078e-04 2.9370539994451510e-03 0.0000000000000000e+00 0.0000000000000000e+00 0.0000000000000000e+00 0.0000000000000000e+00  2.3488341812706037e-03 -1.2152395724448496e-05 0.0000000000000000e+00 -1.2152395724448496e-05 2.2995503637808757e-03 0.0000000000000000e+00 0.0000000000000000e+00 0.0000000000000000e+00 0.0000000000000000e+00  2.5117691792478952e-03 1.9933246247804286e-05 0.0000000000000000e+00 1.9933246247804286e-05 2.5093569977141495e-03 0.0000000000000000e+00 0.0000000000000000e+00 0.0000000000000000e+00 0.0000000000000000e+00  2.4596236337281795e-03 1.2724597481546798e-05 0.0000000000000000e+00 1.2724597481546798e-05 2.4267145664204144e-03 0.0000000000000000e+00 0.0000000000000000e+00 0.0000000000000000e+00 0.0000000000000000e+00  2.4711068134413800e-03 -2.1658992855075935e-06 0.0000000000000000e+00 -2.1658992855075935e-06 2.4290380025512584e-03 0.0000000000000000e+00 0.0000000000000000e+00 0.0000000000000000e+00 0.0000000000000000e+00  2.4697029859635134e-03 -3.0494524451546965e-06 0.0000000000000000e+00 -3.0494524451546965e-06 2.4093523564824985e-03 0.0000000000000000e+00 0.0000000000000000e+00 0.0000000000000000e+00 0.0000000000000000e+00  2.4726593497016941e-03 -2.9844372276885207e-06 0.0000000000000000e+00 -2.9844372276885207e-06 2.4001203721932280e-03 0.0000000000000000e+00 0.0000000000000000e+00 0.0000000000000000e+00 0.0000000000000000e+00  2.4729485980326841e-03 7.1361266788919497e-08 0.0000000000000000e+00 7.1361266788919497e-08 2.3948843330653963e-03 0.0000000000000000e+00 0.0000000000000000e+00 0.0000000000000000e+00 0.0000000000000000e+00  2.4726440482721241e-03 3.4720277639849240e-06 0.0000000000000000e+00 3.4720277639849240e-06 2.3970267523487298e-03 0.0000000000000000e+00 0.0000000000000000e+00 0.0000000000000000e+00 0.0000000000000000e+00  2.4695847190696167e-03 4.5439467250432027e-06 0.0000000000000000e+00 4.5439467250432027e-06 2.4035071060761462e-03 0.0000000000000000e+00 0.0000000000000000e+00 0.0000000000000000e+00 0.0000000000000000e+00  2.4710675643779228e-03 5.8882743505493317e-06 0.0000000000000000e+00 5.8882743505493317e-06 2.4202757722811452e-03 0.0000000000000000e+00 0.0000000000000000e+00 0.0000000000000000e+00 0.0000000000000000e+00  2.4576883128613137e-03 -2.1191311415298673e-06 0.0000000000000000e+00 -2.1191311415298673e-06 2.4185523737943956e-03 0.0000000000000000e+00 0.0000000000000000e+00 0.0000000000000000e+00 0.0000000000000000e+00  2.5002314756952639e-03 -8.9145170480737486e-06 0.0000000000000000e+00 -8.9145170480737486e-06 2.4957008569817351e-03 0.0000000000000000e+00 0.0000000000000000e+00 0.0000000000000000e+00 0.0000000000000000e+00  2.3584911376454297e-03 4.4347900131316510e-05 0.0000000000000000e+00 4.4347900131316510e-05 2.3233097950155412e-03 0.0000000000000000e+00 0.0000000000000000e+00 0.0000000000000000e+00 0.0000000000000000e+00  2.8099072047078994e-03 -3.1100797377803106e-04 0.0000000000000000e+00 -3.1100797377803106e-04 2.8780443895345628e-03 0.0000000000000000e+00 0.0000000000000000e+00 0.0000000000000000e+00 0.0000000000000000e+00  1.6943363920391781e-03 8.9950370969263675e-04 0.0000000000000000e+00 8.9950370969263675e-04 1.9091271799785833e-03 0.0000000000000000e+00 0.0000000000000000e+00 0.0000000000000000e+00 0.0000000000000000e+00  3.5867344246265078e-03 -2.3344202027110925e-03 0.0000000000000000e+00 -2.3344202027110925e-03 2.8940209141514409e-03 0.0000000000000000e+00 0.0000000000000000e+00 0.0000000000000000e+00 0.0000000000000000e+00  2.5556045214859776e-03 1.9611913290136346e-03 0.0000000000000000e+00 1.9611913290136346e-03 6.8678231635793049e-03 0.0000000000000000e+00 0.0000000000000000e+00 0.0000000000000000e+00 0.0000000000000000e+00  -8.5361348420568139e-03 4.9027430174190621e-03 0.0000000000000000e+00 4.9027430174190621e-03 -6.2350353037625410e-03 0.0000000000000000e+00 0.0000000000000000e+00 0.0000000000000000e+00 0.0000000000000000e+00  4.8277722129265437e-03 -2.8534772799346488e-02 0.0000000000000000e+00 -2.8534772799346488e-02 1.1788243471981590e-02 0.0000000000000000e+00 0.0000000000000000e+00 0.0000000000000000e+00 0.0000000000000000e+00  -9.2721358056751090e-03 3.6172069569792636e-03 0.0000000000000000e+00 3.6172069569792636e-03 7.0941020029075985e-02 0.0000000000000000e+00 0.0000000000000000e+00 0.0000000000000000e+00 0.0000000000000000e+00  -1.5013718065992529e-01 8.2289915186239557e-02 0.0000000000000000e+00 8.2289915186239557e-02 -5.4675276199706253e-02 0.0000000000000000e+00 0.0000000000000000e+00 0.0000000000000000e+00 0.0000000000000000e+00  -3.1914327891461403e-01 1.4181249095733438e-02 0.0000000000000000e+00 1.4181249095733438e-02 -4.1685169217655349e-01 0.0000000000000000e+00 0.0000000000000000e+00 0.0000000000000000e+00 0.0000000000000000e+00  -3.6716284659297382e-01 -6.0821679815735448e-02 0.0000000000000000e+00 -6.0821679815735448e-02 -6.8318595868397514e-01 0.0000000000000000e+00 0.0000000000000000e+00 0.0000000000000000e+00 0.0000000000000000e+00  -2.2969154291409188e-01 -4.3120087931481713e-02 0.0000000000000000e+00 -4.3120087931481713e-02 -5.4616233323123831e-01 0.0000000000000000e+00 0.0000000000000000e+00 0.0000000000000000e+00 0.0000000000000000e+00  -7.2345146343317041e-02 -7.0593471911686630e-03 0.0000000000000000e+00 -7.0593471911686630e-03 -2.6685994316111150e-01 0.0000000000000000e+00 0.0000000000000000e+00 0.0000000000000000e+00 0.0000000000000000e+00  3.9903075435982850e-02 1.5957128652525011e-02 0.0000000000000000e+00 1.5957128652525011e-02 -8.1910310359720170e-02 0.0000000000000000e+00 0.0000000000000000e+00 0.0000000000000000e+00 0.0000000000000000e+00  1.0130056897733397e-01 2.2778397788488450e-02 0.0000000000000000e+00 2.2778397788488450e-02 -1.1675462518501536e-03 0.0000000000000000e+00 0.0000000000000000e+00 0.0000000000000000e+00 0.0000000000000000e+00  1.2556655450380477e-01 1.7244108988984621e-02 0.0000000000000000e+00 1.7244108988984621e-02 2.4136742914535356e-02 0.0000000000000000e+00 0.0000000000000000e+00 0.0000000000000000e+00 0.0000000000000000e+00  1.3240076179022209e-01 4.1592290588862236e-03 0.0000000000000000e+00 4.1592290588862236e-03 2.8400125226968657e-02 0.0000000000000000e+00 0.0000000000000000e+00 0.0000000000000000e+00 0.0000000000000000e+00  1.3271452351458318e-01 -1.1167676627264372e-02 0.0000000000000000e+00 -1.1167676627264372e-02 2.8368984983287542e-02 0.0000000000000000e+00 0.0000000000000000e+00 0.0000000000000000e+00 0.0000000000000000e+00  1.2533780836388483e-01 -2.3044361586920949e-02 0.0000000000000000e+00 -2.3044361586920949e-02 2.2310023141406878e-02 0.0000000000000000e+00 0.0000000000000000e+00 0.0000000000000000e+00 0.0000000000000000e+00  9.7237693367615272e-02 -2.6269985398292284e-02 0.0000000000000000e+00 -2.6269985398292284e-02 -9.7403733134839333e-03 0.0000000000000000e+00 0.0000000000000000e+00 0.0000000000000000e+00 0.0000000000000000e+00  2.8215692761176959e-02 -1.6038216996972072e-02 0.0000000000000000e+00 -1.6038216996972072e-02 -1.0557321139879113e-01 0.0000000000000000e+00 0.0000000000000000e+00 0.0000000000000000e+00 0.0000000000000000e+00  -9.2317151352498794e-02 1.0741980084789743e-02 0.0000000000000000e+00 1.0741980084789743e-02 -3.1251096021929714e-01 0.0000000000000000e+00 0.0000000000000000e+00 0.0000000000000000e+00 0.0000000000000000e+00  -2.5413185612193989e-01 4.8637347558179209e-02 0.0000000000000000e+00 4.8637347558179209e-02 -5.9136131863951347e-01 0.0000000000000000e+00 0.0000000000000000e+00 0.0000000000000000e+00 0.0000000000000000e+00  -3.6846961161713382e-01 5.4267841371860887e-02 0.0000000000000000e+00 5.4267841371860887e-02 -6.6124968906921222e-01 0.0000000000000000e+00 0.0000000000000000e+00 0.0000000000000000e+00 0.0000000000000000e+00  -2.8592201337479145e-01 -3.3895300570523729e-02 0.0000000000000000e+00 -3.3895300570523729e-02 -3.3994761291468784e-01 0.0000000000000000e+00 0.0000000000000000e+00 0.0000000000000000e+00 0.0000000000000000e+00  -1.1391781486623362e-01 -7.8427701733089467e-02 0.0000000000000000e+00 -7.8427701733089467e-02 -6.1871807407559154e-03 0.0000000000000000e+00 0.0000000000000000e+00 0.0000000000000000e+00 0.0000000000000000e+00  7.5740685513641494e-03 1.3039266315796810e-02 0.0000000000000000e+00 1.3039266315796810e-02 7.0667216210121592e-02 0.0000000000000000e+00 0.0000000000000000e+00 0.0000000000000000e+00 0.0000000000000000e+00  5.1091308589190400e-03 2.2305048733475771e-02 0.0000000000000000e+00 2.2305048733475771e-02 5.8839140687325635e-03 0.0000000000000000e+00 0.0000000000000000e+00 0.0000000000000000e+00 0.0000000000000000e+00  -2.2964883806820273e-03 -8.0094522775655680e-03 0.0000000000000000e+00 -8.0094522775655680e-03 1.5965209182040210e-03 0.0000000000000000e+00 0.0000000000000000e+00 0.0000000000000000e+00 0.0000000000000000e+00  9.2619963623774438e-03 4.8349843801680654e-04 0.0000000000000000e+00 4.8349843801680654e-04 1.1793312206526848e-02 0.0000000000000000e+00 0.0000000000000000e+00 0.0000000000000000e+00 0.0000000000000000e+00  7.8625545576444140e-03 1.2607054090148313e-03 0.0000000000000000e+00 1.2607054090148313e-03 6.8789661290598256e-03 0.0000000000000000e+00 0.0000000000000000e+00 0.0000000000000000e+00 0.0000000000000000e+00  6.9775075824208771e-03 -8.1752709437951676e-04 0.0000000000000000e+00 -8.1752709437951676e-04 7.3145805012512551e-03 0.0000000000000000e+00 0.0000000000000000e+00 0.0000000000000000e+00 0.0000000000000000e+00  8.0009133429951099e-03 2.8428407382762499e-04 0.0000000000000000e+00 2.8428407382762499e-04 7.9039175732509258e-03 0.0000000000000000e+00 0.0000000000000000e+00 0.0000000000000000e+00 0.0000000000000000e+00  7.5230112359079256e-03 -1.1700535869945504e-04 0.0000000000000000e+00 -1.1700535869945504e-04 7.5037348174765411e-03 0.0000000000000000e+00 0.0000000000000000e+00 0.0000000000000000e+00 0.0000000000000000e+00  7.7014451205461168e-03 2.0026866642218670e-05 0.0000000000000000e+00 2.0026866642218666e-05 7.7073317313664947e-03 0.0000000000000000e+00 0.0000000000000000e+00 0.0000000000000000e+00 0.0000000000000000e+00  7.6413103241307805e-03 -1.5372908490711392e-05 0.0000000000000000e+00 -1.5372908490711392e-05 7.6534624180914475e-03 0.0000000000000000e+00 0.0000000000000000e+00 0.0000000000000000e+00 0.0000000000000000e+00  7.6592671296400773e-03 -4.6356083843450796e-06 0.0000000000000000e+00 -4.6356083843450796e-06 7.6845414512451459e-03 0.0000000000000000e+00 0.0000000000000000e+00 0.0000000000000000e+00 0.0000000000000000e+00  7.6555622738314994e-03 -6.0898263552555140e-06 0.0000000000000000e+00 -6.0898263552555140e-06 7.6847135707817588e-03 0.0000000000000000e+00 0.0000000000000000e+00 0.0000000000000000e+00 0.0000000000000000e+00  7.6586785213112463e-03 -4.3268678860845421e-06 0.0000000000000000e+00 -4.3268678860845421e-06 7.6916094142179979e-03 0.0000000000000000e+00 0.0000000000000000e+00 0.0000000000000000e+00 0.0000000000000000e+00  7.6595028869238550e-03 -4.6461190459412745e-06 0.0000000000000000e+00 -4.6461190459412745e-06 7.6940663952392695e-03 0.0000000000000000e+00 0.0000000000000000e+00 0.0000000000000000e+00 0.0000000000000000e+00  7.6610127386390944e-03 -5.5641373551152286e-06 0.0000000000000000e+00 -5.5641373551152286e-06 7.6951323201877976e-03 0.0000000000000000e+00 0.0000000000000000e+00 0.0000000000000000e+00 0.0000000000000000e+00  7.6625561377529957e-03 -7.3899358045660357e-06 0.0000000000000000e+00 -7.3899358045660357e-06 7.6936179664007787e-03 0.0000000000000000e+00 0.0000000000000000e+00 0.0000000000000000e+00 0.0000000000000000e+00  7.6645706759723665e-03 -9.7087376464531875e-06 0.0000000000000000e+00 -9.7087376464531875e-06 7.6894606663896001e-03 0.0000000000000000e+00 0.0000000000000000e+00 0.0000000000000000e+00 0.0000000000000000e+00  7.6672238168571192e-03 -1.2279849345599291e-05 0.0000000000000000e+00 -1.2279849345599291e-05 7.6821952387073353e-03 0.0000000000000000e+00 0.0000000000000000e+00 0.0000000000000000e+00 0.0000000000000000e+00  7.6709042718253826e-03 -1.4877509795957329e-05 0.0000000000000000e+00 -1.4877509795957329e-05 7.6712266363671167e-03 0.0000000000000000e+00 0.0000000000000000e+00 0.0000000000000000e+00 0.0000000000000000e+00  7.6337803713954350e-03 2.2015192203806993e-05 0.0000000000000000e+00 2.2015192203806993e-05 7.6341320667503007e-03 0.0000000000000000e+00 0.0000000000000000e+00 0.0000000000000000e+00 0.0000000000000000e+00  7.6298689239448674e-03 1.7414184373199467e-05 0.0000000000000000e+00 1.7414184373199467e-05 7.6458363854809827e-03 0.0000000000000000e+00 0.0000000000000000e+00 0.0000000000000000e+00 0.0000000000000000e+00  7.6272162149679679e-03 1.3435276149942476e-05 0.0000000000000000e+00 1.3435276149942476e-05 7.6533327954589050e-03 0.0000000000000000e+00 0.0000000000000000e+00 0.0000000000000000e+00 0.0000000000000000e+00  7.6255902052522915e-03 1.0083322214422610e-05 0.0000000000000000e+00 1.0083322214422610e-05 7.6571468658814786e-03 0.0000000000000000e+00 0.0000000000000000e+00 0.0000000000000000e+00 0.0000000000000000e+00  7.6245819129998685e-03 7.6985774665130196e-06 0.0000000000000000e+00 7.6985774665130196e-06 7.6574689948151640e-03 0.0000000000000000e+00 0.0000000000000000e+00 0.0000000000000000e+00 0.0000000000000000e+00  7.6248496083989644e-03 5.9772870969367796e-06 0.0000000000000000e+00 5.9772870969367796e-06 7.6553901949823972e-03 0.0000000000000000e+00 0.0000000000000000e+00 0.0000000000000000e+00 0.0000000000000000e+00  7.6233002534319373e-03 6.7241509732256020e-06 0.0000000000000000e+00 6.7241509732256020e-06 7.6483455049732871e-03 0.0000000000000000e+00 0.0000000000000000e+00 0.0000000000000000e+00 0.0000000000000000e+00  7.6304215029641565e-03 4.8697061185721628e-06 0.0000000000000000e+00 4.8697061185721628e-06 7.6468524676482361e-03 0.0000000000000000e+00 0.0000000000000000e+00 0.0000000000000000e+00 0.0000000000000000e+00  7.6109429259667745e-03 1.7214814218381064e-05 0.0000000000000000e+00 1.7214814218381064e-05 7.6152029605762624e-03 0.0000000000000000e+00 0.0000000000000000e+00 0.0000000000000000e+00 0.0000000000000000e+00  7.6801591588879755e-03 -1.5188733064566756e-05 0.0000000000000000e+00 -1.5188733064566756e-05 7.6757055527740155e-03 0.0000000000000000e+00 0.0000000000000000e+00 0.0000000000000000e+00 0.0000000000000000e+00  7.4747948886289836e-03 1.2714939908372376e-04 0.0000000000000000e+00 1.2714939908372376e-04 7.4267751016903983e-03 0.0000000000000000e+00 0.0000000000000000e+00 0.0000000000000000e+00 0.0000000000000000e+00  8.1141757018871122e-03 -3.9180993976807549e-04 0.0000000000000000e+00 -3.9180993976807549e-04 8.1211900324399816e-03 0.0000000000000000e+00 0.0000000000000000e+00 0.0000000000000000e+00 0.0000000000000000e+00  6.3392014987759980e-03 1.4332600140725799e-03 0.0000000000000000e+00 1.4332600140725799e-03 6.2965208532534938e-03 0.0000000000000000e+00 0.0000000000000000e+00 0.0000000000000000e+00 0.0000000000000000e+00  1.0595249856690301e-02 -4.4155579507177854e-03 0.0000000000000000e+00 -4.4155579507177854e-03 1.0042937265193874e-02 0.0000000000000000e+00 0.0000000000000000e+00 0.0000000000000000e+00 0.0000000000000000e+00  2.6758253849796824e-03 9.3968491008418024e-03 0.0000000000000000e+00 9.3968491008418024e-03 8.9257223912497258e-03 0.0000000000000000e+00 0.0000000000000000e+00 0.0000000000000000e+00 0.0000000000000000e+00  -1.2313900208907168e-03 -1.3419113084468890e-02 0.0000000000000000e+00 -1.3419113084468890e-02 -7.0450795366725156e-03 0.0000000000000000e+00 0.0000000000000000e+00 0.0000000000000000e+00 0.0000000000000000e+00  2.8689561763195138e-02 -3.5877878401857403e-02 0.0000000000000000e+00 -3.5877878401857403e-02 8.4551326948298755e-02 0.0000000000000000e+00 0.0000000000000000e+00 0.0000000000000000e+00 0.0000000000000000e+00  -1.1407928050769961e-01 1.0723561890357777e-01 0.0000000000000000e+00 1.0723561890357777e-01 -1.6261924309367591e-02 0.0000000000000000e+00 0.0000000000000000e+00 0.0000000000000000e+00 0.0000000000000000e+00  -2.8869853398367046e-01 8.8399582508075104e-03 0.0000000000000000e+00 8.8399582508075104e-03 -4.8252313706758504e-01 0.0000000000000000e+00 0.0000000000000000e+00 0.0000000000000000e+00 0.0000000000000000e+00  -1.8413169354370496e-01 -5.8335909042126384e-02 0.0000000000000000e+00 -5.8335909042126384e-02 -5.1285134969520108e-01 0.0000000000000000e+00 0.0000000000000000e+00 0.0000000000000000e+00 0.0000000000000000e+00  1.0017208883684041e-02 2.8667046713098752e-02 0.0000000000000000e+00 2.8667046713098752e-02 -8.5336235715328265e-02 0.0000000000000000e+00 0.0000000000000000e+00 0.0000000000000000e+00 0.0000000000000000e+00  1.9748467615685175e-02 5.5685128146591253e-02 0.0000000000000000e+00 5.5685128146591253e-02 5.1027424123406127e-02 0.0000000000000000e+00 0.0000000000000000e+00 0.0000000000000000e+00 0.0000000000000000e+00  -4.4473247943544007e-02 9.1013306341885831e-03 0.0000000000000000e+00 9.1013306341885831e-03 -2.3343868578943064e-02 0.0000000000000000e+00 0.0000000000000000e+00 0.0000000000000000e+00 0.0000000000000000e+00  -9.9438951371769987e-02 -2.6872121176247491e-02 0.0000000000000000e+00 -2.6872121176247491e-02 -4.1697293566983477e-02 0.0000000000000000e+00 0.0000000000000000e+00 0.0000000000000000e+00 0.0000000000000000e+00  -1.2327281580705840e-01 -2.9779366164377121e-02 0.0000000000000000e+00 -2.9779366164377121e-02 -1.3984206999847437e-02 0.0000000000000000e+00 0.0000000000000000e+00 0.0000000000000000e+00 0.0000000000000000e+00  -1.2274680513442206e-01 -1.4923530883438322e-02 0.0000000000000000e+00 -1.4923530883438322e-02 4.1872643357543709e-03 0.0000000000000000e+00 0.0000000000000000e+00 0.0000000000000000e+00 0.0000000000000000e+00  -1.1202860569050573e-01 -2.1381762234540637e-03 0.0000000000000000e+00 -2.1381762234540637e-03 4.1256504013099781e-03 0.0000000000000000e+00 0.0000000000000000e+00 0.0000000000000000e+00 0.0000000000000000e+00  -1.0369434231631433e-01 2.6566239943392688e-03 0.0000000000000000e+00 2.6566239943392688e-03 -1.5010235531832648e-03 0.0000000000000000e+00 0.0000000000000000e+00 0.0000000000000000e+00 0.0000000000000000e+00  -1.0357327541099637e-01 3.2474367742063915e-03 0.0000000000000000e+00 3.2474367742063915e-03 -2.3532162770124134e-03 0.0000000000000000e+00 0.0000000000000000e+00 0.0000000000000000e+00 0.0000000000000000e+00  -1.1212269558575969e-01 6.5607199527318184e-03 0.0000000000000000e+00 6.5607199527318184e-03 2.5486705235489029e-03 0.0000000000000000e+00 0.0000000000000000e+00 0.0000000000000000e+00 0.0000000000000000e+00  -1.2463610604846437e-01 1.7416207601459514e-02 0.0000000000000000e+00 1.7416207601459514e-02 4.4047012257791042e-03 0.0000000000000000e+00 0.0000000000000000e+00 0.0000000000000000e+00 0.0000000000000000e+00  -1.2969704865917767e-01 3.2312698785694059e-02 0.0000000000000000e+00 3.2312698785694059e-02 -1.0183089385186467e-02 0.0000000000000000e+00 0.0000000000000000e+00 0.0000000000000000e+00 0.0000000000000000e+00  -1.1255824493682526e-01 3.3444880942703058e-02 0.0000000000000000e+00 3.3444880942703058e-02 -3.9077468924317661e-02 0.0000000000000000e+00 0.0000000000000000e+00 0.0000000000000000e+00 0.0000000000000000e+00  -6.4373581573929792e-02 2.3773325802634382e-03 0.0000000000000000e+00 2.3773325802634382e-03 -3.4606976829173956e-02 0.0000000000000000e+00 0.0000000000000000e+00 0.0000000000000000e+00 0.0000000000000000e+00  1.4296906911433678e-03 -4.8893708130832075e-02 0.0000000000000000e+00 -4.8893708130832075e-02 4.0102376609818580e-02 0.0000000000000000e+00 0.0000000000000000e+00 0.0000000000000000e+00 0.0000000000000000e+00  1.3638550363764490e-02 -4.2118688041331377e-02 0.0000000000000000e+00 -4.2118688041331377e-02 -3.0766207438299702e-02 0.0000000000000000e+00 0.0000000000000000e+00 0.0000000000000000e+00 0.0000000000000000e+00  -1.4861664290016918e-01 4.3694072863644053e-02 0.0000000000000000e+00 4.3694072863644053e-02 -4.4286223024351451e-01 0.0000000000000000e+00 0.0000000000000000e+00 0.0000000000000000e+00 0.0000000000000000e+00  -3.0816751277893706e-01 2.1452474422741008e-02 0.0000000000000000e+00 2.1452474422741008e-02 -5.5430176733340264e-01 0.0000000000000000e+00 0.0000000000000000e+00 0.0000000000000000e+00 0.0000000000000000e+00  -1.6091196400119315e-01 -1.1126090167359008e-01 0.0000000000000000e+00 -1.1126090167359008e-01 -1.0004774468964062e-01 0.0000000000000000e+00 0.0000000000000000e+00 0.0000000000000000e+00 0.0000000000000000e+00  9.0427835418333061e-03 9.0374282904057308e-03 0.0000000000000000e+00 9.0374282904057308e-03 9.2457545066589319e-02 0.0000000000000000e+00 0.0000000000000000e+00 0.0000000000000000e+00 0.0000000000000000e+00  2.8310292297081935e-03 2.9441723782167476e-02 0.0000000000000000e+00 2.9441723782167476e-02 -7.9240029250200977e-04 0.0000000000000000e+00 0.0000000000000000e+00 0.0000000000000000e+00 0.0000000000000000e+00  -8.0330769791844697e-03 -1.2386886218059395e-02 0.0000000000000000e+00 -1.2386886218059395e-02 -2.2727490339918624e-03 0.0000000000000000e+00 0.0000000000000000e+00 0.0000000000000000e+00 0.0000000000000000e+00  6.2256589420133998e-03 4.2615128556813065e-03 0.0000000000000000e+00 4.2615128556813065e-03 7.0303529058931358e-03 0.0000000000000000e+00 0.0000000000000000e+00 0.0000000000000000e+00 0.0000000000000000e+00  8.9826899571452052e-04 -7.5274840739714317e-04 0.0000000000000000e+00 -7.5274840739714317e-04 6.3964139231805666e-04 0.0000000000000000e+00 0.0000000000000000e+00 0.0000000000000000e+00 0.0000000000000000e+00  2.8263713852495673e-03 5.7806221858470785e-05 0.0000000000000000e+00 5.7806221858470785e-05 3.1128507082517948e-03 0.0000000000000000e+00 0.0000000000000000e+00 0.0000000000000000e+00 0.0000000000000000e+00  2.3319572847450652e-03 5.9817222634740545e-05 0.0000000000000000e+00 5.9817222634740545e-05 2.2729273587853956e-03 0.0000000000000000e+00 0.0000000000000000e+00 0.0000000000000000e+00 0.0000000000000000e+00  2.4856453085431284e-03 -1.3182093924177679e-05 0.0000000000000000e+00 -1.3182093924177679e-05 2.5076196601786687e-03 0.0000000000000000e+00 0.0000000000000000e+00 0.0000000000000000e+00 0.0000000000000000e+00  2.4467235689748807e-03 4.6050756406073954e-06 0.0000000000000000e+00 4.6050756406073954e-06 2.4182365882868908e-03 0.0000000000000000e+00 0.0000000000000000e+00 0.0000000000000000e+00 0.0000000000000000e+00  2.4628798042121772e-03 -8.7984661727934990e-06 0.0000000000000000e+00 -8.7984661727934990e-06 2.4142355571255616e-03 0.0000000000000000e+00 0.0000000000000000e+00 0.0000000000000000e+00 0.0000000000000000e+00  2.4627100136146618e-03 -4.6420589520018484e-06 0.0000000000000000e+00 -4.6420589520018484e-06 2.3959586281160918e-03 0.0000000000000000e+00 0.0000000000000000e+00 0.0000000000000000e+00 0.0000000000000000e+00  2.4656898222355974e-03 1.1186020450335991e-07 0.0000000000000000e+00 1.1186020450335990e-07 2.3911202014035644e-03 0.0000000000000000e+00 0.0000000000000000e+00 0.0000000000000000e+00 0.0000000000000000e+00  2.4626738479332131e-03 4.9335902676734116e-06 0.0000000000000000e+00 4.9335902676734116e-06 2.3923805483514280e-03 0.0000000000000000e+00 0.0000000000000000e+00 0.0000000000000000e+00 0.0000000000000000e+00  2.4631384840775594e-03 1.0406707592108952e-05 0.0000000000000000e+00 1.0406707592108952e-05 2.4064348398160585e-03 0.0000000000000000e+00 0.0000000000000000e+00 0.0000000000000000e+00 0.0000000000000000e+00  2.4458653616893037e-03 -1.6869287678226649e-07 0.0000000000000000e+00 -1.6869287678226649e-07 2.4090548575846161e-03 0.0000000000000000e+00 0.0000000000000000e+00 0.0000000000000000e+00 0.0000000000000000e+00  2.4820857047443030e-03 2.3395512939339138e-05 0.0000000000000000e+00 2.3395512939339138e-05 2.4780533918458345e-03 0.0000000000000000e+00 0.0000000000000000e+00 0.0000000000000000e+00 0.0000000000000000e+00  2.3418172619865288e-03 -4.0746519702368562e-05 0.0000000000000000e+00 -4.0746519702368562e-05 2.3002549587963915e-03 0.0000000000000000e+00 0.0000000000000000e+00 0.0000000000000000e+00 0.0000000000000000e+00  2.8398861517355753e-03 -8.0388532396682353e-05 0.0000000000000000e+00 -8.0388532396682353e-05 3.0527185269933095e-03 0.0000000000000000e+00 0.0000000000000000e+00 0.0000000000000000e+00 0.0000000000000000e+00  1.0656587915878434e-03 7.4649850026527805e-04 0.0000000000000000e+00 7.4649850026527805e-04 7.3995038835955736e-04 0.0000000000000000e+00 0.0000000000000000e+00 0.0000000000000000e+00 0.0000000000000000e+00  6.3876985808154485e-03 -4.2060253500586734e-03 0.0000000000000000e+00 -4.2060253500586734e-03 7.3234495853142356e-03 0.0000000000000000e+00 0.0000000000000000e+00 0.0000000000000000e+00 0.0000000000000000e+00  -7.5943594390535862e-03 1.2307020092359266e-02 0.0000000000000000e+00 1.2307020092359266e-02 -1.8268841836041280e-03 0.0000000000000000e+00 0.0000000000000000e+00 0.0000000000000000e+00 0.0000000000000000e+00  2.7572096414197091e-03 -2.8933963690268093e-02 0.0000000000000000e+00 -2.8933963690268093e-02 -1.0925477877674831e-03 0.0000000000000000e+00 0.0000000000000000e+00 0.0000000000000000e+00 0.0000000000000000e+00  1.0131483803953425e-02 -1.0040116060730041e-02 0.0000000000000000e+00 -1.0040116060730041e-02 9.2547807148607872e-02 0.0000000000000000e+00 0.0000000000000000e+00 0.0000000000000000e+00 0.0000000000000000e+00  -1.5922912183056195e-01 1.1127775921769791e-01 0.0000000000000000e+00 1.1127775921769791e-01 -9.7090440300882222e-02 0.0000000000000000e+00 0.0000000000000000e+00 0.0000000000000000e+00 0.0000000000000000e+00  -3.0741111253581338e-01 -2.0890761455039663e-02 0.0000000000000000e+00 -2.0890761455039663e-02 -5.5241455123936312e-01 0.0000000000000000e+00 0.0000000000000000e+00 0.0000000000000000e+00 0.0000000000000000e+00  -1.4888160586764820e-01 -4.4414191678859426e-02 0.0000000000000000e+00 -4.4414191678859426e-02 -4.4515789983477649e-01 0.0000000000000000e+00 0.0000000000000000e+00 0.0000000000000000e+00 0.0000000000000000e+00  1.4242896351602323e-02 4.1394453179702251e-02 0.0000000000000000e+00 4.1394453179702251e-02 -3.2286272239383018e-02 0.0000000000000000e+00 0.0000000000000000e+00 0.0000000000000000e+00 0.0000000000000000e+00  2.5677822594822445e-03 4.8798765087171389e-02 0.0000000000000000e+00 4.8798765087171389e-02 4.0350988191803376e-02 0.0000000000000000e+00 0.0000000000000000e+00 0.0000000000000000e+00 0.0000000000000000e+00  -6.3177357839015555e-02 -2.2635896202458762e-03 0.0000000000000000e+00 -2.2635896202458762e-03 -3.4421950841679962e-02 0.0000000000000000e+00 0.0000000000000000e+00 0.0000000000000000e+00 0.0000000000000000e+00  -1.1154767017953675e-01 -3.3472946229893066e-02 0.0000000000000000e+00 -3.3472946229893066e-02 -3.9261405168077239e-02 0.0000000000000000e+00 0.0000000000000000e+00 0.0000000000000000e+00 0.0000000000000000e+00  -1.2892339206821293e-01 -3.2497448811955133e-02 0.0000000000000000e+00 -3.2497448811955133e-02 -1.0297850716994128e-02 0.0000000000000000e+00 0.0000000000000000e+00 0.0000000000000000e+00 0.0000000000000000e+00  -1.2407175057344659e-01 -1.7608856244120358e-02 0.0000000000000000e+00 -1.7608856244120358e-02 4.5873397320925005e-03 0.0000000000000000e+00 0.0000000000000000e+00 0.0000000000000000e+00 0.0000000000000000e+00  -1.1168224914520225e-01 -6.6294475905979344e-03 0.0000000000000000e+00 -6.6294475905979344e-03 2.9830186167829243e-03 0.0000000000000000e+00 0.0000000000000000e+00 0.0000000000000000e+00 0.0000000000000000e+00  -1.0317775229298276e-01 -3.1381570142155479e-03 0.0000000000000000e+00 -3.1381570142155479e-03 -1.8357455194561694e-03 0.0000000000000000e+00 0.0000000000000000e+00 0.0000000000000000e+00 0.0000000000000000e+00  -1.0328568897331906e-01 -2.3874005914596122e-03 0.0000000000000000e+00 -2.3874005914596122e-03 -1.0809971129949571e-03 0.0000000000000000e+00 0.0000000000000000e+00 0.0000000000000000e+00 0.0000000000000000e+00  -1.1156770603680770e-01 2.4975696472760928e-03 0.0000000000000000e+00 2.4975696472760928e-03 4.3217035559960223e-03 0.0000000000000000e+00 0.0000000000000000e+00 0.0000000000000000e+00 0.0000000000000000e+00  -1.2221033387289844e-01 1.5283716932422827e-02 0.0000000000000000e+00 1.5283716932422827e-02 4.1235772281665887e-03 0.0000000000000000e+00 0.0000000000000000e+00 0.0000000000000000e+00 0.0000000000000000e+00  -1.2263867375925445e-01 3.0044618390780160e-02 0.0000000000000000e+00 3.0044618390780160e-02 -1.4231947424461032e-02 0.0000000000000000e+00 0.0000000000000000e+00 0.0000000000000000e+00 0.0000000000000000e+00  -9.8687576421093381e-02 2.6961736689747350e-02 0.0000000000000000e+00 2.6961736689747350e-02 -4.1876113557765000e-02 0.0000000000000000e+00 0.0000000000000000e+00 0.0000000000000000e+00 0.0000000000000000e+00  -4.3608076199936965e-02 -9.1700312173871243e-03 0.0000000000000000e+00 -9.1700312173871243e-03 -2.3099719881255431e-02 0.0000000000000000e+00 0.0000000000000000e+00 0.0000000000000000e+00 0.0000000000000000e+00  2.0510771200407816e-02 -5.5638257327102994e-02 0.0000000000000000e+00 -5.5638257327102994e-02 5.1210113702004206e-02 0.0000000000000000e+00 0.0000000000000000e+00 0.0000000000000000e+00 0.0000000000000000e+00  1.0137810804123357e-02 -2.8165543238286690e-02 0.0000000000000000e+00 -2.8165543238286690e-02 -8.6673179124654068e-02 0.0000000000000000e+00 0.0000000000000000e+00 0.0000000000000000e+00 0.0000000000000000e+00  -1.8475787228173587e-01 5.8790268811395742e-02 0.0000000000000000e+00 5.8790268811395742e-02 -5.1412546263756476e-01 0.0000000000000000e+00 0.0000000000000000e+00 0.0000000000000000e+00 0.0000000000000000e+00  -2.8820094324030499e-01 -9.3969865450026294e-03 0.0000000000000000e+00 -9.3969865450026294e-03 -4.8115065409171964e-01 0.0000000000000000e+00 0.0000000000000000e+00 0.0000000000000000e+00 0.0000000000000000e+00  -1.1336502751708186e-01 -1.0703389397200447e-01 0.0000000000000000e+00 -1.0703389397200447e-01 -1.5082750445144922e-02 0.0000000000000000e+00 0.0000000000000000e+00 0.0000000000000000e+00 0.0000000000000000e+00  2.8571561463562520e-02 3.6219906312872335e-02 0.0000000000000000e+00 3.6219906312872335e-02 8.3966727973978195e-02 0.0000000000000000e+00 0.0000000000000000e+00 0.0000000000000000e+00 0.0000000000000000e+00  -1.5381940329978530e-03 1.3149375226607989e-02 0.0000000000000000e+00 1.3149375226607989e-02 -7.3334176007247833e-03 0.0000000000000000e+00 0.0000000000000000e+00 0.0000000000000000e+00 0.0000000000000000e+00  2.5539994210138253e-03 -9.3651519618229932e-03 0.0000000000000000e+00 -9.3651519618229932e-03 8.7762705697816863e-03 0.0000000000000000e+00 0.0000000000000000e+00 0.0000000000000000e+00 0.0000000000000000e+00  1.0485339972949540e-02 4.4529375769397743e-03 0.0000000000000000e+00 4.4529375769397743e-03 9.7612282610620039e-03 0.0000000000000000e+00 0.0000000000000000e+00 0.0000000000000000e+00 0.0000000000000000e+00  6.2443170122459743e-03 -1.4623245483210612e-03 0.0000000000000000e+00 -1.4623245483210612e-03 6.2522167407659734e-03 0.0000000000000000e+00 0.0000000000000000e+00 0.0000000000000000e+00 0.0000000000000000e+00  8.1645363781974040e-03 3.6827737971473651e-04 0.0000000000000000e+00 3.6827737971473651e-04 8.2172811709868027e-03 0.0000000000000000e+00 0.0000000000000000e+00 0.0000000000000000e+00 0.0000000000000000e+00  7.5048251833291762e-03 -1.0656691503678214e-04 0.0000000000000000e+00 -1.0656691503678214e-04 7.4416209320128622e-03 0.0000000000000000e+00 0.0000000000000000e+00 0.0000000000000000e+00 0.0000000000000000e+00  7.7193920085210678e-03 1.9793251980714254e-05 0.0000000000000000e+00 1.9793251980714254e-05 7.7358313697079364e-03 0.0000000000000000e+00 0.0000000000000000e+00 0.0000000000000000e+00 0.0000000000000000e+00  7.6516972642502621e-03 -1.4209071742173584e-05 0.0000000000000000e+00 -1.4209071742173584e-05 7.6589287741043047e-03 0.0000000000000000e+00 0.0000000000000000e+00 0.0000000000000000e+00 0.0000000000000000e+00  7.6700983535333452e-03 -3.9043873463991066e-06 0.0000000000000000e+00 -3.9043873463991066e-06 7.6899355452376321e-03 0.0000000000000000e+00 0.0000000000000000e+00 0.0000000000000000e+00 0.0000000000000000e+00  7.6640401434517440e-03 -5.9017877956554170e-06 0.0000000000000000e+00 -5.9017877956554170e-06 7.6892497040638537e-03 0.0000000000000000e+00 0.0000000000000000e+00 0.0000000000000000e+00 0.0000000000000000e+00  7.6657048211099012e-03 -5.0654420463558547e-06 0.0000000000000000e+00 -5.0654420463558547e-06 7.6951529884663767e-03 0.0000000000000000e+00 0.0000000000000000e+00 0.0000000000000000e+00 0.0000000000000000e+00  7.6655540895546994e-03 -6.6909597688657470e-06 0.0000000000000000e+00 -6.6909597688657470e-06 7.6966083730971822e-03 0.0000000000000000e+00 0.0000000000000000e+00 0.0000000000000000e+00 0.0000000000000000e+00  7.6666002030547622e-03 -8.8652080138159625e-06 0.0000000000000000e+00 -8.8652080138159625e-06 7.6960058540842344e-03 0.0000000000000000e+00 0.0000000000000000e+00 0.0000000000000000e+00 0.0000000000000000e+00  7.6681642689694568e-03 -1.1868287204937860e-05 0.0000000000000000e+00 -1.1868287204937860e-05 7.6923025342742774e-03 0.0000000000000000e+00 0.0000000000000000e+00 0.0000000000000000e+00 0.0000000000000000e+00  7.6706409697369507e-03 -1.5330905464731731e-05 0.0000000000000000e+00 -1.5330905464731731e-05 7.6853173069462346e-03 0.0000000000000000e+00 0.0000000000000000e+00 0.0000000000000000e+00 0.0000000000000000e+00  7.6742382489186425e-03 -1.9184479160420517e-05 0.0000000000000000e+00 -1.9184479160420517e-05 7.6745551267283375e-03 0.0000000000000000e+00 0.0000000000000000e+00 0.0000000000000000e+00 0.0000000000000000e+00  7.6395109268576466e-03 2.6508723121823218e-05 0.0000000000000000e+00 2.6508723121823218e-05 7.6398450181932986e-03 0.0000000000000000e+00 0.0000000000000000e+00 0.0000000000000000e+00 0.0000000000000000e+00  7.6358709350850948e-03 2.0514579529244005e-05 0.0000000000000000e+00 2.0514579529244005e-05 7.6507492053636064e-03 0.0000000000000000e+00 0.0000000000000000e+00 0.0000000000000000e+00 0.0000000000000000e+00  7.6335888416405387e-03 1.5314668113980948e-05 0.0000000000000000e+00 1.5314668113980948e-05 7.6575569592744978e-03 0.0000000000000000e+00 0.0000000000000000e+00 0.0000000000000000e+00 0.0000000000000000e+00  7.6324006724712706e-03 1.1074811994106874e-05 0.0000000000000000e+00 1.1074811994106874e-05 7.6604166654030050e-03 0.0000000000000000e+00 0.0000000000000000e+00 0.0000000000000000e+00 0.0000000000000000e+00  7.6326992170977666e-03 7.4436719298167046e-06 0.0000000000000000e+00 7.4436719298167046e-06 7.6602029465910760e-03 0.0000000000000000e+00 0.0000000000000000e+00 0.0000000000000000e+00 0.0000000000000000e+00  7.6319996269563033e-03 6.3620075608108542e-06 0.0000000000000000e+00 6.3620075608108542e-06 7.6549893927096366e-03 0.0000000000000000e+00 0.0000000000000000e+00 0.0000000000000000e+00 0.0000000000000000e+00  7.6396375125250427e-03 2.0785117337204970e-06 0.0000000000000000e+00 2.0785117337204970e-06 7.6539527904265240e-03 0.0000000000000000e+00 0.0000000000000000e+00 0.0000000000000000e+00 0.0000000000000000e+00  7.6207164012597542e-03 1.2865400386218676e-05 0.0000000000000000e+00 1.2865400386218676e-05 7.6246845745573796e-03 0.0000000000000000e+00 0.0000000000000000e+00 0.0000000000000000e+00 0.0000000000000000e+00  7.6970263785751366e-03 -1.7631396275949607e-05 0.0000000000000000e+00 -1.7631396275949607e-05 7.6852779246104393e-03 0.0000000000000000e+00 0.0000000000000000e+00 0.0000000000000000e+00 0.0000000000000000e+00  7.4622247135166389e-03 9.0155807042151349e-05 0.0000000000000000e+00 9.0155807042151349e-05 7.4232474887469526e-03 0.0000000000000000e+00 0.0000000000000000e+00 0.0000000000000000e+00 0.0000000000000000e+00  8.2366555447271998e-03 -3.0840257483317606e-04 0.0000000000000000e+00 -3.0840257483317606e-04 8.2580781553653494e-03 0.0000000000000000e+00 0.0000000000000000e+00 0.0000000000000000e+00 0.0000000000000000e+00  5.7968007075409394e-03 1.2447131422068159e-03 0.0000000000000000e+00 1.2447131422068159e-03 5.5000450651545834e-03 0.0000000000000000e+00 0.0000000000000000e+00 0.0000000000000000e+00 0.0000000000000000e+00  1.3202937400258123e-02 -5.2682052719930711e-03 0.0000000000000000e+00 -5.2682052719930711e-03 1.4081062659749720e-02 0.0000000000000000e+00 0.0000000000000000e+00 0.0000000000000000e+00 0.0000000000000000e+00  -8.7098450060340716e-03 1.6878290462839434e-02 0.0000000000000000e+00 1.6878290462839434e-02 -5.7964712392642032e-03 0.0000000000000000e+00 0.0000000000000000e+00 0.0000000000000000e+00 0.0000000000000000e+00  3.1869235375643318e-02 -5.9865171539664710e-02 0.0000000000000000e+00 -5.9865171539664710e-02 3.5731132303672634e-02 0.0000000000000000e+00 0.0000000000000000e+00 0.0000000000000000e+00 0.0000000000000000e+00  -2.7065184041567589e-02 7.0701772830180809e-02 0.0000000000000000e+00 7.0701772830180809e-02 8.2133995103788174e-02 0.0000000000000000e+00 0.0000000000000000e+00 0.0000000000000000e+00 0.0000000000000000e+00  -2.4046509811756234e-01 6.4130562610375863e-02 0.0000000000000000e+00 6.4130562610375863e-02 -3.8387368472690370e-01 0.0000000000000000e+00 0.0000000000000000e+00 0.0000000000000000e+00 0.0000000000000000e+00  -1.2089060913593061e-01 -5.4917804526578358e-02 0.0000000000000000e+00 -5.4917804526578358e-02 -4.0231066266692378e-01 0.0000000000000000e+00 0.0000000000000000e+00 0.0000000000000000e+00 0.0000000000000000e+00  2.3856966661737037e-02 3.8546957255790965e-02 0.0000000000000000e+00 3.8546957255790965e-02 -4.5402092107403348e-03 0.0000000000000000e+00 0.0000000000000000e+00 0.0000000000000000e+00 0.0000000000000000e+00  -7.2097999004419655e-02 4.2654466909803172e-03 0.0000000000000000e+00 4.2654466909803172e-03 2.3020186781407079e-02 0.0000000000000000e+00 0.0000000000000000e+00 0.0000000000000000e+00 0.0000000000000000e+00  -1.3216708285189496e-01 -9.4721346984931037e-03 0.0000000000000000e+00 -9.4721346984931037e-03 -2.8454449177492160e-02 0.0000000000000000e+00 0.0000000000000000e+00 0.0000000000000000e+00 0.0000000000000000e+00  -1.0920398095931809e-01 1.2319298988833147e-02 0.0000000000000000e+00 1.2319298988833147e-02 -6.5566018824242941e-02 0.0000000000000000e+00 0.0000000000000000e+00 0.0000000000000000e+00 0.0000000000000000e+00  -8.2055894296473988e-02 1.2704088401701251e-02 0.0000000000000000e+00 1.2704088401701251e-02 -1.0302660272649888e-01 0.0000000000000000e+00 0.0000000000000000e+00 0.0000000000000000e+00 0.0000000000000000e+00  -8.2865193653847508e-02 -7.1157964631187167e-03 0.0000000000000000e+00 -7.1157964631187167e-03 -1.1023755793754396e-01 0.0000000000000000e+00 0.0000000000000000e+00 0.0000000000000000e+00 0.0000000000000000e+00  -9.3844289659315960e-02 -1.7204861656074100e-02 0.0000000000000000e+00 -1.7204861656074100e-02 -9.2446028984526973e-02 0.0000000000000000e+00 0.0000000000000000e+00 0.0000000000000000e+00 0.0000000000000000e+00  -1.0036267160729030e-01 -1.3936550799519689e-02 0.0000000000000000e+00 -1.3936550799519689e-02 -7.2045745986289766e-02 0.0000000000000000e+00 0.0000000000000000e+00 0.0000000000000000e+00 0.0000000000000000e+00  -1.0078161788559306e-01 -5.9130738751822457e-03 0.0000000000000000e+00 -5.9130738751822457e-03 -6.0265347525755152e-02 0.0000000000000000e+00 0.0000000000000000e+00 0.0000000000000000e+00 0.0000000000000000e+00  -9.9311233542506233e-02 7.6437329135743204e-04 0.0000000000000000e+00 7.6437329135743204e-04 -5.6185477783347662e-02 0.0000000000000000e+00 0.0000000000000000e+00 0.0000000000000000e+00 0.0000000000000000e+00  -9.9797586202785615e-02 5.8731595788045106e-03 0.0000000000000000e+00 5.8731595788045106e-03 -5.5951179551673245e-02 0.0000000000000000e+00 0.0000000000000000e+00 0.0000000000000000e+00 0.0000000000000000e+00  -1.0260993889946014e-01 1.1889870902053132e-02 0.0000000000000000e+00 1.1889870902053132e-02 -5.9119329216640218e-02 0.0000000000000000e+00 0.0000000000000000e+00 0.0000000000000000e+00 0.0000000000000000e+00  -1.0442078201346570e-01 1.9426106619504089e-02 0.0000000000000000e+00 1.9426106619504089e-02 -6.9200579302378551e-02 0.0000000000000000e+00 0.0000000000000000e+00 0.0000000000000000e+00 0.0000000000000000e+00  -1.0067403670900055e-01 2.3497047113420159e-02 0.0000000000000000e+00 2.3497047113420159e-02 -8.8362863109566384e-02 0.0000000000000000e+00 0.0000000000000000e+00 0.0000000000000000e+00 0.0000000000000000e+00  -9.1353959266726820e-02 1.5232133254459275e-02 0.0000000000000000e+00 1.5232133254459275e-02 -1.0812888473902323e-01 0.0000000000000000e+00 0.0000000000000000e+00 0.0000000000000000e+00 0.0000000000000000e+00  -8.8394841745088576e-02 -5.7461523085322562e-03 0.0000000000000000e+00 -5.7461523085322562e-03 -1.0687488742219649e-01 0.0000000000000000e+00 0.0000000000000000e+00 0.0000000000000000e+00 0.0000000000000000e+00  -1.1192245417741632e-01 -1.2793083888582845e-02 0.0000000000000000e+00 -1.2793083888582845e-02 -7.3176209236778311e-02 0.0000000000000000e+00 0.0000000000000000e+00 0.0000000000000000e+00 0.0000000000000000e+00  -1.4280045589436727e-01 6.5461018629591056e-03 0.0000000000000000e+00 6.5461018629591056e-03 -3.4004555290315500e-02 0.0000000000000000e+00 0.0000000000000000e+00 0.0000000000000000e+00 0.0000000000000000e+00  -1.0207183556503174e-01 1.7784268470862671e-03 0.0000000000000000e+00 1.7784268470862671e-03 1.2084985680639128e-02 0.0000000000000000e+00 0.0000000000000000e+00 0.0000000000000000e+00 0.0000000000000000e+00  2.6120973343265722e-05 -4.3240524713416169e-02 0.0000000000000000e+00 -4.3240524713416169e-02 2.8322754783455827e-02 0.0000000000000000e+00 0.0000000000000000e+00 0.0000000000000000e+00 0.0000000000000000e+00  -8.1150466899997317e-02 2.8401455306282242e-02 0.0000000000000000e+00 2.8401455306282242e-02 -3.1570672642569092e-01 0.0000000000000000e+00 0.0000000000000000e+00 0.0000000000000000e+00 0.0000000000000000e+00  -2.6960962895594093e-01 -1.0763038170601960e-02 0.0000000000000000e+00 -1.0763038170601960e-02 -4.8015280868556043e-01 0.0000000000000000e+00 0.0000000000000000e+00 0.0000000000000000e+00 0.0000000000000000e+00  -9.2039289385436901e-02 -1.1829613389352747e-01 0.0000000000000000e+00 -1.1829613389352747e-01 6.8587799301319244e-03 0.0000000000000000e+00 0.0000000000000000e+00 0.0000000000000000e+00 0.0000000000000000e+00  4.0303152551034713e-02 6.4883057241152370e-02 0.0000000000000000e+00 6.4883057241152370e-02 6.6382706605788933e-02 0.0000000000000000e+00 0.0000000000000000e+00 0.0000000000000000e+00 0.0000000000000000e+00  -1.7330346643987464e-02 -9.5901532496819684e-03 0.0000000000000000e+00 -9.5901532496819684e-03 -1.8473210694411775e-02 0.0000000000000000e+00 0.0000000000000000e+00 0.0000000000000000e+00 0.0000000000000000e+00  6.8612755474501755e-03 1.3573175207982607e-03 0.0000000000000000e+00 1.3573175207982607e-03 9.6063157891148037e-03 0.0000000000000000e+00 0.0000000000000000e+00 0.0000000000000000e+00 0.0000000000000000e+00  1.1511954319046436e-03 4.7625082565866595e-04 0.0000000000000000e+00 4.7625082565866595e-04 7.0935450892929100e-04 0.0000000000000000e+00 0.0000000000000000e+00 0.0000000000000000e+00 0.0000000000000000e+00  2.6983260719504335e-03 -2.6539804168547996e-04 0.0000000000000000e+00 -2.6539804168547996e-04 2.9186589607927854e-03 0.0000000000000000e+00 0.0000000000000000e+00 0.0000000000000000e+00 0.0000000000000000e+00  2.3365372347379739e-03 9.2062755892742822e-05 0.0000000000000000e+00 9.2062755892742822e-05 2.3310337869170534e-03 0.0000000000000000e+00 0.0000000000000000e+00 0.0000000000000000e+00 0.0000000000000000e+00  2.4787942396580168e-03 -2.9535160457850079e-05 0.0000000000000000e+00 -2.9535160457850079e-05 2.4760291792689979e-03 0.0000000000000000e+00 0.0000000000000000e+00 0.0000000000000000e+00 0.0000000000000000e+00  2.4352608398590376e-03 -7.8859809724473481e-06 0.0000000000000000e+00 -7.8859809724473481e-06 2.4002994874660040e-03 0.0000000000000000e+00 0.0000000000000000e+00 0.0000000000000000e+00 0.0000000000000000e+00  2.4555176118542404e-03 -8.6177085164484147e-06 0.0000000000000000e+00 -8.6177085164484147e-06 2.3941492292765426e-03 0.0000000000000000e+00 0.0000000000000000e+00 0.0000000000000000e+00 0.0000000000000000e+00  2.4520732796718047e-03 3.7908861587532430e-08 0.0000000000000000e+00 3.7908861587532430e-08 2.3820712294516278e-03 0.0000000000000000e+00 0.0000000000000000e+00 0.0000000000000000e+00 0.0000000000000000e+00  2.4553223787221619e-03 9.3777632309309130e-06 0.0000000000000000e+00 9.3777632309309130e-06 2.3901004856001439e-03 0.0000000000000000e+00 0.0000000000000000e+00 0.0000000000000000e+00 0.0000000000000000e+00  2.4347722954542860e-03 8.5424534323929822e-06 0.0000000000000000e+00 8.5424534323929822e-06 2.3929097127452356e-03 0.0000000000000000e+00 0.0000000000000000e+00 0.0000000000000000e+00 0.0000000000000000e+00  2.4734017369811628e-03 4.0551144330679263e-05 0.0000000000000000e+00 4.0551144330679263e-05 2.4531145482965121e-03 0.0000000000000000e+00 0.0000000000000000e+00 0.0000000000000000e+00 0.0000000000000000e+00  2.3284519400103296e-03 -9.6452562423651736e-05 0.0000000000000000e+00 -9.6452562423651736e-05 2.3328068895191339e-03 0.0000000000000000e+00 0.0000000000000000e+00 0.0000000000000000e+00 0.0000000000000000e+00  2.7625783437723235e-03 2.6942136828462203e-04 0.0000000000000000e+00 2.6942136828462203e-04 2.9263108122619163e-03 0.0000000000000000e+00 0.0000000000000000e+00 0.0000000000000000e+00 0.0000000000000000e+00  1.1538944699275439e-03 -5.2018099700776787e-04 0.0000000000000000e+00 -5.2018099700776787e-04 6.9421694230793664e-04 0.0000000000000000e+00 0.0000000000000000e+00 0.0000000000000000e+00 0.0000000000000000e+00  7.0768829553148043e-03 -1.3357893286661620e-03 0.0000000000000000e+00 -1.3357893286661620e-03 9.9727448814469124e-03 0.0000000000000000e+00 0.0000000000000000e+00 0.0000000000000000e+00 0.0000000000000000e+00  -1.6598426467376040e-02 9.7736770809664034e-03 0.0000000000000000e+00 9.7736770809664034e-03 -1.7708599040383972e-02 0.0000000000000000e+00 0.0000000000000000e+00 0.0000000000000000e+00 0.0000000000000000e+00  4.0684283067873264e-02 -6.4770573478303214e-02 0.0000000000000000e+00 -6.4770573478303214e-02 6.5898197803369737e-02 0.0000000000000000e+00 0.0000000000000000e+00 0.0000000000000000e+00 0.0000000000000000e+00  -8.9217565323494882e-02 1.1709876376864113e-01 0.0000000000000000e+00 1.1709876376864113e-01 9.8735266393001533e-03 0.0000000000000000e+00 0.0000000000000000e+00 0.0000000000000000e+00 0.0000000000000000e+00  -2.6805227080823663e-01 1.2155539169803787e-02 0.0000000000000000e+00 1.2155539169803787e-02 -4.7705158737406633e-01 0.0000000000000000e+00 0.0000000000000000e+00 0.0000000000000000e+00 0.0000000000000000e+00  -8.1371727101939795e-02 -2.9634824016349180e-02 0.0000000000000000e+00 -2.9634824016349180e-02 -3.1868485923443046e-01 0.0000000000000000e+00 0.0000000000000000e+00 0.0000000000000000e+00 0.0000000000000000e+00  1.6572108244745970e-03 4.2820551354287584e-02 0.0000000000000000e+00 4.2820551354287584e-02 2.7307161266972968e-02 0.0000000000000000e+00 0.0000000000000000e+00 0.0000000000000000e+00 0.0000000000000000e+00  -1.0063042544318793e-01 -1.9653977089350697e-03 0.0000000000000000e+00 -1.9653977089350697e-03 1.2062904649591165e-02 0.0000000000000000e+00 0.0000000000000000e+00 0.0000000000000000e+00 0.0000000000000000e+00  -1.4195004275392090e-01 -6.9273948311746759e-03 0.0000000000000000e+00 -6.9273948311746759e-03 -3.4134845007738217e-02 0.0000000000000000e+00 0.0000000000000000e+00 0.0000000000000000e+00 0.0000000000000000e+00  -1.1133950195292946e-01 1.2511625142888363e-02 0.0000000000000000e+00 1.2511625142888363e-02 -7.3157327084148793e-02 0.0000000000000000e+00 0.0000000000000000e+00 0.0000000000000000e+00 0.0000000000000000e+00  -8.7742479187254377e-02 5.7155000082693410e-03 0.0000000000000000e+00 5.7155000082693410e-03 -1.0693924805066929e-01 0.0000000000000000e+00 0.0000000000000000e+00 0.0000000000000000e+00 0.0000000000000000e+00  -9.0649114391775920e-02 -1.5224553628257425e-02 0.0000000000000000e+00 -1.5224553628257425e-02 -1.0835697289932297e-01 0.0000000000000000e+00 0.0000000000000000e+00 0.0000000000000000e+00 0.0000000000000000e+00  -1.0003295588592268e-01 -2.3552460724798628e-02 0.0000000000000000e+00 -2.3552460724798628e-02 -8.8603192784593360e-02 0.0000000000000000e+00 0.0000000000000000e+00 0.0000000000000000e+00 0.0000000000000000e+00  -1.0389208357046303e-01 -1.9494226957638777e-02 0.0000000000000000e+00 -1.9494226957638777e-02 -6.9318559509051345e-02 0.0000000000000000e+00 0.0000000000000000e+00 0.0000000000000000e+00 0.0000000000000000e+00  -1.0217776986447517e-01 -1.1884442250192450e-02 0.0000000000000000e+00 -1.1884442250192450e-02 -5.9097207175107788e-02 0.0000000000000000e+00 0.0000000000000000e+00 0.0000000000000000e+00 0.0000000000000000e+00  -9.9411993309781413e-02 -5.7441414100012382e-03 0.0000000000000000e+00 -5.7441414100012382e-03 -5.5862671635411920e-02 0.0000000000000000e+00 0.0000000000000000e+00 0.0000000000000000e+00 0.0000000000000000e+00  -9.8920183721181762e-02 -5.1737469850485858e-04 0.0000000000000000e+00 -5.1737469850485858e-04 -5.6131091618869568e-02 0.0000000000000000e+00 0.0000000000000000e+00 0.0000000000000000e+00 0.0000000000000000e+00  -1.0034823391731978e-01 6.2272236017642518e-03 0.0000000000000000e+00 6.2272236017642518e-03 -6.0317447776567563e-02 0.0000000000000000e+00 0.0000000000000000e+00 0.0000000000000000e+00 0.0000000000000000e+00  -9.9872111586579979e-02 1.4243106064824276e-02 0.0000000000000000e+00 1.4243106064824276e-02 -7.2215321865770052e-02 0.0000000000000000e+00 0.0000000000000000e+00 0.0000000000000000e+00 0.0000000000000000e+00  -9.3310470656974231e-02 1.7432205585764231e-02 0.0000000000000000e+00 1.7432205585764231e-02 -9.2666249494224806e-02 0.0000000000000000e+00 0.0000000000000000e+00 0.0000000000000000e+00 0.0000000000000000e+00  -8.2344183649020297e-02 7.2380667685967657e-03 0.0000000000000000e+00 7.2380667685967657e-03 -1.1037091672122593e-01 0.0000000000000000e+00 0.0000000000000000e+00 0.0000000000000000e+00 0.0000000000000000e+00  -8.1656353489791070e-02 -1.2587502715243094e-02 0.0000000000000000e+00 -1.2587502715243094e-02 -1.0295002530868928e-01 0.0000000000000000e+00 0.0000000000000000e+00 0.0000000000000000e+00 0.0000000000000000e+00  -1.0893654033325564e-01 -1.2054541817154693e-02 0.0000000000000000e+00 -1.2054541817154693e-02 -6.5345345593182308e-02 0.0000000000000000e+00 0.0000000000000000e+00 0.0000000000000000e+00 0.0000000000000000e+00  -1.3170585589198225e-01 9.7489193164980569e-03 0.0000000000000000e+00 9.7489193164980569e-03 -2.8243045564234050e-02 0.0000000000000000e+00 0.0000000000000000e+00 0.0000000000000000e+00 0.0000000000000000e+00  -7.1219146194689095e-02 -4.2564095489244893e-03 0.0000000000000000e+00 -4.2564095489244893e-03 2.3338773602921890e-02 0.0000000000000000e+00 0.0000000000000000e+00 0.0000000000000000e+00 0.0000000000000000e+00  2.4453245248309559e-02 -3.8289499542683431e-02 0.0000000000000000e+00 -3.8289499542683431e-02 -5.1267065362966286e-03 0.0000000000000000e+00 0.0000000000000000e+00 0.0000000000000000e+00 0.0000000000000000e+00  -1.2157741408243218e-01 5.5408773474622627e-02 0.0000000000000000e+00 5.5408773474622627e-02 -4.0360015864368548e-01 0.0000000000000000e+00 0.0000000000000000e+00 0.0000000000000000e+00 0.0000000000000000e+00  -2.4006383285085109e-01 -6.4898313609972016e-02 0.0000000000000000e+00 -6.4898313609972016e-02 -3.8254233294751583e-01 0.0000000000000000e+00 0.0000000000000000e+00 0.0000000000000000e+00 0.0000000000000000e+00  -2.6680963107728623e-02 -6.9933730667571192e-02 0.0000000000000000e+00 -6.9933730667571192e-02 8.2666156236827701e-02 0.0000000000000000e+00 0.0000000000000000e+00 0.0000000000000000e+00 0.0000000000000000e+00  3.1051223064661657e-02 5.9681185787008977e-02 0.0000000000000000e+00 5.9681185787008977e-02 3.5069368302364304e-02 0.0000000000000000e+00 0.0000000000000000e+00 0.0000000000000000e+00 0.0000000000000000e+00  -9.1677640446620225e-03 -1.6838265882477405e-02 0.0000000000000000e+00 -1.6838265882477405e-02 -6.3265667788382262e-03 0.0000000000000000e+00 0.0000000000000000e+00 0.0000000000000000e+00 0.0000000000000000e+00  1.3004854527269537e-02 5.3023536686251172e-03 0.0000000000000000e+00 5.3023536686251172e-03 1.3721246812969190e-02 0.0000000000000000e+00 0.0000000000000000e+00 0.0000000000000000e+00 0.0000000000000000e+00  5.8563472870174424e-03 -1.2798834849796934e-03 0.0000000000000000e+00 -1.2798834849796934e-03 5.5818296309154041e-03 0.0000000000000000e+00 0.0000000000000000e+00 0.0000000000000000e+00 0.0000000000000000e+00  8.2366587430540705e-03 2.9269131158382318e-04 0.0000000000000000e+00 2.9269131158382318e-04 8.3028674187890748e-03 0.0000000000000000e+00 0.0000000000000000e+00 0.0000000000000000e+00 0.0000000000000000e+00  7.5131520460618067e-03 -8.4132877962532374e-05 0.0000000000000000e+00 -8.4132877962532374e-05 7.4630197818354362e-03 0.0000000000000000e+00 0.0000000000000000e+00 0.0000000000000000e+00 0.0000000000000000e+00  7.7344988587956251e-03 2.1415990437901315e-05 0.0000000000000000e+00 2.1415990437901315e-05 7.7361231239936835e-03 0.0000000000000000e+00 0.0000000000000000e+00 0.0000000000000000e+00 0.0000000000000000e+00  7.6604387759547062e-03 -1.2686096715701376e-05 0.0000000000000000e+00 -1.2686096715701376e-05 7.6667802838564000e-03 0.0000000000000000e+00 0.0000000000000000e+00 0.0000000000000000e+00 0.0000000000000000e+00  7.6784375618068881e-03 -1.4595114497009451e-06 0.0000000000000000e+00 -1.4595114497009451e-06 7.6944455699556368e-03 0.0000000000000000e+00 0.0000000000000000e+00 0.0000000000000000e+00 0.0000000000000000e+00  7.6711647348056446e-03 -5.7176607030816952e-06 0.0000000000000000e+00 -5.7176607030816952e-06 7.6947510059901690e-03 0.0000000000000000e+00 0.0000000000000000e+00 0.0000000000000000e+00 0.0000000000000000e+00  7.6722086280690445e-03 -6.5998423684684713e-06 0.0000000000000000e+00 -6.5998423684684713e-06 7.6991149187270536e-03 0.0000000000000000e+00 0.0000000000000000e+00 0.0000000000000000e+00 0.0000000000000000e+00  7.6720918617489628e-03 -9.9203927263208070e-06 0.0000000000000000e+00 -9.9203927263208070e-06 7.6989581618315374e-03 0.0000000000000000e+00 0.0000000000000000e+00 0.0000000000000000e+00 0.0000000000000000e+00  7.6733681939082808e-03 -1.3693220643605206e-05 0.0000000000000000e+00 -1.3693220643605206e-05 7.6960362854893091e-03 0.0000000000000000e+00 0.0000000000000000e+00 0.0000000000000000e+00 0.0000000000000000e+00  7.6755748855783928e-03 -1.8232782974793034e-05 0.0000000000000000e+00 -1.8232782974793034e-05 7.6895450767542279e-03 0.0000000000000000e+00 0.0000000000000000e+00 0.0000000000000000e+00 0.0000000000000000e+00  7.6789969642772002e-03 -2.3348406504307887e-05 0.0000000000000000e+00 -2.3348406504307887e-05 7.6793070696543090e-03 0.0000000000000000e+00 0.0000000000000000e+00 0.0000000000000000e+00 0.0000000000000000e+00  7.6466659527022456e-03 3.0693255712680291e-05 0.0000000000000000e+00 3.0693255712680291e-05 7.6469879403980893e-03 0.0000000000000000e+00 0.0000000000000000e+00 0.0000000000000000e+00 0.0000000000000000e+00  7.6433379754058161e-03 2.3291776821164992e-05 0.0000000000000000e+00 2.3291776821164992e-05 7.6570162069739441e-03 0.0000000000000000e+00 0.0000000000000000e+00 0.0000000000000000e+00 0.0000000000000000e+00  7.6413805827457767e-03 1.6834079309307106e-05 0.0000000000000000e+00 1.6834079309307106e-05 7.6628990873460210e-03 0.0000000000000000e+00 0.0000000000000000e+00 0.0000000000000000e+00 0.0000000000000000e+00  7.6409767490176680e-03 1.1059900553902090e-05 0.0000000000000000e+00 1.1059900553902090e-05 7.6650514081221975e-03 0.0000000000000000e+00 0.0000000000000000e+00 0.0000000000000000e+00 0.0000000000000000e+00  7.6407209335371679e-03 7.6680202581530907e-06 0.0000000000000000e+00 7.6680202581530907e-06 7.6623642428542606e-03 0.0000000000000000e+00 0.0000000000000000e+00 0.0000000000000000e+00 0.0000000000000000e+00  7.6467252596707173e-03 8.4607375051558303e-07 0.0000000000000000e+00 8.4607375051558303e-07 7.6615163525253242e-03 0.0000000000000000e+00 0.0000000000000000e+00 0.0000000000000000e+00 0.0000000000000000e+00  7.6313820567490863e-03 1.1549757333783568e-05 0.0000000000000000e+00 1.1549757333783568e-05 7.6367261017317644e-03 0.0000000000000000e+00 0.0000000000000000e+00 0.0000000000000000e+00 0.0000000000000000e+00  7.7048288298399723e-03 -2.7625756464509814e-05 0.0000000000000000e+00 -2.7625756464509814e-05 7.6903608327167474e-03 0.0000000000000000e+00 0.0000000000000000e+00 0.0000000000000000e+00 0.0000000000000000e+00  7.4608636938217508e-03 8.4983678533034280e-05 0.0000000000000000e+00 8.4983678533034280e-05 7.4466169642433550e-03 0.0000000000000000e+00 0.0000000000000000e+00 0.0000000000000000e+00 0.0000000000000000e+00  8.3053353808721572e-03 -2.5396310069637990e-04 0.0000000000000000e+00 -2.5396310069637990e-04 8.2539478793560873e-03 0.0000000000000000e+00 0.0000000000000000e+00 0.0000000000000000e+00 0.0000000000000000e+00  5.5775406849054706e-03 8.1041863141286354e-04 0.0000000000000000e+00 8.1041863141286354e-04 5.3944513158563981e-03 0.0000000000000000e+00 0.0000000000000000e+00 0.0000000000000000e+00 0.0000000000000000e+00  1.4453998749681788e-02 -3.7782653066572450e-03 0.0000000000000000e+00 -3.7782653066572450e-03 1.5522904199159722e-02 0.0000000000000000e+00 0.0000000000000000e+00 0.0000000000000000e+00 0.0000000000000000e+00  -1.4963337832989212e-02 1.2869707037508400e-02 0.0000000000000000e+00 1.2869707037508400e-02 -1.6327077560877847e-02 0.0000000000000000e+00 0.0000000000000000e+00 0.0000000000000000e+00 0.0000000000000000e+00  6.8044619212596330e-02 -7.4755892541827434e-02 0.0000000000000000e+00 -7.4755892541827434e-02 9.4000340144898747e-02 0.0000000000000000e+00 0.0000000000000000e+00 0.0000000000000000e+00 0.0000000000000000e+00  -1.2932249427366910e-01 1.6183143804080716e-01 0.0000000000000000e+00 1.6183143804080716e-01 -9.7166185395835075e-02 0.0000000000000000e+00 0.0000000000000000e+00 0.0000000000000000e+00 0.0000000000000000e+00  -1.9930204136010871e-01 -5.4957435357414590e-02 0.0000000000000000e+00 -5.4957435357414590e-02 -4.2829252070201990e-01 0.0000000000000000e+00 0.0000000000000000e+00 0.0000000000000000e+00 0.0000000000000000e+00  2.2175042139562090e-02 2.5845232237441815e-02 0.0000000000000000e+00 2.5845232237441815e-02 -5.7550953400647330e-02 0.0000000000000000e+00 0.0000000000000000e+00 0.0000000000000000e+00 0.0000000000000000e+00  -1.0162647869582223e-01 -1.1906647525639080e-02 0.0000000000000000e+00 -1.1906647525639080e-02 4.5903630137474729e-03 0.0000000000000000e+00 0.0000000000000000e+00 0.0000000000000000e+00 0.0000000000000000e+00  -1.3944987890992044e-01 -1.9285219522343162e-03 0.0000000000000000e+00 -1.9285219522343162e-03 -4.9262804236275590e-02 0.0000000000000000e+00 0.0000000000000000e+00 0.0000000000000000e+00 0.0000000000000000e+00  -8.5691645765557115e-02 1.5518040899488132e-02 0.0000000000000000e+00 1.5518040899488132e-02 -8.6748125161424092e-02 0.0000000000000000e+00 0.0000000000000000e+00 0.0000000000000000e+00 0.0000000000000000e+00  -8.3418239447927200e-02 8.6702548540772504e-03 0.0000000000000000e+00 8.6702548540772504e-03 -9.4005947791859890e-02 0.0000000000000000e+00 0.0000000000000000e+00 0.0000000000000000e+00 0.0000000000000000e+00  -8.9563532069813781e-02 8.4759212295567720e-03 0.0000000000000000e+00 8.4759212295567720e-03 -9.3881806853294322e-02 0.0000000000000000e+00 0.0000000000000000e+00 0.0000000000000000e+00 0.0000000000000000e+00  -8.5689490935147342e-02 6.5621539549788983e-03 0.0000000000000000e+00 6.5621539549788983e-03 -1.0037828688510822e-01 0.0000000000000000e+00 0.0000000000000000e+00 0.0000000000000000e+00 0.0000000000000000e+00  -8.4231274719032981e-02 -1.8736065367328896e-03 0.0000000000000000e+00 -1.8736065367328896e-03 -1.0228154330825556e-01 0.0000000000000000e+00 0.0000000000000000e+00 0.0000000000000000e+00 0.0000000000000000e+00  -8.9313280990195934e-02 -8.9075405512335469e-03 0.0000000000000000e+00 -8.9075405512335469e-03 -9.3329980654764458e-02 0.0000000000000000e+00 0.0000000000000000e+00 0.0000000000000000e+00 0.0000000000000000e+00  -9.5418962931600571e-02 -9.2209000336895466e-03 0.0000000000000000e+00 -9.2209000336895466e-03 -8.0386539731787457e-02 0.0000000000000000e+00 0.0000000000000000e+00 0.0000000000000000e+00 0.0000000000000000e+00  -9.9086507805629512e-02 -4.8005126383086263e-03 0.0000000000000000e+00 -4.8005126383086263e-03 -7.0352727339624332e-02 0.0000000000000000e+00 0.0000000000000000e+00 0.0000000000000000e+00 0.0000000000000000e+00  -1.0065030809266752e-01 1.0781190182448002e-03 0.0000000000000000e+00 1.0781190182448002e-03 -6.5304703085224777e-02 0.0000000000000000e+00 0.0000000000000000e+00 0.0000000000000000e+00 0.0000000000000000e+00  -1.0144644597612143e-01 6.9686531422651302e-03 0.0000000000000000e+00 6.9686531422651302e-03 -6.4797328991355319e-02 0.0000000000000000e+00 0.0000000000000000e+00 0.0000000000000000e+00 0.0000000000000000e+00  -1.0163884612214075e-01 1.2662447455735136e-02 0.0000000000000000e+00 1.2662447455735136e-02 -6.8724656417398153e-02 0.0000000000000000e+00 0.0000000000000000e+00 0.0000000000000000e+00 0.0000000000000000e+00  -1.0001203484476866e-01 1.7066582999943569e-02 0.0000000000000000e+00 1.7066582999943569e-02 -7.7613408405024245e-02 0.0000000000000000e+00 0.0000000000000000e+00 0.0000000000000000e+00 0.0000000000000000e+00  -9.5838603974835040e-02 1.7143410944031420e-02 0.0000000000000000e+00 1.7143410944031420e-02 -9.0100576804249433e-02 0.0000000000000000e+00 0.0000000000000000e+00 0.0000000000000000e+00 0.0000000000000000e+00  -9.1774376509018998e-02 1.0203973287979331e-02 0.0000000000000000e+00 1.0203973287979331e-02 -1.0011668650245319e-01 0.0000000000000000e+00 0.0000000000000000e+00 0.0000000000000000e+00 0.0000000000000000e+00  -9.3623266073257452e-02 1.8449075751613487e-05 0.0000000000000000e+00 1.8449075751613487e-05 -9.9880642138021003e-02 0.0000000000000000e+00 0.0000000000000000e+00 0.0000000000000000e+00 0.0000000000000000e+00  -9.9917115445355198e-02 -4.8332450491281528e-03 0.0000000000000000e+00 -4.8332450491281528e-03 -9.2635825432524160e-02 0.0000000000000000e+00 0.0000000000000000e+00 0.0000000000000000e+00 0.0000000000000000e+00  -9.7931644636168672e-02 -6.0068822479414467e-03 0.0000000000000000e+00 -6.0068822479414467e-03 -9.1095920198967825e-02 0.0000000000000000e+00 0.0000000000000000e+00 0.0000000000000000e+00 0.0000000000000000e+00  -9.6904107076294946e-02 -1.4419903624688139e-02 0.0000000000000000e+00 -1.4419903624688139e-02 -8.7037696812055559e-02 0.0000000000000000e+00 0.0000000000000000e+00 0.0000000000000000e+00 0.0000000000000000e+00  -1.4484120349206503e-01 -5.9518404970702746e-03 0.0000000000000000e+00 -5.9518404970702746e-03 -5.5387459587252774e-02 0.0000000000000000e+00 0.0000000000000000e+00 0.0000000000000000e+00 0.0000000000000000e+00  -1.4620982754977119e-01 1.3726973127462141e-02 0.0000000000000000e+00 1.3726973127462141e-02 -3.5276110955997416e-03 0.0000000000000000e+00 0.0000000000000000e+00 0.0000000000000000e+00 0.0000000000000000e+00  -1.0200388248899451e-02 -3.5474375612242544e-02 0.0000000000000000e+00 -3.5474375612242544e-02 -1.1670566971097028e-02 0.0000000000000000e+00 0.0000000000000000e+00 0.0000000000000000e+00 0.0000000000000000e+00  -1.5313232771070320e-01 5.7527004207470984e-02 0.0000000000000000e+00 5.7527004207470984e-02 -3.7935149939654472e-01 0.0000000000000000e+00 0.0000000000000000e+00 0.0000000000000000e+00 0.0000000000000000e+00  -2.0809497662546242e-01 -1.4833149524894518e-01 0.0000000000000000e+00 -1.4833149524894518e-01 -2.4157366895763949e-01 0.0000000000000000e+00 0.0000000000000000e+00 0.0000000000000000e+00 0.0000000000000000e+00  5.6438735933836040e-02 3.7165065970752760e-02 0.0000000000000000e+00 3.7165065970752760e-02 1.0990474995037285e-01 0.0000000000000000e+00 0.0000000000000000e+00 0.0000000000000000e+00 0.0000000000000000e+00  -1.5000417303445869e-02 8.5622371812606127e-03 0.0000000000000000e+00 8.5622371812606127e-03 -1.8888517884148463e-02 0.0000000000000000e+00 0.0000000000000000e+00 0.0000000000000000e+00 0.0000000000000000e+00  6.0106687252933560e-03 -3.0671531859243354e-03 0.0000000000000000e+00 -3.0671531859243354e-03 7.8467371946320408e-03 0.0000000000000000e+00 0.0000000000000000e+00 0.0000000000000000e+00 0.0000000000000000e+00  1.3037101131784608e-03 1.3578198996264414e-03 0.0000000000000000e+00 1.3578198996264414e-03 1.2975342760311503e-03 0.0000000000000000e+00 0.0000000000000000e+00 0.0000000000000000e+00 0.0000000000000000e+00  2.7235616227091444e-03 -3.2952010155050735e-04 0.0000000000000000e+00 -3.2952010155050735e-04 2.7179667236238094e-03 0.0000000000000000e+00 0.0000000000000000e+00 0.0000000000000000e+00 0.0000000000000000e+00  2.2940245465079565e-03 3.4065994626795612e-05 0.0000000000000000e+00 3.4065994626795612e-05 2.3469261671506961e-03 0.0000000000000000e+00 0.0000000000000000e+00 0.0000000000000000e+00 0.0000000000000000e+00  2.4742581476809231e-03 -2.0086747090010970e-05 0.0000000000000000e+00 -2.0086747090010970e-05 2.4376804855762830e-03 0.0000000000000000e+00 0.0000000000000000e+00 0.0000000000000000e+00 0.0000000000000000e+00  2.4243731218338582e-03 -1.4996092791542553e-05 0.0000000000000000e+00 -1.4996092791542553e-05 2.3737741610496740e-03 0.0000000000000000e+00 0.0000000000000000e+00 0.0000000000000000e+00 0.0000000000000000e+00  2.4444087057319871e-03 4.4994273177832563e-07 0.0000000000000000e+00 4.4994273177832563e-07 2.3757083547310508e-03 0.0000000000000000e+00 0.0000000000000000e+00 0.0000000000000000e+00 0.0000000000000000e+00  2.4244130502456430e-03 1.4744628280748417e-05 0.0000000000000000e+00 1.4744628280748417e-05 2.3694598489245725e-03 0.0000000000000000e+00 0.0000000000000000e+00 0.0000000000000000e+00 0.0000000000000000e+00  2.4693679264069612e-03 2.8700290546596208e-05 0.0000000000000000e+00 2.8700290546596208e-05 2.4271143939734088e-03 0.0000000000000000e+00 0.0000000000000000e+00 0.0000000000000000e+00 0.0000000000000000e+00  2.2882079020853999e-03 -5.0693627922074306e-05 0.0000000000000000e+00 -5.0693627922074306e-05 2.3306020338595343e-03 0.0000000000000000e+00 0.0000000000000000e+00 0.0000000000000000e+00 0.0000000000000000e+00  2.7968290658450853e-03 3.6875978223689968e-04 0.0000000000000000e+00 3.6875978223689968e-04 2.7732967186404798e-03 0.0000000000000000e+00 0.0000000000000000e+00 0.0000000000000000e+00 0.0000000000000000e+00  1.3135983403294133e-03 -1.4637405060100499e-03 0.0000000000000000e+00 -1.4637405060100499e-03 1.3011068409350586e-03 0.0000000000000000e+00 0.0000000000000000e+00 0.0000000000000000e+00 0.0000000000000000e+00  6.1698357633285673e-03 3.2689439892188681e-03 0.0000000000000000e+00 3.2689439892188681e-03 8.1933716333285264e-03 0.0000000000000000e+00 0.0000000000000000e+00 0.0000000000000000e+00 0.0000000000000000e+00  -1.4148180618680206e-02 -8.6802371230293319e-03 0.0000000000000000e+00 -8.6802371230293319e-03 -1.8173292031072423e-02 0.0000000000000000e+00 0.0000000000000000e+00 0.0000000000000000e+00 0.0000000000000000e+00  5.7035066767654137e-02 -3.7380583921132103e-02 0.0000000000000000e+00 -3.7380583921132103e-02 1.1108296327887338e-01 0.0000000000000000e+00 0.0000000000000000e+00 0.0000000000000000e+00 0.0000000000000000e+00  -2.0469865715702090e-01 1.4884373418979688e-01 0.0000000000000000e+00 1.4884373418979688e-01 -2.3774155349075946e-01 0.0000000000000000e+00 0.0000000000000000e+00 0.0000000000000000e+00 0.0000000000000000e+00  -1.5340141862645681e-01 -5.8406743160927525e-02 0.0000000000000000e+00 -5.8406743160927525e-02 -3.8155445235143526e-01 0.0000000000000000e+00 0.0000000000000000e+00 0.0000000000000000e+00 0.0000000000000000e+00  -7.6668246671880895e-03 3.5346746705956729e-02 0.0000000000000000e+00 3.5346746705956729e-02 -1.2212162677813821e-02 0.0000000000000000e+00 0.0000000000000000e+00 0.0000000000000000e+00 0.0000000000000000e+00  -1.4377052447839780e-01 -1.3728488981391859e-02 0.0000000000000000e+00 -1.3728488981391859e-02 -3.1206235803565960e-03 0.0000000000000000e+00 0.0000000000000000e+00 0.0000000000000000e+00 0.0000000000000000e+00  -1.4381947631665690e-01 5.6740253237989582e-03 0.0000000000000000e+00 5.6740253237989582e-03 -5.5440069794047607e-02 0.0000000000000000e+00 0.0000000000000000e+00 0.0000000000000000e+00 0.0000000000000000e+00  -9.5849807788526920e-02 1.4314269497210447e-02 0.0000000000000000e+00 1.4314269497210447e-02 -8.7342604540183374e-02 0.0000000000000000e+00 0.0000000000000000e+00 0.0000000000000000e+00 0.0000000000000000e+00  -9.6993280762628739e-02 5.8732192069050823e-03 0.0000000000000000e+00 5.8732192069050823e-03 -9.1453488760528445e-02 0.0000000000000000e+00 0.0000000000000000e+00 0.0000000000000000e+00 0.0000000000000000e+00  -9.9193068055233563e-02 4.7245371315597006e-03 0.0000000000000000e+00 4.7245371315597006e-03 -9.2900799776945861e-02 0.0000000000000000e+00 0.0000000000000000e+00 0.0000000000000000e+00 0.0000000000000000e+00  -9.3010650232679501e-02 -4.0555251300997312e-05 0.0000000000000000e+00 -4.0555251300997312e-05 -1.0009452999839603e-01 0.0000000000000000e+00 0.0000000000000000e+00 0.0000000000000000e+00 0.0000000000000000e+00  -9.1193344713755536e-02 -1.0177910348275599e-02 0.0000000000000000e+00 -1.0177910348275599e-02 -1.0035240580584816e-01 0.0000000000000000e+00 0.0000000000000000e+00 0.0000000000000000e+00 0.0000000000000000e+00  -9.5302057110587673e-02 -1.7122550318290613e-02 0.0000000000000000e+00 -1.7122550318290613e-02 -9.0328432312255333e-02 0.0000000000000000e+00 0.0000000000000000e+00 0.0000000000000000e+00 0.0000000000000000e+00  -9.9547876393079784e-02 -1.7041739928332765e-02 0.0000000000000000e+00 -1.7041739928332765e-02 -7.7774669382532594e-02 0.0000000000000000e+00 0.0000000000000000e+00 0.0000000000000000e+00 0.0000000000000000e+00  -1.0124338555166497e-01 -1.2591278719552476e-02 0.0000000000000000e+00 -1.2591278719552476e-02 -6.8804493813895001e-02 0.0000000000000000e+00 0.0000000000000000e+00 0.0000000000000000e+00 0.0000000000000000e+00  -1.0108894264145608e-01 -6.8198926427754476e-03 0.0000000000000000e+00 -6.8198926427754476e-03 -6.4830567358543756e-02 0.0000000000000000e+00 0.0000000000000000e+00 0.0000000000000000e+00 0.0000000000000000e+00  -1.0029176152438044e-01 -8.5303504635272280e-04 0.0000000000000000e+00 -8.5303504635272280e-04 -6.5346685177344890e-02 0.0000000000000000e+00 0.0000000000000000e+00 0.0000000000000000e+00 0.0000000000000000e+00  -9.8697516412243891e-02 5.0691879563354112e-03 0.0000000000000000e+00 5.0691879563354112e-03 -7.0444625545600839e-02 0.0000000000000000e+00 0.0000000000000000e+00 0.0000000000000000e+00 0.0000000000000000e+00  -9.4991315133639398e-02 9.4846684691154235e-03 0.0000000000000000e+00 9.4846684691154235e-03 -8.0530984180851445e-02 0.0000000000000000e+00 0.0000000000000000e+00 0.0000000000000000e+00 0.0000000000000000e+00  -8.8865202731767193e-02 9.1262651158583018e-03 0.0000000000000000e+00 9.1262651158583018e-03 -9.3484131224000136e-02 0.0000000000000000e+00 0.0000000000000000e+00 0.0000000000000000e+00 0.0000000000000000e+00  -8.3802957829889321e-02 2.0464595699436743e-03 0.0000000000000000e+00 2.0464595699436743e-03 -1.0237698171153206e-01 0.0000000000000000e+00 0.0000000000000000e+00 0.0000000000000000e+00 0.0000000000000000e+00  -8.5301678774566556e-02 -6.3874307966498177e-03 0.0000000000000000e+00 -6.3874307966498177e-03 -1.0038452440500523e-01 0.0000000000000000e+00 0.0000000000000000e+00 0.0000000000000000e+00 0.0000000000000000e+00  -8.9164385485082487e-02 -8.2708474595987822e-03 0.0000000000000000e+00 -8.2708474595987822e-03 -9.3852930854259539e-02 0.0000000000000000e+00 0.0000000000000000e+00 0.0000000000000000e+00 0.0000000000000000e+00  -8.2979455926837864e-02 -8.4850786594750129e-03 0.0000000000000000e+00 -8.4850786594750129e-03 -9.3955739416430858e-02 0.0000000000000000e+00 0.0000000000000000e+00 0.0000000000000000e+00 0.0000000000000000e+00  -8.5396399016230640e-02 -1.5323350188871918e-02 0.0000000000000000e+00 -1.5323350188871918e-02 -8.6562942644499055e-02 0.0000000000000000e+00 0.0000000000000000e+00 0.0000000000000000e+00 0.0000000000000000e+00  -1.3923696618020648e-01 2.2578029448136945e-03 0.0000000000000000e+00 2.2578029448136945e-03 -4.8936383011903097e-02 0.0000000000000000e+00 0.0000000000000000e+00 0.0000000000000000e+00 0.0000000000000000e+00  -1.0075057710079102e-01 1.1935632944765103e-02 0.0000000000000000e+00 1.1935632944765103e-02 4.9756968750707129e-03 0.0000000000000000e+00 0.0000000000000000e+00 0.0000000000000000e+00 0.0000000000000000e+00  2.2551457069115512e-02 -2.5430588526939656e-02 0.0000000000000000e+00 -2.5430588526939656e-02 -5.8121910424435493e-02 0.0000000000000000e+00 0.0000000000000000e+00 0.0000000000000000e+00 0.0000000000000000e+00  -1.9986274989205516e-01 5.4693420494878318e-02 0.0000000000000000e+00 5.4693420494878318e-02 -4.2886366499355116e-01 0.0000000000000000e+00 0.0000000000000000e+00 0.0000000000000000e+00 0.0000000000000000e+00  -1.2886398326906512e-01 -1.6151045240545309e-01 0.0000000000000000e+00 -1.6151045240545309e-01 -9.5805812736214038e-02 0.0000000000000000e+00 0.0000000000000000e+00 0.0000000000000000e+00 0.0000000000000000e+00  6.7203531631443339e-02 7.4892810245159216e-02 0.0000000000000000e+00 7.4892810245159216e-02 9.2960234263944869e-02 0.0000000000000000e+00 0.0000000000000000e+00 0.0000000000000000e+00 0.0000000000000000e+00  -1.5495842391730101e-02 -1.2944099404792036e-02 0.0000000000000000e+00 -1.2944099404792036e-02 -1.6924187963605525e-02 0.0000000000000000e+00 0.0000000000000000e+00 0.0000000000000000e+00 0.0000000000000000e+00  1.4224973557969405e-02 3.8196081218141455e-03 0.0000000000000000e+00 3.8196081218141455e-03 1.5235849723432802e-02 0.0000000000000000e+00 0.0000000000000000e+00 0.0000000000000000e+00 0.0000000000000000e+00  5.7078818609484182e-03 -8.3622610790870880e-04 0.0000000000000000e+00 -8.3622610790870880e-04 5.5125787323075841e-03 0.0000000000000000e+00 0.0000000000000000e+00 0.0000000000000000e+00 0.0000000000000000e+00  8.2873437141134740e-03 2.4517677100256940e-04 0.0000000000000000e+00 2.4517677100256940e-04 8.2500549712814560e-03 0.0000000000000000e+00 0.0000000000000000e+00 0.0000000000000000e+00 0.0000000000000000e+00  7.5140145662359725e-03 -8.5087084054963585e-05 0.0000000000000000e+00 -8.5087084054963585e-05 7.5035643362575313e-03 0.0000000000000000e+00 0.0000000000000000e+00 0.0000000000000000e+00 0.0000000000000000e+00  7.7418480136636492e-03 3.0867203955063986e-05 0.0000000000000000e+00 3.0867203955063986e-05 7.7280856306388779e-03 0.0000000000000000e+00 0.0000000000000000e+00 0.0000000000000000e+00 0.0000000000000000e+00  7.6676833118992579e-03 -1.1597135826903064e-05 0.0000000000000000e+00 -1.1597135826903065e-05 7.6784188763392479e-03 0.0000000000000000e+00 0.0000000000000000e+00 0.0000000000000000e+00 0.0000000000000000e+00  7.6842989948518762e-03 -6.6711236308459000e-07 0.0000000000000000e+00 -6.6711236308458968e-07 7.7006621348388940e-03 0.0000000000000000e+00 0.0000000000000000e+00 0.0000000000000000e+00 0.0000000000000000e+00  7.6785175581135191e-03 -7.1443710681800837e-06 0.0000000000000000e+00 -7.1443710681800837e-06 7.7010753291020285e-03 0.0000000000000000e+00 0.0000000000000000e+00 0.0000000000000000e+00 0.0000000000000000e+00  7.6792848518297775e-03 -1.0176428881424965e-05 0.0000000000000000e+00 -1.0176428881424965e-05 7.7031399674332120e-03 0.0000000000000000e+00 0.0000000000000000e+00 0.0000000000000000e+00 0.0000000000000000e+00  7.6799310093771675e-03 -1.5276670818941239e-05 0.0000000000000000e+00 -1.5276670818941239e-05 7.7007216042304484e-03 0.0000000000000000e+00 0.0000000000000000e+00 0.0000000000000000e+00 0.0000000000000000e+00  7.6819099568004147e-03 -2.0899512158933584e-05 0.0000000000000000e+00 -2.0899512158933584e-05 7.6949795601056097e-03 0.0000000000000000e+00 0.0000000000000000e+00 0.0000000000000000e+00 0.0000000000000000e+00  7.6850976889771012e-03 -2.7303947749823868e-05 0.0000000000000000e+00 -2.7303947749823868e-05 7.6853996368551510e-03 0.0000000000000000e+00 0.0000000000000000e+00 0.0000000000000000e+00 0.0000000000000000e+00  7.6551553158287211e-03 3.4568749944642301e-05 0.0000000000000000e+00 3.4568749944642301e-05 7.6554863982557144e-03 0.0000000000000000e+00 0.0000000000000000e+00 0.0000000000000000e+00 0.0000000000000000e+00  7.6521008971381773e-03 2.5797420932088651e-05 0.0000000000000000e+00 2.5797420932088651e-05 7.6646747555179215e-03 0.0000000000000000e+00 0.0000000000000000e+00 0.0000000000000000e+00 0.0000000000000000e+00  7.6505450941668071e-03 1.7722225112625803e-05 0.0000000000000000e+00 1.7722225112625803e-05 7.6697394852363286e-03 0.0000000000000000e+00 0.0000000000000000e+00 0.0000000000000000e+00 0.0000000000000000e+00  7.6501888171534166e-03 1.1414255400229304e-05 0.0000000000000000e+00 1.1414255400229304e-05 7.6701522733818488e-03 0.0000000000000000e+00 0.0000000000000000e+00 0.0000000000000000e+00 0.0000000000000000e+00  7.6533107788243375e-03 2.9687261226714228e-06 0.0000000000000000e+00 2.9687261226714228e-06 7.6693477675359957e-03 0.0000000000000000e+00 0.0000000000000000e+00 0.0000000000000000e+00 0.0000000000000000e+00  7.6454696410183610e-03 1.0738018896229323e-05 0.0000000000000000e+00 1.0738018896229323e-05 7.6520309843119338e-03 0.0000000000000000e+00 0.0000000000000000e+00 0.0000000000000000e+00 0.0000000000000000e+00  7.6986052110119768e-03 -3.6396960742684059e-05 0.0000000000000000e+00 -3.6396960742684059e-05 7.6910954853418095e-03 0.0000000000000000e+00 0.0000000000000000e+00 0.0000000000000000e+00 0.0000000000000000e+00  7.4900149372146285e-03 1.0832645812604013e-04 0.0000000000000000e+00 1.0832645812604013e-04 7.4833163034425301e-03 0.0000000000000000e+00 0.0000000000000000e+00 0.0000000000000000e+00 0.0000000000000000e+00  8.3167948825915994e-03 -3.3292859387780893e-04 0.0000000000000000e+00 -3.3292859387780893e-04 8.2073488678024616e-03 0.0000000000000000e+00 0.0000000000000000e+00 0.0000000000000000e+00 0.0000000000000000e+00  5.4532377623841251e-03 8.3054764374490878e-04 0.0000000000000000e+00 8.3054764374490878e-04 5.5396211400058747e-03 0.0000000000000000e+00 0.0000000000000000e+00 0.0000000000000000e+00 0.0000000000000000e+00  1.5204892146778431e-02 -2.8928630889382329e-03 0.0000000000000000e+00 -2.8928630889382329e-03 1.5060639567403913e-02 0.0000000000000000e+00 0.0000000000000000e+00 0.0000000000000000e+00 0.0000000000000000e+00  -1.6374523262515758e-02 6.2545908477596611e-03 0.0000000000000000e+00 6.2545908477596611e-03 -1.7481068722496901e-02 0.0000000000000000e+00 0.0000000000000000e+00 0.0000000000000000e+00 0.0000000000000000e+00  8.8941270103513631e-02 -5.8349835909850614e-02 0.0000000000000000e+00 -5.8349835909850614e-02 1.1182362419669700e-01 0.0000000000000000e+00 0.0000000000000000e+00 0.0000000000000000e+00 0.0000000000000000e+00  -2.0019400071402138e-01 1.5951705780474049e-01 0.0000000000000000e+00 1.5951705780474049e-01 -2.3474245844604708e-01 0.0000000000000000e+00 0.0000000000000000e+00 0.0000000000000000e+00 0.0000000000000000e+00  -7.6579277527262790e-02 -5.2778317455069203e-02 0.0000000000000000e+00 -5.2778317455069203e-02 -2.2963497352563217e-01 0.0000000000000000e+00 0.0000000000000000e+00 0.0000000000000000e+00 0.0000000000000000e+00  -4.2514626637043806e-02 3.4204613167657162e-03 0.0000000000000000e+00 3.4204613167657162e-03 -1.1552935812239814e-02 0.0000000000000000e+00 0.0000000000000000e+00 0.0000000000000000e+00 0.0000000000000000e+00  -1.6178538518597033e-01 -1.7526792995547893e-02 0.0000000000000000e+00 -1.7526792995547893e-02 -5.3050445083483569e-02 0.0000000000000000e+00 0.0000000000000000e+00 0.0000000000000000e+00 0.0000000000000000e+00  -8.6055384534443044e-02 2.0306668526933594e-02 0.0000000000000000e+00 2.0306668526933594e-02 -9.1106196770080333e-02 0.0000000000000000e+00 0.0000000000000000e+00 0.0000000000000000e+00 0.0000000000000000e+00  -8.3046229948973621e-02 6.6552313146570584e-03 0.0000000000000000e+00 6.6552313146570584e-03 -9.2655333612452484e-02 0.0000000000000000e+00 0.0000000000000000e+00 0.0000000000000000e+00 0.0000000000000000e+00  -9.3138345502377096e-02 8.1150985793195188e-03 0.0000000000000000e+00 8.1150985793195188e-03 -8.6836665490115081e-02 0.0000000000000000e+00 0.0000000000000000e+00 0.0000000000000000e+00 0.0000000000000000e+00  -8.8124583513364926e-02 9.7026282651445084e-03 0.0000000000000000e+00 9.7026282651445084e-03 -9.2056744094948600e-02 0.0000000000000000e+00 0.0000000000000000e+00 0.0000000000000000e+00 0.0000000000000000e+00  -8.6685831687965662e-02 7.9981844026778565e-03 0.0000000000000000e+00 7.9981844026778565e-03 -9.5244175096920278e-02 0.0000000000000000e+00 0.0000000000000000e+00 0.0000000000000000e+00 0.0000000000000000e+00  -8.6006794652524601e-02 4.9820930423445063e-03 0.0000000000000000e+00 4.9820930423445063e-03 -9.6914259507565645e-02 0.0000000000000000e+00 0.0000000000000000e+00 0.0000000000000000e+00 0.0000000000000000e+00  -8.6492357308431481e-02 1.9111823977320741e-04 0.0000000000000000e+00 1.9111823977320741e-04 -9.5836521643656733e-02 0.0000000000000000e+00 0.0000000000000000e+00 0.0000000000000000e+00 0.0000000000000000e+00  -8.9548060697320589e-02 -3.8065398871531182e-03 0.0000000000000000e+00 -3.8065398871531182e-03 -9.0372307724812875e-02 0.0000000000000000e+00 0.0000000000000000e+00 0.0000000000000000e+00 0.0000000000000000e+00  -9.3917110190738451e-02 -4.5414032426084440e-03 0.0000000000000000e+00 -4.5414032426084440e-03 -8.2381558423688467e-02 0.0000000000000000e+00 0.0000000000000000e+00 0.0000000000000000e+00 0.0000000000000000e+00  -9.7606844908742788e-02 -1.9793450805582870e-03 0.0000000000000000e+00 -1.9793450805582870e-03 -7.5264923752267926e-02 0.0000000000000000e+00 0.0000000000000000e+00 0.0000000000000000e+00 0.0000000000000000e+00  -9.9849702031354667e-02 2.4296806632265544e-03 0.0000000000000000e+00 2.4296806632265544e-03 -7.1107586449671273e-02 0.0000000000000000e+00 0.0000000000000000e+00 0.0000000000000000e+00 0.0000000000000000e+00  -1.0073090078201272e-01 7.3398691862736438e-03 0.0000000000000000e+00 7.3398691862736438e-03 -7.0536972051172667e-02 0.0000000000000000e+00 0.0000000000000000e+00 0.0000000000000000e+00 0.0000000000000000e+00  -1.0029311323914496e-01 1.1719206648070402e-02 0.0000000000000000e+00 1.1719206648070402e-02 -7.3576005970580019e-02 0.0000000000000000e+00 0.0000000000000000e+00 0.0000000000000000e+00 0.0000000000000000e+00  -9.8442143961441658e-02 1.4303583974587657e-02 0.0000000000000000e+00 1.4303583974587657e-02 -7.9747108942992834e-02 0.0000000000000000e+00 0.0000000000000000e+00 0.0000000000000000e+00 0.0000000000000000e+00  -9.5753794493044733e-02 1.3577700157754247e-02 0.0000000000000000e+00 1.3577700157754247e-02 -8.7271679943934019e-02 0.0000000000000000e+00 0.0000000000000000e+00 0.0000000000000000e+00 0.0000000000000000e+00  -9.4108317991967533e-02 9.1639086489430817e-03 0.0000000000000000e+00 9.1639086489430817e-03 -9.2847432087326071e-02 0.0000000000000000e+00 0.0000000000000000e+00 0.0000000000000000e+00 0.0000000000000000e+00  -9.5179473039136570e-02 3.1503661180893950e-03 0.0000000000000000e+00 3.1503661180893950e-03 -9.4052191655474834e-02 0.0000000000000000e+00 0.0000000000000000e+00 0.0000000000000000e+00 0.0000000000000000e+00  -9.8070605622885762e-02 -1.5595282181047377e-03 0.0000000000000000e+00 -1.5595282181047377e-03 -9.2013140555756739e-02 0.0000000000000000e+00 0.0000000000000000e+00 0.0000000000000000e+00 0.0000000000000000e+00  -1.0171510055215519e-01 -4.9291207658426848e-03 0.0000000000000000e+00 -4.9291207658426848e-03 -8.8584133483461711e-02 0.0000000000000000e+00 0.0000000000000000e+00 0.0000000000000000e+00 0.0000000000000000e+00  -1.0938995459504498e-01 -5.8245657678006550e-03 0.0000000000000000e+00 -5.8245657678006550e-03 -8.2911346070112260e-02 0.0000000000000000e+00 0.0000000000000000e+00 0.0000000000000000e+00 0.0000000000000000e+00  -1.0799179304337425e-01 -4.3111562747330323e-03 0.0000000000000000e+00 -4.3111562747330323e-03 -8.5681871840295465e-02 0.0000000000000000e+00 0.0000000000000000e+00 0.0000000000000000e+00 0.0000000000000000e+00  -1.0248208359582339e-01 -1.7225506595385558e-02 0.0000000000000000e+00 -1.7225506595385558e-02 -9.2225281413397531e-02 0.0000000000000000e+00 0.0000000000000000e+00 0.0000000000000000e+00 0.0000000000000000e+00  -1.7900551024780498e-01 2.8651848759431394e-03 0.0000000000000000e+00 2.8651848759431394e-03 -6.2996152975008754e-02 0.0000000000000000e+00 0.0000000000000000e+00 0.0000000000000000e+00 0.0000000000000000e+00  -1.1748900107184526e-01 1.2819452727191772e-02 0.0000000000000000e+00 1.2819452727191772e-02 -3.2018531115472683e-02 0.0000000000000000e+00 0.0000000000000000e+00 0.0000000000000000e+00 0.0000000000000000e+00  -3.9093605832214370e-02 1.7505525680579668e-03 0.0000000000000000e+00 1.7505525680579668e-03 -1.4515884567301954e-01 0.0000000000000000e+00 0.0000000000000000e+00 0.0000000000000000e+00 0.0000000000000000e+00  -2.7215082429193560e-01 -8.8459148862660084e-02 0.0000000000000000e+00 -8.8459148862660084e-02 -3.4242575557935812e-01 0.0000000000000000e+00 0.0000000000000000e+00 0.0000000000000000e+00 0.0000000000000000e+00  5.4829776489841657e-02 -9.8897138087177868e-03 0.0000000000000000e+00 -9.8897138087177868e-03 8.6598355280170375e-02 0.0000000000000000e+00 0.0000000000000000e+00 0.0000000000000000e+00 0.0000000000000000e+00  -1.1715126683577031e-02 2.1051061477962318e-02 0.0000000000000000e+00 2.1051061477962318e-02 -1.2032210425665008e-02 0.0000000000000000e+00 0.0000000000000000e+00 0.0000000000000000e+00 0.0000000000000000e+00  6.9070524785536528e-03 -3.8785117943965744e-03 0.0000000000000000e+00 -3.8785117943965744e-03 5.8488885552434242e-03 0.0000000000000000e+00 0.0000000000000000e+00 0.0000000000000000e+00 0.0000000000000000e+00  8.7110700859843347e-04 8.5617433313571684e-04 0.0000000000000000e+00 8.5617433313571684e-04 1.3820831409018092e-03 0.0000000000000000e+00 0.0000000000000000e+00 0.0000000000000000e+00 0.0000000000000000e+00  2.8325931848453500e-03 -6.5106548210034737e-05 0.0000000000000000e+00 -6.5106548210034737e-05 2.6894929522098552e-03 0.0000000000000000e+00 0.0000000000000000e+00 0.0000000000000000e+00 0.0000000000000000e+00  2.2689675527366323e-03 -7.0350494279712892e-05 0.0000000000000000e+00 -7.0350494279712892e-05 2.3133481356246155e-03 0.0000000000000000e+00 0.0000000000000000e+00 0.0000000000000000e+00 0.0000000000000000e+00  2.4508526843413344e-03 -3.4969426587472562e-06 0.0000000000000000e+00 -3.4969426587472562e-06 2.3909142311440584e-03 0.0000000000000000e+00 0.0000000000000000e+00 0.0000000000000000e+00 0.0000000000000000e+00  2.4075715755462546e-03 1.0029283748892857e-06 0.0000000000000000e+00 1.0029283748892857e-06 2.3432118679097211e-03 0.0000000000000000e+00 0.0000000000000000e+00 0.0000000000000000e+00 0.0000000000000000e+00  2.4467002980739787e-03 6.1808748675674036e-06 0.0000000000000000e+00 6.1808748675674036e-06 2.3902597336103752e-03 0.0000000000000000e+00 0.0000000000000000e+00 0.0000000000000000e+00 0.0000000000000000e+00  2.2704532797452018e-03 5.3455791796444460e-05 0.0000000000000000e+00 5.3455791796444473e-05 2.2940614706791493e-03 0.0000000000000000e+00 0.0000000000000000e+00 0.0000000000000000e+00 0.0000000000000000e+00  2.8971439345815710e-03 1.1309510439134980e-04 0.0000000000000000e+00 1.1309510439134980e-04 2.7554712116019701e-03 0.0000000000000000e+00 0.0000000000000000e+00 0.0000000000000000e+00 0.0000000000000000e+00  8.9329794235090167e-04 -1.0254644034220712e-03 0.0000000000000000e+00 -1.0254644034220712e-03 1.4196156701059310e-03 0.0000000000000000e+00 0.0000000000000000e+00 0.0000000000000000e+00 0.0000000000000000e+00  6.9589247022094833e-03 4.3682457571280796e-03 0.0000000000000000e+00 4.3682457571280796e-03 6.0410961921822191e-03 0.0000000000000000e+00 0.0000000000000000e+00 0.0000000000000000e+00 0.0000000000000000e+00  -1.0155998010368298e-02 -2.2234880671245551e-02 0.0000000000000000e+00 -2.2234880671245551e-02 -1.0659873679725042e-02 0.0000000000000000e+00 0.0000000000000000e+00 0.0000000000000000e+00 0.0000000000000000e+00  5.3986963168230727e-02 1.1534557786192754e-02 0.0000000000000000e+00 1.1534557786192754e-02 8.8195959995128539e-02 0.0000000000000000e+00 0.0000000000000000e+00 0.0000000000000000e+00 0.0000000000000000e+00  -2.6879513812953687e-01 8.7944989447346925e-02 0.0000000000000000e+00 8.7944989447346925e-02 -3.4180008126334588e-01 0.0000000000000000e+00 0.0000000000000000e+00 0.0000000000000000e+00 0.0000000000000000e+00  -3.7826914476599242e-02 -3.0423334528911598e-03 0.0000000000000000e+00 -3.0423334528911598e-03 -1.4650203348242491e-01 0.0000000000000000e+00 0.0000000000000000e+00 0.0000000000000000e+00 0.0000000000000000e+00  -1.1433695422059045e-01 -1.2026657453988905e-02 0.0000000000000000e+00 -1.2026657453988905e-02 -2.9538722889547921e-02 0.0000000000000000e+00 0.0000000000000000e+00 0.0000000000000000e+00 0.0000000000000000e+00  -1.7747583940363443e-01 -2.9286593776659312e-03 0.0000000000000000e+00 -2.9286593776659312e-03 -6.1988205210032017e-02 0.0000000000000000e+00 0.0000000000000000e+00 0.0000000000000000e+00 0.0000000000000000e+00  -1.0111030277274691e-01 1.7660077784229566e-02 0.0000000000000000e+00 1.7660077784229566e-02 -9.2016715115979822e-02 0.0000000000000000e+00 0.0000000000000000e+00 0.0000000000000000e+00 0.0000000000000000e+00  -1.0663697169708253e-01 4.5318403993005584e-03 0.0000000000000000e+00 4.5318403993005584e-03 -8.5947214484903528e-02 0.0000000000000000e+00 0.0000000000000000e+00 0.0000000000000000e+00 0.0000000000000000e+00  -1.0845482242604859e-01 5.9098199003020033e-03 0.0000000000000000e+00 5.9098199003020033e-03 -8.3204279572262105e-02 0.0000000000000000e+00 0.0000000000000000e+00 0.0000000000000000e+00 0.0000000000000000e+00  -1.0095683206168575e-01 4.9810804291172007e-03 0.0000000000000000e+00 4.9810804291172007e-03 -8.8902347553113811e-02 0.0000000000000000e+00 0.0000000000000000e+00 0.0000000000000000e+00 0.0000000000000000e+00  -9.7453653258303991e-02 1.5943244490617835e-03 0.0000000000000000e+00 1.5943244490617835e-03 -9.2311680846548089e-02 0.0000000000000000e+00 0.0000000000000000e+00 0.0000000000000000e+00 0.0000000000000000e+00  -9.4663214768897372e-02 -3.0993938564269252e-03 0.0000000000000000e+00 -3.0993938564269252e-03 -9.4320526232402127e-02 0.0000000000000000e+00 0.0000000000000000e+00 0.0000000000000000e+00 0.0000000000000000e+00  -9.3650268261948763e-02 -9.0960778337600048e-03 0.0000000000000000e+00 -9.0960778337600048e-03 -9.3098074319365981e-02 0.0000000000000000e+00 0.0000000000000000e+00 0.0000000000000000e+00 0.0000000000000000e+00  -9.5339784007064915e-02 -1.3503910622955960e-02 0.0000000000000000e+00 -1.3503910622955960e-02 -8.7498496368814543e-02 0.0000000000000000e+00 0.0000000000000000e+00 0.0000000000000000e+00 0.0000000000000000e+00  -9.8074649733170011e-02 -1.4218977023631224e-02 0.0000000000000000e+00 -1.4218977023631224e-02 -7.9929837472852136e-02 0.0000000000000000e+00 0.0000000000000000e+00 0.0000000000000000e+00 0.0000000000000000e+00  -9.9967299780321150e-02 -1.1603672740359026e-02 0.0000000000000000e+00 -1.1603672740359026e-02 -7.3708241070225611e-02 0.0000000000000000e+00 0.0000000000000000e+00 0.0000000000000000e+00 0.0000000000000000e+00  -1.0042801729524103e-01 -7.1768617665505796e-03 0.0000000000000000e+00 -7.1768617665505796e-03 -7.0635570859270205e-02 0.0000000000000000e+00 0.0000000000000000e+00 0.0000000000000000e+00 0.0000000000000000e+00  -9.9545192533902468e-02 -2.2199411690193619e-03 0.0000000000000000e+00 -2.2199411690193619e-03 -7.1200949779736622e-02 0.0000000000000000e+00 0.0000000000000000e+00 0.0000000000000000e+00 0.0000000000000000e+00  -9.7281950242870494e-02 2.2166630452508732e-03 0.0000000000000000e+00 2.2166630452508732e-03 -7.5374206467107754e-02 0.0000000000000000e+00 0.0000000000000000e+00 0.0000000000000000e+00 0.0000000000000000e+00  -9.3567390567965023e-02 4.7783674375858690e-03 0.0000000000000000e+00 4.7783674375858690e-03 -8.2506574173014907e-02 0.0000000000000000e+00 0.0000000000000000e+00 0.0000000000000000e+00 0.0000000000000000e+00  -8.9185111559118999e-02 4.0222075994395040e-03 0.0000000000000000e+00 4.0222075994395040e-03 -9.0489737018311117e-02 0.0000000000000000e+00 0.0000000000000000e+00 0.0000000000000000e+00 0.0000000000000000e+00  -8.6134013296652462e-02 2.6915010759525463e-06 0.0000000000000000e+00 2.6915010759525463e-06 -9.5915494815792271e-02 0.0000000000000000e+00 0.0000000000000000e+00 0.0000000000000000e+00 0.0000000000000000e+00  -8.5658597655863339e-02 -4.7939808431416353e-03 0.0000000000000000e+00 -4.7939808431416353e-03 -9.6941113950961236e-02 0.0000000000000000e+00 0.0000000000000000e+00 0.0000000000000000e+00 0.0000000000000000e+00  -8.6339331556348500e-02 -7.8058555461018196e-03 0.0000000000000000e+00 -7.8058555461018196e-03 -9.5223179363550348e-02 0.0000000000000000e+00 0.0000000000000000e+00 0.0000000000000000e+00 0.0000000000000000e+00  -8.7785228296954565e-02 -9.5066949374180941e-03 0.0000000000000000e+00 -9.5066949374180941e-03 -9.1983699703717225e-02 0.0000000000000000e+00 0.0000000000000000e+00 0.0000000000000000e+00 0.0000000000000000e+00  -9.2788360360243988e-02 -7.9044879798206048e-03 0.0000000000000000e+00 -7.9044879798206048e-03 -8.6726005560173028e-02 0.0000000000000000e+00 0.0000000000000000e+00 0.0000000000000000e+00 0.0000000000000000e+00  -8.2609466073155849e-02 -6.4878927464585767e-03 0.0000000000000000e+00 -6.4878927464585767e-03 -9.2540528048490278e-02 0.0000000000000000e+00 0.0000000000000000e+00 0.0000000000000000e+00 0.0000000000000000e+00  -8.5855820531407154e-02 -2.0115661947357696e-02 0.0000000000000000e+00 -2.0115661947357696e-02 -9.0817106676331777e-02 0.0000000000000000e+00 0.0000000000000000e+00 0.0000000000000000e+00 0.0000000000000000e+00  -1.6148922654364042e-01 1.7857397083734617e-02 0.0000000000000000e+00 1.7857397083734617e-02 -5.2633525034133495e-02 0.0000000000000000e+00 0.0000000000000000e+00 0.0000000000000000e+00 0.0000000000000000e+00  -4.1666544340571723e-02 -3.4777869287542290e-03 0.0000000000000000e+00 -3.4777869287542290e-03 -1.1018528257032978e-02 0.0000000000000000e+00 0.0000000000000000e+00 0.0000000000000000e+00 0.0000000000000000e+00  -7.7071743439892593e-02 5.3246841402719847e-02 0.0000000000000000e+00 5.3246841402719847e-02 -2.3042759604457236e-01 0.0000000000000000e+00 0.0000000000000000e+00 0.0000000000000000e+00 0.0000000000000000e+00  -2.0000658426102172e-01 -1.5970897570602413e-01 0.0000000000000000e+00 -1.5970897570602413e-01 -2.3418482632610946e-01 0.0000000000000000e+00 0.0000000000000000e+00 0.0000000000000000e+00 0.0000000000000000e+00  8.8081265460904987e-02 5.8667784099642240e-02 0.0000000000000000e+00 5.8667784099642240e-02 1.1091845528755397e-01 0.0000000000000000e+00 0.0000000000000000e+00 0.0000000000000000e+00 0.0000000000000000e+00  -1.6964827613672219e-02 -6.3313295750468635e-03 0.0000000000000000e+00 -6.3313295750468635e-03 -1.8135089320791654e-02 0.0000000000000000e+00 0.0000000000000000e+00 0.0000000000000000e+00 0.0000000000000000e+00  1.4962964484218751e-02 2.9282663314995007e-03 0.0000000000000000e+00 2.9282663314995007e-03 1.4814027018544708e-02 0.0000000000000000e+00 0.0000000000000000e+00 0.0000000000000000e+00 0.0000000000000000e+00  5.5928600636961506e-03 -8.4954994999385746e-04 0.0000000000000000e+00 -8.4954994999385746e-04 5.6594484894880032e-03 0.0000000000000000e+00 0.0000000000000000e+00 0.0000000000000000e+00 0.0000000000000000e+00  8.3151938351142454e-03 3.2710054825816888e-04 0.0000000000000000e+00 3.2710054825816888e-04 8.1915968000997961e-03 0.0000000000000000e+00 0.0000000000000000e+00 0.0000000000000000e+00 0.0000000000000000e+00  7.5249739293668516e-03 -1.0801864746228882e-04 0.0000000000000000e+00 -1.0801864746228882e-04 7.5407991940408276e-03 0.0000000000000000e+00 0.0000000000000000e+00 0.0000000000000000e+00 0.0000000000000000e+00  7.7364026232788000e-03 3.5633805640589996e-05 0.0000000000000000e+00 3.5633805640590003e-05 7.7275327623402296e-03 0.0000000000000000e+00 0.0000000000000000e+00 0.0000000000000000e+00 0.0000000000000000e+00  7.6800958964260866e-03 -1.0553919049938826e-05 0.0000000000000000e+00 -1.0553919049938826e-05 7.6916115622782787e-03 0.0000000000000000e+00 0.0000000000000000e+00 0.0000000000000000e+00 0.0000000000000000e+00  7.6896124673509749e-03 -3.3634933466850776e-06 0.0000000000000000e+00 -3.3634933466850776e-06 7.7077595216568399e-03 0.0000000000000000e+00 0.0000000000000000e+00 0.0000000000000000e+00 0.0000000000000000e+00  7.6871905647733444e-03 -1.0935887553853557e-05 0.0000000000000000e+00 -1.0935887553853557e-05 7.7075051817862787e-03 0.0000000000000000e+00 0.0000000000000000e+00 0.0000000000000000e+00 0.0000000000000000e+00  7.6879035799628237e-03 -1.6360479284222098e-05 0.0000000000000000e+00 -1.6360479284222098e-05 7.7067064911714861e-03 0.0000000000000000e+00 0.0000000000000000e+00 0.0000000000000000e+00 0.0000000000000000e+00  7.6895575768328962e-03 -2.3353403177705033e-05 0.0000000000000000e+00 -2.3353403177705033e-05 7.7016190235008391e-03 0.0000000000000000e+00 0.0000000000000000e+00 0.0000000000000000e+00 0.0000000000000000e+00  7.6924930505802422e-03 -3.1005505155580783e-05 0.0000000000000000e+00 -3.1005505155580783e-05 7.6928057371367800e-03 0.0000000000000000e+00 0.0000000000000000e+00 0.0000000000000000e+00 0.0000000000000000e+00  7.6649806859399473e-03 3.8241585204894311e-05 0.0000000000000000e+00 3.8241585204894311e-05 7.6653235428017817e-03 0.0000000000000000e+00 0.0000000000000000e+00 0.0000000000000000e+00 0.0000000000000000e+00  7.6621284585982113e-03 2.7951790880444092e-05 0.0000000000000000e+00 2.7951790880444092e-05 7.6738540547596039e-03 0.0000000000000000e+00 0.0000000000000000e+00 0.0000000000000000e+00 0.0000000000000000e+00  7.6608830523252503e-03 1.8650016461469485e-05 0.0000000000000000e+00 1.8650016461469485e-05 7.6778446895888310e-03 0.0000000000000000e+00 0.0000000000000000e+00 0.0000000000000000e+00 0.0000000000000000e+00  7.6612507908059542e-03 8.9941290904027509e-06 0.0000000000000000e+00 8.9941290904027509e-06 7.6781069318184242e-03 0.0000000000000000e+00 0.0000000000000000e+00 0.0000000000000000e+00 0.0000000000000000e+00  7.6608727424205738e-03 8.8200039041765022e-06 0.0000000000000000e+00 8.8200039041765022e-06 7.6692045275957793e-03 0.0000000000000000e+00 0.0000000000000000e+00 0.0000000000000000e+00 0.0000000000000000e+00  7.6831066642531051e-03 -2.9886880150012251e-05 0.0000000000000000e+00 -2.9886880150012251e-05 7.6858079531434325e-03 0.0000000000000000e+00 0.0000000000000000e+00 0.0000000000000000e+00 0.0000000000000000e+00  7.5707885741528149e-03 1.1029408879668684e-04 0.0000000000000000e+00 1.1029408879668684e-04 7.5496103356523644e-03 0.0000000000000000e+00 0.0000000000000000e+00 0.0000000000000000e+00 0.0000000000000000e+00  8.1637139282422187e-03 -4.2973125603352650e-04 0.0000000000000000e+00 -4.2973125603352650e-04 8.0968624499616650e-03 0.0000000000000000e+00 0.0000000000000000e+00 0.0000000000000000e+00 0.0000000000000000e+00  5.6533719532804623e-03 1.2663360028119326e-03 0.0000000000000000e+00 1.2663360028119326e-03 5.7894121779519629e-03 0.0000000000000000e+00 0.0000000000000000e+00 0.0000000000000000e+00 0.0000000000000000e+00  1.5573903125382201e-02 -3.9470108200062208e-03 0.0000000000000000e+00 -3.9470108200062208e-03 1.4293313084112058e-02 0.0000000000000000e+00 0.0000000000000000e+00 0.0000000000000000e+00 0.0000000000000000e+00  -1.7488493150685364e-02 6.6696071992062029e-03 0.0000000000000000e+00 6.6696071992062029e-03 -1.6350418349950300e-02 0.0000000000000000e+00 0.0000000000000000e+00 0.0000000000000000e+00 0.0000000000000000e+00  1.0344466462559901e-01 -4.8452984737560233e-02 0.0000000000000000e+00 -4.8452984737560233e-02 1.0203278995350640e-01 0.0000000000000000e+00 0.0000000000000000e+00 0.0000000000000000e+00 0.0000000000000000e+00  -2.3801736743472307e-01 1.3431283886550385e-01 0.0000000000000000e+00 1.3431283886550385e-01 -2.5739724442833206e-01 0.0000000000000000e+00 0.0000000000000000e+00 0.0000000000000000e+00 0.0000000000000000e+00  -2.9596309088543594e-02 -1.8052224557878527e-02 0.0000000000000000e+00 -1.8052224557878527e-02 -9.4997840370566938e-02 0.0000000000000000e+00 0.0000000000000000e+00 0.0000000000000000e+00 0.0000000000000000e+00  -1.0197546714455408e-01 -3.0819354307864689e-02 0.0000000000000000e+00 -3.0819354307864689e-02 -6.5217818995793542e-02 0.0000000000000000e+00 0.0000000000000000e+00 0.0000000000000000e+00 0.0000000000000000e+00  -1.3048319227620739e-01 7.8792003309370376e-03 0.0000000000000000e+00 7.8792003309370376e-03 -8.7833175021811635e-02 0.0000000000000000e+00 0.0000000000000000e+00 0.0000000000000000e+00 0.0000000000000000e+00  -7.5276043336331533e-02 1.2013240829537135e-02 0.0000000000000000e+00 1.2013240829537135e-02 -9.8932035491413231e-02 0.0000000000000000e+00 0.0000000000000000e+00 0.0000000000000000e+00 0.0000000000000000e+00  -9.6555165797693243e-02 3.8925318282036145e-03 0.0000000000000000e+00 3.8925318282036145e-03 -8.6380742135341082e-02 0.0000000000000000e+00 0.0000000000000000e+00 0.0000000000000000e+00 0.0000000000000000e+00  -9.0363459201062660e-02 9.3873571604042201e-03 0.0000000000000000e+00 9.3873571604042201e-03 -8.9403577200875217e-02 0.0000000000000000e+00 0.0000000000000000e+00 0.0000000000000000e+00 0.0000000000000000e+00  -8.8552658557285890e-02 8.2625142915460966e-03 0.0000000000000000e+00 8.2625142915460966e-03 -9.1204333328605849e-02 0.0000000000000000e+00 0.0000000000000000e+00 0.0000000000000000e+00 0.0000000000000000e+00  -8.8704211180018991e-02 8.0418783412815470e-03 0.0000000000000000e+00 8.0418783412815470e-03 -9.1591860720987864e-02 0.0000000000000000e+00 0.0000000000000000e+00 0.0000000000000000e+00 0.0000000000000000e+00  -8.7518178237424360e-02 7.0091576031865339e-03 0.0000000000000000e+00 7.0091576031865339e-03 -9.3186150566214876e-02 0.0000000000000000e+00 0.0000000000000000e+00 0.0000000000000000e+00 0.0000000000000000e+00  -8.7045662031120158e-02 4.7269807517451440e-03 0.0000000000000000e+00 4.7269807517451440e-03 -9.3789015125438538e-02 0.0000000000000000e+00 0.0000000000000000e+00 0.0000000000000000e+00 0.0000000000000000e+00  -8.7799747591178853e-02 1.8274570248342547e-03 0.0000000000000000e+00 1.8274570248342547e-03 -9.2369840967101088e-02 0.0000000000000000e+00 0.0000000000000000e+00 0.0000000000000000e+00 0.0000000000000000e+00  -9.0030185107875790e-02 -4.4831541621442460e-04 0.0000000000000000e+00 -4.4831541621442460e-04 -8.8594177089322435e-02 0.0000000000000000e+00 0.0000000000000000e+00 0.0000000000000000e+00 0.0000000000000000e+00  -9.3133030837488917e-02 -8.7209072496069896e-04 0.0000000000000000e+00 -8.7209072496069896e-04 -8.3432671024184960e-02 0.0000000000000000e+00 0.0000000000000000e+00 0.0000000000000000e+00 0.0000000000000000e+00  -9.6072223793344777e-02 8.0301753615849981e-04 0.0000000000000000e+00 8.0301753615849981e-04 -7.8603737999262360e-02 0.0000000000000000e+00 0.0000000000000000e+00 0.0000000000000000e+00 0.0000000000000000e+00  -9.8104275232274357e-02 3.9406089925249832e-03 0.0000000000000000e+00 3.9406089925249832e-03 -7.5546935323216630e-02 0.0000000000000000e+00 0.0000000000000000e+00 0.0000000000000000e+00 0.0000000000000000e+00  -9.8955606013485090e-02 7.5731826303665805e-03 0.0000000000000000e+00 7.5731826303665805e-03 -7.4968723574224058e-02 0.0000000000000000e+00 0.0000000000000000e+00 0.0000000000000000e+00 0.0000000000000000e+00  -9.8629969138676526e-02 1.0705900324625119e-02 0.0000000000000000e+00 1.0705900324625119e-02 -7.6916080821124749e-02 0.0000000000000000e+00 0.0000000000000000e+00 0.0000000000000000e+00 0.0000000000000000e+00  -9.7381292328627272e-02 1.2358041522341909e-02 0.0000000000000000e+00 1.2358041522341909e-02 -8.0797747343579016e-02 0.0000000000000000e+00 0.0000000000000000e+00 0.0000000000000000e+00 0.0000000000000000e+00  -9.5911470840399943e-02 1.1797068147213669e-02 0.0000000000000000e+00 1.1797068147213669e-02 -8.5285639019229365e-02 0.0000000000000000e+00 0.0000000000000000e+00 0.0000000000000000e+00 0.0000000000000000e+00  -9.5303502072281526e-02 9.0829462323028624e-03 0.0000000000000000e+00 9.0829462323028624e-03 -8.8638132793412219e-02 0.0000000000000000e+00 0.0000000000000000e+00 0.0000000000000000e+00 0.0000000000000000e+00  -9.6369296931269666e-02 5.3267546274757792e-03 0.0000000000000000e+00 5.3267546274757792e-03 -8.9680681278139676e-02 0.0000000000000000e+00 0.0000000000000000e+00 0.0000000000000000e+00 0.0000000000000000e+00  -9.9066153991440656e-02 1.8897095804934964e-03 0.0000000000000000e+00 1.8897095804934964e-03 -8.8572529123103358e-02 0.0000000000000000e+00 0.0000000000000000e+00 0.0000000000000000e+00 0.0000000000000000e+00  -1.0300942570606353e-01 -4.3762791115686616e-04 0.0000000000000000e+00 -4.3762791115686616e-04 -8.6335779922617373e-02 0.0000000000000000e+00 0.0000000000000000e+00 0.0000000000000000e+00 0.0000000000000000e+00  -1.0662814031370330e-01 -1.6907930575574869e-03 0.0000000000000000e+00 -1.6907930575574869e-03 -8.5174769776880946e-02 0.0000000000000000e+00 0.0000000000000000e+00 0.0000000000000000e+00 0.0000000000000000e+00  -1.1078519740729334e-01 -3.6465121571786462e-03 0.0000000000000000e+00 -3.6465121571786462e-03 -8.4757882525012151e-02 0.0000000000000000e+00 0.0000000000000000e+00 0.0000000000000000e+00 0.0000000000000000e+00  -1.2255695275660707e-01 -1.2702183912041076e-03 0.0000000000000000e+00 -1.2702183912041076e-03 -8.2015770721998629e-02 0.0000000000000000e+00 0.0000000000000000e+00 0.0000000000000000e+00 0.0000000000000000e+00  -1.0988230307622805e-01 -2.9808653541865938e-03 0.0000000000000000e+00 -2.9808653541865938e-03 -9.7579360173643603e-02 0.0000000000000000e+00 0.0000000000000000e+00 0.0000000000000000e+00 0.0000000000000000e+00  -1.4178305746238234e-01 -2.1039112017294106e-02 0.0000000000000000e+00 -2.1039112017294106e-02 -9.7790500687818291e-02 0.0000000000000000e+00 0.0000000000000000e+00 0.0000000000000000e+00 0.0000000000000000e+00  -1.7617074580334321e-01 3.4824852395175313e-02 0.0000000000000000e+00 3.4824852395175313e-02 -9.6866889152279673e-02 0.0000000000000000e+00 0.0000000000000000e+00 0.0000000000000000e+00 0.0000000000000000e+00  -3.6484961044457850e-02 -2.9927047140652804e-02 0.0000000000000000e+00 -2.9927047140652804e-02 -5.0989760666332581e-02 0.0000000000000000e+00 0.0000000000000000e+00 0.0000000000000000e+00 0.0000000000000000e+00  -3.1871343466263852e-01 -5.2048940768755103e-02 0.0000000000000000e+00 -5.2048940768755103e-02 -3.2386204668310109e-01 0.0000000000000000e+00 0.0000000000000000e+00 0.0000000000000000e+00 0.0000000000000000e+00  7.2718853830944105e-02 -1.8107395494088834e-02 0.0000000000000000e+00 -1.8107395494088834e-02 5.5046217380695664e-02 0.0000000000000000e+00 0.0000000000000000e+00 0.0000000000000000e+00 0.0000000000000000e+00  -1.7386628416042847e-02 1.4046773077704194e-02 0.0000000000000000e+00 1.4046773077704194e-02 -1.3650439514577185e-02 0.0000000000000000e+00 0.0000000000000000e+00 0.0000000000000000e+00 0.0000000000000000e+00  8.8662032989148074e-03 -1.5702526718062607e-04 0.0000000000000000e+00 -1.5702526718062607e-04 6.0752157118015449e-03 0.0000000000000000e+00 0.0000000000000000e+00 0.0000000000000000e+00 0.0000000000000000e+00  7.5988389437236798e-04 -4.7417948063736793e-04 0.0000000000000000e+00 -4.7417948063736793e-04 1.2185902866205967e-03 0.0000000000000000e+00 0.0000000000000000e+00 0.0000000000000000e+00 0.0000000000000000e+00  2.7064281335310069e-03 1.8791445626759116e-04 0.0000000000000000e+00 1.8791445626759116e-04 2.6292898584770550e-03 0.0000000000000000e+00 0.0000000000000000e+00 0.0000000000000000e+00 0.0000000000000000e+00  2.3186001709556035e-03 -9.4979080018354532e-05 0.0000000000000000e+00 -9.4979080018354532e-05 2.2821166019204755e-03 0.0000000000000000e+00 0.0000000000000000e+00 0.0000000000000000e+00 0.0000000000000000e+00  2.4084352955379665e-03 -5.0088524258582607e-07 0.0000000000000000e+00 -5.0088524258582544e-07 2.3503793700180922e-03 0.0000000000000000e+00 0.0000000000000000e+00 0.0000000000000000e+00 0.0000000000000000e+00  2.3212648505539350e-03 9.1733949518709059e-05 0.0000000000000000e+00 9.1733949518709059e-05 2.2786603804179138e-03 0.0000000000000000e+00 0.0000000000000000e+00 0.0000000000000000e+00 0.0000000000000000e+00  2.7510379074981673e-03 -1.7136655906328506e-04 0.0000000000000000e+00 -1.7136655906328506e-04 2.6847756951652564e-03 0.0000000000000000e+00 0.0000000000000000e+00 0.0000000000000000e+00 0.0000000000000000e+00  6.9824569844664558e-04 3.3627595589423619e-04 0.0000000000000000e+00 3.3627595589423619e-04 1.1922222163560853e-03 0.0000000000000000e+00 0.0000000000000000e+00 0.0000000000000000e+00 0.0000000000000000e+00  9.1052583374457326e-03 7.3650790070090043e-04 0.0000000000000000e+00 7.3650790070090022e-04 6.2263751835142265e-03 0.0000000000000000e+00 0.0000000000000000e+00 0.0000000000000000e+00 0.0000000000000000e+00  -1.5595846657461715e-02 -1.6289672166049946e-02 0.0000000000000000e+00 -1.6289672166049946e-02 -1.1818238952384470e-02 0.0000000000000000e+00 0.0000000000000000e+00 0.0000000000000000e+00 0.0000000000000000e+00  6.9489464015299748e-02 2.2902414576188794e-02 0.0000000000000000e+00 2.2902414576188794e-02 5.4714503647364653e-02 0.0000000000000000e+00 0.0000000000000000e+00 0.0000000000000000e+00 0.0000000000000000e+00  -3.1530268106649284e-01 4.8273608248679122e-02 0.0000000000000000e+00 4.8273608248679122e-02 -3.2460008861821876e-01 0.0000000000000000e+00 0.0000000000000000e+00 0.0000000000000000e+00 0.0000000000000000e+00  -3.4655932151339205e-02 2.9626952204844258e-02 0.0000000000000000e+00 2.9626952204844258e-02 -4.9964144710215729e-02 0.0000000000000000e+00 0.0000000000000000e+00 0.0000000000000000e+00 0.0000000000000000e+00  -1.7521990516962652e-01 -3.4208458608347314e-02 0.0000000000000000e+00 -3.4208458608347314e-02 -9.3330820137427967e-02 0.0000000000000000e+00 0.0000000000000000e+00 0.0000000000000000e+00 0.0000000000000000e+00  -1.4085775719914906e-01 2.1449875397919389e-02 0.0000000000000000e+00 2.1449875397919389e-02 -9.6340080397221847e-02 0.0000000000000000e+00 0.0000000000000000e+00 0.0000000000000000e+00 0.0000000000000000e+00  -1.0871898510064774e-01 3.8198267315315859e-03 0.0000000000000000e+00 3.8198267315315859e-03 -9.6873122484281121e-02 0.0000000000000000e+00 0.0000000000000000e+00 0.0000000000000000e+00 0.0000000000000000e+00  -1.2169335731716681e-01 1.8008427200623188e-03 0.0000000000000000e+00 1.8008427200623188e-03 -8.1745084229947335e-02 0.0000000000000000e+00 0.0000000000000000e+00 0.0000000000000000e+00 0.0000000000000000e+00  -1.1007825195971915e-01 4.0861681038382230e-03 0.0000000000000000e+00 4.0861681038382230e-03 -8.4779508113149618e-02 0.0000000000000000e+00 0.0000000000000000e+00 0.0000000000000000e+00 0.0000000000000000e+00  -1.0601313046153585e-01 1.9792125387854036e-03 0.0000000000000000e+00 1.9792125387854036e-03 -8.5387130783864326e-02 0.0000000000000000e+00 0.0000000000000000e+00 0.0000000000000000e+00 0.0000000000000000e+00  -1.0252123834578844e-01 6.2564540092888241e-04 0.0000000000000000e+00 6.2564540092888241e-04 -8.6599990825811837e-02 0.0000000000000000e+00 0.0000000000000000e+00 0.0000000000000000e+00 0.0000000000000000e+00  -9.8663064446761775e-02 -1.7534602280149642e-03 0.0000000000000000e+00 -1.7534602280149642e-03 -8.8848936664952069e-02 0.0000000000000000e+00 0.0000000000000000e+00 0.0000000000000000e+00 0.0000000000000000e+00  -9.6026081548385503e-02 -5.2125465287931544e-03 0.0000000000000000e+00 -5.2125465287931544e-03 -8.9949255712029788e-02 0.0000000000000000e+00 0.0000000000000000e+00 0.0000000000000000e+00 0.0000000000000000e+00  -9.4998820986185131e-02 -8.9747077553072041e-03 0.0000000000000000e+00 -8.9747077553072041e-03 -8.8891714601476018e-02 0.0000000000000000e+00 0.0000000000000000e+00 0.0000000000000000e+00 0.0000000000000000e+00  -9.5634202143547675e-02 -1.1688242600572782e-02 0.0000000000000000e+00 -1.1688242600572782e-02 -8.5516517707148104e-02 0.0000000000000000e+00 0.0000000000000000e+00 0.0000000000000000e+00 0.0000000000000000e+00  -9.7127592702846655e-02 -1.2240309961249909e-02 0.0000000000000000e+00 -1.2240309961249909e-02 -8.0996762446874523e-02 0.0000000000000000e+00 0.0000000000000000e+00 0.0000000000000000e+00 0.0000000000000000e+00  -9.8394569874652130e-02 -1.0567476672264773e-02 0.0000000000000000e+00 -1.0567476672264771e-02 -7.7080559852292230e-02 0.0000000000000000e+00 0.0000000000000000e+00 0.0000000000000000e+00 0.0000000000000000e+00  -9.8727533937143633e-02 -7.4052485363529730e-03 0.0000000000000000e+00 -7.4052485363529730e-03 -7.5106508152325183e-02 0.0000000000000000e+00 0.0000000000000000e+00 0.0000000000000000e+00 0.0000000000000000e+00  -9.7869715161654949e-02 -3.7437757877570184e-03 0.0000000000000000e+00 -3.7437757877570184e-03 -7.5671563604750955e-02 0.0000000000000000e+00 0.0000000000000000e+00 0.0000000000000000e+00 0.0000000000000000e+00  -9.5820733050390974e-02 -5.8804394213274466e-04 0.0000000000000000e+00 -5.8804394213274466e-04 -7.8725084019934347e-02 0.0000000000000000e+00 0.0000000000000000e+00 0.0000000000000000e+00 0.0000000000000000e+00  -9.2862367807527851e-02 1.0897605136345266e-03 0.0000000000000000e+00 1.0897605136345266e-03 -8.3549711800319532e-02 0.0000000000000000e+00 0.0000000000000000e+00 0.0000000000000000e+00 0.0000000000000000e+00  -8.9746397790385804e-02 6.5696404631046502e-04 0.0000000000000000e+00 6.5696404631046502e-04 -8.8694789364478874e-02 0.0000000000000000e+00 0.0000000000000000e+00 0.0000000000000000e+00 0.0000000000000000e+00  -8.7511683340691704e-02 -1.6300279756673731e-03 0.0000000000000000e+00 -1.6300279756673731e-03 -9.2438296292867941e-02 0.0000000000000000e+00 0.0000000000000000e+00 0.0000000000000000e+00 0.0000000000000000e+00  -8.6757887712424472e-02 -4.5354349938678436e-03 0.0000000000000000e+00 -4.5354349938678436e-03 -9.3815124293915600e-02 0.0000000000000000e+00 0.0000000000000000e+00 0.0000000000000000e+00 0.0000000000000000e+00  -8.7229840149004673e-02 -6.8182340013585030e-03 0.0000000000000000e+00 -6.8182340013585030e-03 -9.3167271127810328e-02 0.0000000000000000e+00 0.0000000000000000e+00 0.0000000000000000e+00 0.0000000000000000e+00  -8.8410530558944225e-02 -7.8496558605008881e-03 0.0000000000000000e+00 -7.8496558605008881e-03 -9.1530235802096405e-02 0.0000000000000000e+00 0.0000000000000000e+00 0.0000000000000000e+00 0.0000000000000000e+00  -8.8246423797650977e-02 -8.0751906583948242e-03 0.0000000000000000e+00 -8.0751906583948242e-03 -9.1101328905483114e-02 0.0000000000000000e+00 0.0000000000000000e+00 0.0000000000000000e+00 0.0000000000000000e+00  -9.0076849727950922e-02 -9.1990512778872442e-03 0.0000000000000000e+00 -9.1990512778872442e-03 -8.9231419975644558e-02 0.0000000000000000e+00 0.0000000000000000e+00 0.0000000000000000e+00 0.0000000000000000e+00  -9.6223247735341744e-02 -3.6905942892504220e-03 0.0000000000000000e+00 -3.6905942892504220e-03 -8.6179082381482489e-02 0.0000000000000000e+00 0.0000000000000000e+00 0.0000000000000000e+00 0.0000000000000000e+00  -7.4930062091262101e-02 -1.1898451368075729e-02 0.0000000000000000e+00 -1.1898451368075729e-02 -9.8659156953536331e-02 0.0000000000000000e+00 0.0000000000000000e+00 0.0000000000000000e+00 0.0000000000000000e+00  -1.3045911887745162e-01 -7.5119383266396469e-03 0.0000000000000000e+00 -7.5119383266396469e-03 -8.7397774902915421e-02 0.0000000000000000e+00 0.0000000000000000e+00 0.0000000000000000e+00 0.0000000000000000e+00  -1.0142885746958259e-01 3.0924842913824892e-02 0.0000000000000000e+00 3.0924842913824892e-02 -6.4574312230884015e-02 0.0000000000000000e+00 0.0000000000000000e+00 0.0000000000000000e+00 0.0000000000000000e+00  -2.9631357794807512e-02 1.8594777321539382e-02 0.0000000000000000e+00 1.8594777321539382e-02 -9.5307184065164322e-02 0.0000000000000000e+00 0.0000000000000000e+00 0.0000000000000000e+00 0.0000000000000000e+00  -2.3795645406141228e-01 -1.3459707270740137e-01 0.0000000000000000e+00 -1.3459707270740137e-01 -2.5743629940487928e-01 0.0000000000000000e+00 0.0000000000000000e+00 0.0000000000000000e+00 0.0000000000000000e+00  1.0256568495354570e-01 4.8731147803127303e-02 0.0000000000000000e+00 4.8731147803127303e-02 1.0123229630323029e-01 0.0000000000000000e+00 0.0000000000000000e+00 0.0000000000000000e+00 0.0000000000000000e+00  -1.8096606514976007e-02 -6.6930894138518713e-03 0.0000000000000000e+00 -6.6930894138518696e-03 -1.7026819350346684e-02 0.0000000000000000e+00 0.0000000000000000e+00 0.0000000000000000e+00 0.0000000000000000e+00  1.5339752967461344e-02 3.9726284692195172e-03 0.0000000000000000e+00 3.9726284692195172e-03 1.4084576244314565e-02 0.0000000000000000e+00 0.0000000000000000e+00 0.0000000000000000e+00 0.0000000000000000e+00  5.7597132247464685e-03 -1.2858482821050475e-03 0.0000000000000000e+00 -1.2858482821050475e-03 5.8835695559651272e-03 0.0000000000000000e+00 0.0000000000000000e+00 0.0000000000000000e+00 0.0000000000000000e+00  8.2064288406296770e-03 4.1739942132210404e-04 0.0000000000000000e+00 4.1739942132210404e-04 8.1191373137124729e-03 0.0000000000000000e+00 0.0000000000000000e+00 0.0000000000000000e+00 0.0000000000000000e+00  7.5963858725356555e-03 -1.0254210199228817e-04 0.0000000000000000e+00 -1.0254210199228817e-04 7.5903436733044923e-03 0.0000000000000000e+00 0.0000000000000000e+00 0.0000000000000000e+00 0.0000000000000000e+00  7.7173668309120647e-03 2.6420662561421700e-05 0.0000000000000000e+00 2.6420662561421700e-05 7.7267920237899176e-03 0.0000000000000000e+00 0.0000000000000000e+00 0.0000000000000000e+00 0.0000000000000000e+00  7.6961525917295711e-03 -9.6602668297694027e-06 0.0000000000000000e+00 -9.6602668297694027e-06 7.7059770367447818e-03 0.0000000000000000e+00 0.0000000000000000e+00 0.0000000000000000e+00 0.0000000000000000e+00  7.6970608031292605e-03 -9.2250803340282740e-06 0.0000000000000000e+00 -9.2250803340282740e-06 7.7147365697178179e-03 0.0000000000000000e+00 0.0000000000000000e+00 0.0000000000000000e+00 0.0000000000000000e+00  7.6972290946655817e-03 -1.7490394508074429e-05 0.0000000000000000e+00 -1.7490394508074429e-05 7.7135543675177446e-03 0.0000000000000000e+00 0.0000000000000000e+00 0.0000000000000000e+00 0.0000000000000000e+00  7.6984659619551629e-03 -2.5465049718964847e-05 0.0000000000000000e+00 -2.5465049718964847e-05 7.7095952736015386e-03 0.0000000000000000e+00 0.0000000000000000e+00 0.0000000000000000e+00 0.0000000000000000e+00  7.7011852606544895e-03 -3.4490882028812764e-05 0.0000000000000000e+00 -3.4490882028812764e-05 7.7014916527323573e-03 0.0000000000000000e+00 0.0000000000000000e+00 0.0000000000000000e+00 0.0000000000000000e+00  7.6762055293667485e-03 4.1754762138599281e-05 0.0000000000000000e+00 4.1754762138599281e-05 7.6765968191565559e-03 0.0000000000000000e+00 0.0000000000000000e+00 0.0000000000000000e+00 0.0000000000000000e+00  7.6736139782004366e-03 2.9940956022201313e-05 0.0000000000000000e+00 2.9940956022201313e-05 7.6845866209542387e-03 0.0000000000000000e+00 0.0000000000000000e+00 0.0000000000000000e+00 0.0000000000000000e+00  7.6723024113196630e-03 1.8693128627609369e-05 0.0000000000000000e+00 1.8693128627609369e-05 7.6876820217533287e-03 0.0000000000000000e+00 0.0000000000000000e+00 0.0000000000000000e+00 0.0000000000000000e+00  7.6738331322695813e-03 1.0411335269484075e-05 0.0000000000000000e+00 1.0411335269484075e-05 7.6857742203814399e-03 0.0000000000000000e+00 0.0000000000000000e+00 0.0000000000000000e+00 0.0000000000000000e+00  7.6740455864431891e-03 -1.0861494433578979e-05 0.0000000000000000e+00 -1.0861494433578979e-05 7.6846675150120643e-03 0.0000000000000000e+00 0.0000000000000000e+00 0.0000000000000000e+00 0.0000000000000000e+00  7.6633048872399665e-03 5.9781909871427532e-05 0.0000000000000000e+00 5.9781909871427532e-05 7.6309074050208668e-03 0.0000000000000000e+00 0.0000000000000000e+00 0.0000000000000000e+00 0.0000000000000000e+00  7.8617993956864828e-03 -3.4660810785301654e-04 0.0000000000000000e+00 -3.4660810785301654e-04 7.8897584958893194e-03 0.0000000000000000e+00 0.0000000000000000e+00 0.0000000000000000e+00 0.0000000000000000e+00  6.5657103872678382e-03 1.3872486004169380e-03 0.0000000000000000e+00 1.3872486004169380e-03 6.4030434044086114e-03 0.0000000000000000e+00 0.0000000000000000e+00 0.0000000000000000e+00 0.0000000000000000e+00  1.3805366317675130e-02 -5.3414616815468914e-03 0.0000000000000000e+00 -5.3414616815468914e-03 1.2910327230961889e-02 0.0000000000000000e+00 0.0000000000000000e+00 0.0000000000000000e+00 0.0000000000000000e+00  -1.5782293504862134e-02 1.3546037133246668e-02 0.0000000000000000e+00 1.3546037133246668e-02 -1.4766876920850179e-02 0.0000000000000000e+00 0.0000000000000000e+00 0.0000000000000000e+00 0.0000000000000000e+00  1.1204581244606077e-01 -6.0153452939244179e-02 0.0000000000000000e+00 -6.0153452939244179e-02 8.7478557113180699e-02 0.0000000000000000e+00 0.0000000000000000e+00 0.0000000000000000e+00 0.0000000000000000e+00  -2.5774575392514776e-01 1.3581405800496277e-01 0.0000000000000000e+00 1.3581405800496277e-01 -2.3528050711207196e-01 0.0000000000000000e+00 0.0000000000000000e+00 0.0000000000000000e+00 0.0000000000000000e+00  -4.2539453916975091e-02 -7.0976946398942121e-03 0.0000000000000000e+00 -7.0976946398942121e-03 -4.0100050826708325e-02 0.0000000000000000e+00 0.0000000000000000e+00 0.0000000000000000e+00 0.0000000000000000e+00  -1.1236484265346706e-01 -3.7707720963653706e-02 0.0000000000000000e+00 -3.7707720963653706e-02 -1.0049465863362146e-01 0.0000000000000000e+00 0.0000000000000000e+00 0.0000000000000000e+00 0.0000000000000000e+00  -1.0167990007131099e-01 2.4867206939832548e-02 0.0000000000000000e+00 2.4867206939832548e-02 -9.9449292947444673e-02 0.0000000000000000e+00 0.0000000000000000e+00 0.0000000000000000e+00 0.0000000000000000e+00  -8.3619295341700706e-02 3.3075514080698910e-03 0.0000000000000000e+00 3.3075514080698910e-03 -9.7269049444069791e-02 0.0000000000000000e+00 0.0000000000000000e+00 0.0000000000000000e+00 0.0000000000000000e+00  -9.6183461597947148e-02 5.8690884459135220e-03 0.0000000000000000e+00 5.8690884459135220e-03 -8.9113719480508793e-02 0.0000000000000000e+00 0.0000000000000000e+00 0.0000000000000000e+00 0.0000000000000000e+00  -8.8942873466212893e-02 7.4349122406523627e-03 0.0000000000000000e+00 7.4349122406523627e-03 -9.1866618309834502e-02 0.0000000000000000e+00 0.0000000000000000e+00 0.0000000000000000e+00 0.0000000000000000e+00  -9.0507474099872823e-02 6.8856212356310439e-03 0.0000000000000000e+00 6.8856212356310439e-03 -9.0091912376064190e-02 0.0000000000000000e+00 0.0000000000000000e+00 0.0000000000000000e+00 0.0000000000000000e+00  -8.9402401398866169e-02 7.5828869675423228e-03 0.0000000000000000e+00 7.5828869675423228e-03 -9.0616415372723413e-02 0.0000000000000000e+00 0.0000000000000000e+00 0.0000000000000000e+00 0.0000000000000000e+00  -8.8503219475897926e-02 7.1986834550392311e-03 0.0000000000000000e+00 7.1986834550392311e-03 -9.1453824978815712e-02 0.0000000000000000e+00 0.0000000000000000e+00 0.0000000000000000e+00 0.0000000000000000e+00  -8.7987186626414596e-02 6.3087561581077478e-03 0.0000000000000000e+00 6.3087561581077478e-03 -9.1942906315894690e-02 0.0000000000000000e+00 0.0000000000000000e+00 0.0000000000000000e+00 0.0000000000000000e+00  -8.7849263765205729e-02 4.8278695291009569e-03 0.0000000000000000e+00 4.8278695291009569e-03 -9.1827273787947902e-02 0.0000000000000000e+00 0.0000000000000000e+00 0.0000000000000000e+00 0.0000000000000000e+00  -8.8560857775656088e-02 3.1167980525854426e-03 0.0000000000000000e+00 3.1167980525854426e-03 -9.0471275654419842e-02 0.0000000000000000e+00 0.0000000000000000e+00 0.0000000000000000e+00 0.0000000000000000e+00  -9.0193821195714924e-02 1.8925327559236888e-03 0.0000000000000000e+00 1.8925327559236888e-03 -8.7782219716159959e-02 0.0000000000000000e+00 0.0000000000000000e+00 0.0000000000000000e+00 0.0000000000000000e+00  -9.2398473903477746e-02 1.7995318189657735e-03 0.0000000000000000e+00 1.7995318189657735e-03 -8.4314025269716195e-02 0.0000000000000000e+00 0.0000000000000000e+00 0.0000000000000000e+00 0.0000000000000000e+00  -9.4569716376998139e-02 3.0314862015885591e-03 0.0000000000000000e+00 3.0314862015885591e-03 -8.1031685572523868e-02 0.0000000000000000e+00 0.0000000000000000e+00 0.0000000000000000e+00 0.0000000000000000e+00  -9.6175776551581924e-02 5.2648862997789507e-03 0.0000000000000000e+00 5.2648862997789507e-03 -7.8839914754040397e-02 0.0000000000000000e+00 0.0000000000000000e+00 0.0000000000000000e+00 0.0000000000000000e+00  -9.6938977803056006e-02 7.8625293988489955e-03 0.0000000000000000e+00 7.8625293988489955e-03 -7.8262164974598827e-02 0.0000000000000000e+00 0.0000000000000000e+00 0.0000000000000000e+00 0.0000000000000000e+00  -9.6858557411843058e-02 1.0088784322956840e-02 0.0000000000000000e+00 1.0088784322956840e-02 -7.9336908282126764e-02 0.0000000000000000e+00 0.0000000000000000e+00 0.0000000000000000e+00 0.0000000000000000e+00  -9.6209928178822277e-02 1.1278668427141517e-02 0.0000000000000000e+00 1.1278668427141517e-02 -8.1614037747169188e-02 0.0000000000000000e+00 0.0000000000000000e+00 0.0000000000000000e+00 0.0000000000000000e+00  -9.5537781554770398e-02 1.1042691564870415e-02 0.0000000000000000e+00 1.1042691564870415e-02 -8.4234639290352326e-02 0.0000000000000000e+00 0.0000000000000000e+00 0.0000000000000000e+00 0.0000000000000000e+00  -9.5514261943060993e-02 9.4903985428719181e-03 0.0000000000000000e+00 9.4903985428719181e-03 -8.6212540220296549e-02 0.0000000000000000e+00 0.0000000000000000e+00 0.0000000000000000e+00 0.0000000000000000e+00  -9.6621374362910364e-02 7.2334683411105693e-03 0.0000000000000000e+00 7.2334683411105693e-03 -8.6909329386117520e-02 0.0000000000000000e+00 0.0000000000000000e+00 0.0000000000000000e+00 0.0000000000000000e+00  -9.8932409928792847e-02 5.0501407417390181e-03 0.0000000000000000e+00 5.0501407417390181e-03 -8.6354239497420479e-02 0.0000000000000000e+00 0.0000000000000000e+00 0.0000000000000000e+00 0.0000000000000000e+00  -1.0210447823754194e-01 3.4435433620548530e-03 0.0000000000000000e+00 3.4435433620548530e-03 -8.5223821961466370e-02 0.0000000000000000e+00 0.0000000000000000e+00 0.0000000000000000e+00 0.0000000000000000e+00  -1.0595597395732999e-01 2.4236403601972981e-03 0.0000000000000000e+00 2.4236403601972981e-03 -8.4172616407814260e-02 0.0000000000000000e+00 0.0000000000000000e+00 0.0000000000000000e+00 0.0000000000000000e+00  -1.1082650108593965e-01 2.3331860909180544e-03 0.0000000000000000e+00 2.3331860909180544e-03 -8.3730426750237244e-02 0.0000000000000000e+00 0.0000000000000000e+00 0.0000000000000000e+00 0.0000000000000000e+00  -1.1344031182889645e-01 2.0285884630069093e-03 0.0000000000000000e+00 2.0285884630069093e-03 -8.7009845187377852e-02 0.0000000000000000e+00 0.0000000000000000e+00 0.0000000000000000e+00 0.0000000000000000e+00  -1.2264247328545637e-01 -1.2850902544515121e-04 0.0000000000000000e+00 -1.2850902544515121e-04 -8.8218679542198197e-02 0.0000000000000000e+00 0.0000000000000000e+00 0.0000000000000000e+00 0.0000000000000000e+00  -1.2415936005417569e-01 5.7349804447341642e-03 0.0000000000000000e+00 5.7349804447341642e-03 -9.8380928104278564e-02 0.0000000000000000e+00 0.0000000000000000e+00 0.0000000000000000e+00 0.0000000000000000e+00  -1.2962828985353525e-01 -2.7043597394743882e-02 0.0000000000000000e+00 -2.7043597394743882e-02 -1.0602531686844162e-01 0.0000000000000000e+00 0.0000000000000000e+00 0.0000000000000000e+00 0.0000000000000000e+00  -1.7538171817528841e-01 3.6872682828036664e-02 0.0000000000000000e+00 3.6872682828036664e-02 -1.4216143956738284e-01 0.0000000000000000e+00 0.0000000000000000e+00 0.0000000000000000e+00 0.0000000000000000e+00  -6.5549640716887819e-02 -3.3935080458514580e-02 0.0000000000000000e+00 -3.3935080458514580e-02 -2.7636953377481212e-02 0.0000000000000000e+00 0.0000000000000000e+00 0.0000000000000000e+00 0.0000000000000000e+00  -3.6656786116443041e-01 -7.3532465579630918e-02 0.0000000000000000e+00 -7.3532465579630918e-02 -2.9516544900382774e-01 0.0000000000000000e+00 0.0000000000000000e+00 0.0000000000000000e+00 0.0000000000000000e+00  1.0314567751709697e-01 2.2357117397651616e-02 0.0000000000000000e+00 2.2357117397651616e-02 4.7952205561944593e-02 0.0000000000000000e+00 0.0000000000000000e+00 0.0000000000000000e+00 0.0000000000000000e+00  -2.0171524490561171e-02 -5.3283617699289966e-03 0.0000000000000000e+00 -5.3283617699289966e-03 -1.8100542508186549e-02 0.0000000000000000e+00 0.0000000000000000e+00 0.0000000000000000e+00 0.0000000000000000e+00  6.8667302221647021e-03 3.4870597711213437e-03 0.0000000000000000e+00 3.4870597711213437e-03 5.8123972757336360e-03 0.0000000000000000e+00 0.0000000000000000e+00 0.0000000000000000e+00 0.0000000000000000e+00  1.7638048609654856e-03 -9.6903196761261023e-04 0.0000000000000000e+00 -9.6903196761261023e-04 1.6456938553926258e-03 0.0000000000000000e+00 0.0000000000000000e+00 0.0000000000000000e+00 0.0000000000000000e+00  2.3845080840245465e-03 1.2170382240761932e-04 0.0000000000000000e+00 1.2170382240761932e-04 2.3981566139008250e-03 0.0000000000000000e+00 0.0000000000000000e+00 0.0000000000000000e+00 0.0000000000000000e+00  2.3651517978749165e-03 4.4891954270139045e-07 0.0000000000000000e+00 4.4891954270139003e-07 2.2622064074764186e-03 0.0000000000000000e+00 0.0000000000000000e+00 0.0000000000000000e+00 0.0000000000000000e+00  2.4215407585901423e-03 -1.4091654787397738e-04 0.0000000000000000e+00 -1.4091654787397738e-04 2.4386004332537393e-03 0.0000000000000000e+00 0.0000000000000000e+00 0.0000000000000000e+00 0.0000000000000000e+00  1.6345757749465664e-03 9.2813394616918135e-04 0.0000000000000000e+00 9.2813394616918135e-04 1.5466968681839110e-03 0.0000000000000000e+00 0.0000000000000000e+00 0.0000000000000000e+00 0.0000000000000000e+00  7.3899629581296181e-03 -3.2372162307871214e-03 0.0000000000000000e+00 -3.2372162307871214e-03 6.1420265214045082e-03 0.0000000000000000e+00 0.0000000000000000e+00 0.0000000000000000e+00 0.0000000000000000e+00  -1.9767498120829365e-02 3.5365401255618321e-03 0.0000000000000000e+00 3.5365401255618321e-03 -1.7235934575861530e-02 0.0000000000000000e+00 0.0000000000000000e+00 0.0000000000000000e+00 0.0000000000000000e+00  1.0207263879967785e-01 -1.6312472021178404e-02 0.0000000000000000e+00 -1.6312472021178404e-02 4.6598240384591420e-02 0.0000000000000000e+00 0.0000000000000000e+00 0.0000000000000000e+00 0.0000000000000000e+00  -3.6805254810407795e-01 6.6124384224784283e-02 0.0000000000000000e+00 6.6124384224784283e-02 -2.9706722259192314e-01 0.0000000000000000e+00 0.0000000000000000e+00 0.0000000000000000e+00 0.0000000000000000e+00  -6.3792742973001623e-02 3.4181639611582895e-02 0.0000000000000000e+00 3.4181639611582895e-02 -2.6278139789872208e-02 0.0000000000000000e+00 0.0000000000000000e+00 0.0000000000000000e+00 0.0000000000000000e+00  -1.7796798799184665e-01 -3.6356913269540742e-02 0.0000000000000000e+00 -3.6356913269540742e-02 -1.3870942149998861e-01 0.0000000000000000e+00 0.0000000000000000e+00 0.0000000000000000e+00 0.0000000000000000e+00  -1.2980603542795410e-01 2.7529428184142373e-02 0.0000000000000000e+00 2.7529428184142373e-02 -1.0436472801704721e-01 0.0000000000000000e+00 0.0000000000000000e+00 0.0000000000000000e+00 0.0000000000000000e+00  -1.2446923477783732e-01 -4.9509046751414340e-03 0.0000000000000000e+00 -4.9509046751414340e-03 -9.7019915675689600e-02 0.0000000000000000e+00 0.0000000000000000e+00 0.0000000000000000e+00 0.0000000000000000e+00  -1.2283160117401512e-01 8.1186557281909982e-04 0.0000000000000000e+00 8.1186557281909982e-04 -8.7351432788970035e-02 0.0000000000000000e+00 0.0000000000000000e+00 0.0000000000000000e+00 0.0000000000000000e+00  -1.1345040828267294e-01 -1.4019786111114552e-03 0.0000000000000000e+00 -1.4019786111114552e-03 -8.6594601520427000e-02 0.0000000000000000e+00 0.0000000000000000e+00 0.0000000000000000e+00 0.0000000000000000e+00  -1.1076264186087290e-01 -1.8698738499781503e-03 0.0000000000000000e+00 -1.8698738499781503e-03 -8.3615844608506670e-02 0.0000000000000000e+00 0.0000000000000000e+00 0.0000000000000000e+00 0.0000000000000000e+00  -1.0585509319760024e-01 -2.0847432452750308e-03 0.0000000000000000e+00 -2.0847432452750308e-03 -8.4245679940079296e-02 0.0000000000000000e+00 0.0000000000000000e+00 0.0000000000000000e+00 0.0000000000000000e+00  -1.0198576884411972e-01 -3.2055440505942266e-03 0.0000000000000000e+00 -3.2055440505942266e-03 -8.5405540154934970e-02 0.0000000000000000e+00 0.0000000000000000e+00 0.0000000000000000e+00 0.0000000000000000e+00  -9.8812761966523555e-02 -4.8768721931779831e-03 0.0000000000000000e+00 -4.8768721931779831e-03 -8.6584184867938854e-02 0.0000000000000000e+00 0.0000000000000000e+00 0.0000000000000000e+00 0.0000000000000000e+00  -9.6501288042621619e-02 -7.0953110916627260e-03 0.0000000000000000e+00 -7.0953110916627260e-03 -8.7156316374363357e-02 0.0000000000000000e+00 0.0000000000000000e+00 0.0000000000000000e+00 0.0000000000000000e+00  -9.5392260163737058e-02 -9.3678424691096690e-03 0.0000000000000000e+00 -9.3678424691096690e-03 -8.6458331734521901e-02 0.0000000000000000e+00 0.0000000000000000e+00 0.0000000000000000e+00 0.0000000000000000e+00  -9.5413091840275174e-02 -1.0923161321787205e-02 0.0000000000000000e+00 -1.0923161321787209e-02 -8.4467132809314033e-02 0.0000000000000000e+00 0.0000000000000000e+00 0.0000000000000000e+00 0.0000000000000000e+00  -9.6082750499498715e-02 -1.1152451652769145e-02 0.0000000000000000e+00 -1.1152451652769138e-02 -8.1824758940104839e-02 0.0000000000000000e+00 0.0000000000000000e+00 0.0000000000000000e+00 0.0000000000000000e+00  -9.6727487007167559e-02 -9.9474661797555510e-03 0.0000000000000000e+00 -9.9474661797555510e-03 -7.9522435371768979e-02 0.0000000000000000e+00 0.0000000000000000e+00 0.0000000000000000e+00 0.0000000000000000e+00  -9.6799556007641771e-02 -7.7009609947439094e-03 0.0000000000000000e+00 -7.7009609947439094e-03 -7.8424761921651681e-02 0.0000000000000000e+00 0.0000000000000000e+00 0.0000000000000000e+00 0.0000000000000000e+00  -9.6021956887577919e-02 -5.0835814813139212e-03 0.0000000000000000e+00 -5.0835814813139212e-03 -7.8984892049665550e-02 0.0000000000000000e+00 0.0000000000000000e+00 0.0000000000000000e+00 0.0000000000000000e+00  -9.4397058954394278e-02 -2.8366136141136761e-03 0.0000000000000000e+00 -2.8366136141136766e-03 -8.1162736132549387e-02 0.0000000000000000e+00 0.0000000000000000e+00 0.0000000000000000e+00 0.0000000000000000e+00  -9.2206658186093124e-02 -1.5999142934268558e-03 0.0000000000000000e+00 -1.5999142934268558e-03 -8.4429615005346403e-02 0.0000000000000000e+00 0.0000000000000000e+00 0.0000000000000000e+00 0.0000000000000000e+00  -8.9986647681704252e-02 -1.6953351754022510e-03 0.0000000000000000e+00 -1.6953351754022510e-03 -8.7875436766869777e-02 0.0000000000000000e+00 0.0000000000000000e+00 0.0000000000000000e+00 0.0000000000000000e+00  -8.8343640903378193e-02 -2.9247184453218712e-03 0.0000000000000000e+00 -2.9247184453218712e-03 -9.0533160903844126e-02 0.0000000000000000e+00 0.0000000000000000e+00 0.0000000000000000e+00 0.0000000000000000e+00  -8.7625691255936833e-02 -4.6397574538368123e-03 0.0000000000000000e+00 -4.6397574538368123e-03 -9.1850889962330831e-02 0.0000000000000000e+00 0.0000000000000000e+00 0.0000000000000000e+00 0.0000000000000000e+00  -8.7758077364123055e-02 -6.1224831236801397e-03 0.0000000000000000e+00 -6.1224831236801397e-03 -9.1924905255433675e-02 0.0000000000000000e+00 0.0000000000000000e+00 0.0000000000000000e+00 0.0000000000000000e+00  -8.8267740609672615e-02 -7.0137148173202062e-03 0.0000000000000000e+00 -7.0137148173202062e-03 -9.1392610889331524e-02 0.0000000000000000e+00 0.0000000000000000e+00 0.0000000000000000e+00 0.0000000000000000e+00  -8.9163163301603246e-02 -7.3985316784004841e-03 0.0000000000000000e+00 -7.3985316784004841e-03 -9.0507520838918429e-02 0.0000000000000000e+00 0.0000000000000000e+00 0.0000000000000000e+00 0.0000000000000000e+00  -9.0258223984590075e-02 -6.7003687253885313e-03 0.0000000000000000e+00 -6.7003687253885313e-03 -8.9937878094642890e-02 0.0000000000000000e+00 0.0000000000000000e+00 0.0000000000000000e+00 0.0000000000000000e+00  -8.8694747453108361e-02 -7.2574553838170297e-03 0.0000000000000000e+00 -7.2574553838170297e-03 -9.1653485441228782e-02 0.0000000000000000e+00 0.0000000000000000e+00 0.0000000000000000e+00 0.0000000000000000e+00  -9.5962564516472351e-02 -5.6504895810896528e-03 0.0000000000000000e+00 -5.6504895810896528e-03 -8.8828952572582220e-02 0.0000000000000000e+00 0.0000000000000000e+00 0.0000000000000000e+00 0.0000000000000000e+00  -8.3319848436815488e-02 -3.1277654033133560e-03 0.0000000000000000e+00 -3.1277654033133560e-03 -9.6964170523262311e-02 0.0000000000000000e+00 0.0000000000000000e+00 0.0000000000000000e+00 0.0000000000000000e+00  -1.0158553469567599e-01 -2.4525877839983588e-02 0.0000000000000000e+00 -2.4525877839983588e-02 -9.9109991275854584e-02 0.0000000000000000e+00 0.0000000000000000e+00 0.0000000000000000e+00 0.0000000000000000e+00  -1.1205482537643502e-01 3.7951846225336774e-02 0.0000000000000000e+00 3.7951846225336774e-02 -1.0001124515693113e-01 0.0000000000000000e+00 0.0000000000000000e+00 0.0000000000000000e+00 0.0000000000000000e+00  -4.2443252785870876e-02 7.5262610456683478e-03 0.0000000000000000e+00 7.5262610456683478e-03 -4.0149412476778674e-02 0.0000000000000000e+00 0.0000000000000000e+00 0.0000000000000000e+00 0.0000000000000000e+00  -2.5773306338018437e-01 -1.3598956575990837e-01 0.0000000000000000e+00 -1.3598956575990837e-01 -2.3546315190888642e-01 0.0000000000000000e+00 0.0000000000000000e+00 0.0000000000000000e+00 0.0000000000000000e+00  1.1117636921851147e-01 6.0320000598656713e-02 0.0000000000000000e+00 6.0320000598656713e-02 8.6647481107820543e-02 0.0000000000000000e+00 0.0000000000000000e+00 0.0000000000000000e+00 0.0000000000000000e+00  -1.6322379791345702e-02 -1.3532223024765018e-02 0.0000000000000000e+00 -1.3532223024765018e-02 -1.5371968783713441e-02 0.0000000000000000e+00 0.0000000000000000e+00 0.0000000000000000e+00 0.0000000000000000e+00  1.3631357132333197e-02 5.3705539491173161e-03 0.0000000000000000e+00 5.3705539491173161e-03 1.2769213519205633e-02 0.0000000000000000e+00 0.0000000000000000e+00 0.0000000000000000e+00 0.0000000000000000e+00  6.6083078883631590e-03 -1.4002161059294190e-03 0.0000000000000000e+00 -1.4002161059294190e-03 6.4090329454577991e-03 0.0000000000000000e+00 0.0000000000000000e+00 0.0000000000000000e+00 0.0000000000000000e+00  7.9084727199031021e-03 3.3169035292804014e-04 0.0000000000000000e+00 3.3169035292804014e-04 7.9586451111856998e-03 0.0000000000000000e+00 0.0000000000000000e+00 0.0000000000000000e+00 0.0000000000000000e+00  7.6979970349992551e-03 -5.7163865408086848e-05 0.0000000000000000e+00 -5.7163865408086848e-05 7.6581805371601719e-03 0.0000000000000000e+00 0.0000000000000000e+00 0.0000000000000000e+00 0.0000000000000000e+00  7.7074564468086158e-03 8.0927036027525801e-06 0.0000000000000000e+00 8.0927036027525801e-06 7.7238315490828430e-03 0.0000000000000000e+00 0.0000000000000000e+00 0.0000000000000000e+00 0.0000000000000000e+00  7.7095584285832072e-03 -1.1001368764085190e-05 0.0000000000000000e+00 -1.1001368764085190e-05 7.7200095487366602e-03 0.0000000000000000e+00 0.0000000000000000e+00 0.0000000000000000e+00 0.0000000000000000e+00  7.7074475374891184e-03 -1.7565506581431621e-05 0.0000000000000000e+00 -1.7565506581431621e-05 7.7220429338380296e-03 0.0000000000000000e+00 0.0000000000000000e+00 0.0000000000000000e+00 0.0000000000000000e+00  7.7087480931712325e-03 -2.7368892568580227e-05 0.0000000000000000e+00 -2.7368892568580227e-05 7.7189266578582185e-03 0.0000000000000000e+00 0.0000000000000000e+00 0.0000000000000000e+00 0.0000000000000000e+00  7.7111459444065495e-03 -3.7753587606741648e-05 0.0000000000000000e+00 -3.7753587606741648e-05 7.7114909292413606e-03 0.0000000000000000e+00 0.0000000000000000e+00 0.0000000000000000e+00 0.0000000000000000e+00  7.6890972814752977e-03 4.5150311863383987e-05 0.0000000000000000e+00 4.5150311863383987e-05 7.6895249815200593e-03 0.0000000000000000e+00 0.0000000000000000e+00 0.0000000000000000e+00 0.0000000000000000e+00  7.6865270558362821e-03 3.1702480018756781e-05 0.0000000000000000e+00 3.1702480018756781e-05 7.6968475425625597e-03 0.0000000000000000e+00 0.0000000000000000e+00 0.0000000000000000e+00 0.0000000000000000e+00  7.6864097082476410e-03 1.8841846816348690e-05 0.0000000000000000e+00 1.8841846816348690e-05 7.6993612533814114e-03 0.0000000000000000e+00 0.0000000000000000e+00 0.0000000000000000e+00 0.0000000000000000e+00  7.6832754083012399e-03 7.1726051057361851e-06 0.0000000000000000e+00 7.1726051057361851e-06 7.6947973915943314e-03 0.0000000000000000e+00 0.0000000000000000e+00 0.0000000000000000e+00 0.0000000000000000e+00  7.7037918822629023e-03 9.2293036964053490e-06 0.0000000000000000e+00 9.2293036964053490e-06 7.6902529728347067e-03 0.0000000000000000e+00 0.0000000000000000e+00 0.0000000000000000e+00 0.0000000000000000e+00  7.6485225524041836e-03 -1.2281008448237278e-04 0.0000000000000000e+00 -1.2281008448237278e-04 7.7055383378432634e-03 0.0000000000000000e+00 0.0000000000000000e+00 0.0000000000000000e+00 0.0000000000000000e+00  7.6484922610387251e-03 7.3518012100181219e-04 0.0000000000000000e+00 7.3518012100181219e-04 7.2699932927984797e-03 0.0000000000000000e+00 0.0000000000000000e+00 0.0000000000000000e+00 0.0000000000000000e+00  9.6046134353737506e-03 -4.2194865940899289e-03 0.0000000000000000e+00 -4.2194865940899289e-03 1.0154660039578203e-02 0.0000000000000000e+00 0.0000000000000000e+00 0.0000000000000000e+00 0.0000000000000000e+00  -4.4348699291855915e-03 1.6563779377928668e-02 0.0000000000000000e+00 1.6563779377928668e-02 -7.9700304454993522e-03 0.0000000000000000e+00 0.0000000000000000e+00 0.0000000000000000e+00 0.0000000000000000e+00  9.0260599460598154e-02 -7.5230291178441738e-02 0.0000000000000000e+00 -7.5230291178441738e-02 6.5543187916710308e-02 0.0000000000000000e+00 0.0000000000000000e+00 0.0000000000000000e+00 0.0000000000000000e+00  -2.2679022490146933e-01 1.6175876929962102e-01 0.0000000000000000e+00 1.6175876929962102e-01 -1.9511236059360096e-01 0.0000000000000000e+00 0.0000000000000000e+00 0.0000000000000000e+00 0.0000000000000000e+00  -1.0263464007490121e-01 -2.0912202591178031e-02 0.0000000000000000e+00 -2.0912202591178031e-02 -3.0892932108764756e-02 0.0000000000000000e+00 0.0000000000000000e+00 0.0000000000000000e+00 0.0000000000000000e+00  -9.6991331662148808e-02 -3.7824782390045837e-02 0.0000000000000000e+00 -3.7824782390045837e-02 -1.1355748629552528e-01 0.0000000000000000e+00 0.0000000000000000e+00 0.0000000000000000e+00 0.0000000000000000e+00  -9.6474926120378765e-02 2.9752951293377135e-02 0.0000000000000000e+00 2.9752951293377135e-02 -9.7797255068606273e-02 0.0000000000000000e+00 0.0000000000000000e+00 0.0000000000000000e+00 0.0000000000000000e+00  -8.9279868410992599e-02 1.7507871117501857e-03 0.0000000000000000e+00 1.7507871117501857e-03 -9.4516610561886302e-02 0.0000000000000000e+00 0.0000000000000000e+00 0.0000000000000000e+00 0.0000000000000000e+00  -9.2307733579227266e-02 8.2319201320219023e-03 0.0000000000000000e+00 8.2319201320219023e-03 -9.2721680183010385e-02 0.0000000000000000e+00 0.0000000000000000e+00 0.0000000000000000e+00 0.0000000000000000e+00  -8.9225106209339669e-02 5.6888030029537589e-03 0.0000000000000000e+00 5.6888030029537589e-03 -9.2878919145123737e-02 0.0000000000000000e+00 0.0000000000000000e+00 0.0000000000000000e+00 0.0000000000000000e+00  -9.0655752952916224e-02 6.1463369277530815e-03 0.0000000000000000e+00 6.1463369277530815e-03 -9.0817281710905848e-02 0.0000000000000000e+00 0.0000000000000000e+00 0.0000000000000000e+00 0.0000000000000000e+00  -8.9490174744329881e-02 6.5928716406416761e-03 0.0000000000000000e+00 6.5928716406416761e-03 -9.0965260102951140e-02 0.0000000000000000e+00 0.0000000000000000e+00 0.0000000000000000e+00 0.0000000000000000e+00  -8.9117671836084350e-02 6.6397486136802802e-03 0.0000000000000000e+00 6.6397486136802802e-03 -9.0891161419828420e-02 0.0000000000000000e+00 0.0000000000000000e+00 0.0000000000000000e+00 0.0000000000000000e+00  -8.8543926135771098e-02 6.5056696444531076e-03 0.0000000000000000e+00 6.5056696444531076e-03 -9.1128302341152795e-02 0.0000000000000000e+00 0.0000000000000000e+00 0.0000000000000000e+00 0.0000000000000000e+00  -8.8164061653600412e-02 5.9195516956900701e-03 0.0000000000000000e+00 5.9195516956900710e-03 -9.1220462067144514e-02 0.0000000000000000e+00 0.0000000000000000e+00 0.0000000000000000e+00 0.0000000000000000e+00  -8.8202291994267892e-02 5.0277204476148630e-03 0.0000000000000000e+00 5.0277204476148630e-03 -9.0778944349939841e-02 0.0000000000000000e+00 0.0000000000000000e+00 0.0000000000000000e+00 0.0000000000000000e+00  -8.8804245500197970e-02 4.0954609773348879e-03 0.0000000000000000e+00 4.0954609773348879e-03 -8.9571728910786935e-02 0.0000000000000000e+00 0.0000000000000000e+00 0.0000000000000000e+00 0.0000000000000000e+00  -8.9988383096261823e-02 3.5287267787977275e-03 0.0000000000000000e+00 3.5287267787977275e-03 -8.7592245671957544e-02 0.0000000000000000e+00 0.0000000000000000e+00 0.0000000000000000e+00 0.0000000000000000e+00  -9.1534940636396431e-02 3.6843582650800885e-03 0.0000000000000000e+00 3.6843582650800885e-03 -8.5179961959969533e-02 0.0000000000000000e+00 0.0000000000000000e+00 0.0000000000000000e+00 0.0000000000000000e+00  -9.3078696838099217e-02 4.6762364107096020e-03 0.0000000000000000e+00 4.6762364107096020e-03 -8.2896677976243699e-02 0.0000000000000000e+00 0.0000000000000000e+00 0.0000000000000000e+00 0.0000000000000000e+00  -9.4270239816151236e-02 6.3183203170585544e-03 0.0000000000000000e+00 6.3183203170585544e-03 -8.1295910928715950e-02 0.0000000000000000e+00 0.0000000000000000e+00 0.0000000000000000e+00 0.0000000000000000e+00  -9.4907372913717827e-02 8.2031087519833790e-03 0.0000000000000000e+00 8.2031087519833790e-03 -8.0718818270198306e-02 0.0000000000000000e+00 0.0000000000000000e+00 0.0000000000000000e+00 0.0000000000000000e+00  -9.4992341833419258e-02 9.8399730369893718e-03 0.0000000000000000e+00 9.8399730369893718e-03 -8.1191866423435066e-02 0.0000000000000000e+00 0.0000000000000000e+00 0.0000000000000000e+00 0.0000000000000000e+00  -9.4736264604097287e-02 1.0801140562873174e-02 0.0000000000000000e+00 1.0801140562873172e-02 -8.2420609800644140e-02 0.0000000000000000e+00 0.0000000000000000e+00 0.0000000000000000e+00 0.0000000000000000e+00  -9.4514405554107075e-02 1.0864108387278498e-02 0.0000000000000000e+00 1.0864108387278498e-02 -8.3877493422297666e-02 0.0000000000000000e+00 0.0000000000000000e+00 0.0000000000000000e+00 0.0000000000000000e+00  -9.4748283260051538e-02 1.0108472876001673e-02 0.0000000000000000e+00 1.0108472876001673e-02 -8.4995331832538309e-02 0.0000000000000000e+00 0.0000000000000000e+00 0.0000000000000000e+00 0.0000000000000000e+00  -9.5741680093204717e-02 8.8885476253542858e-03 0.0000000000000000e+00 8.8885476253542858e-03 -8.5411538244571553e-02 0.0000000000000000e+00 0.0000000000000000e+00 0.0000000000000000e+00 0.0000000000000000e+00  -9.7564985516362210e-02 7.6576042377828326e-03 0.0000000000000000e+00 7.6576042377828326e-03 -8.5133767925457446e-02 0.0000000000000000e+00 0.0000000000000000e+00 0.0000000000000000e+00 0.0000000000000000e+00  -1.0011157423878980e-01 6.7559893019105283e-03 0.0000000000000000e+00 6.7559893019105283e-03 -8.4487987341567983e-02 0.0000000000000000e+00 0.0000000000000000e+00 0.0000000000000000e+00 0.0000000000000000e+00  -1.0323013372071756e-01 6.3661325929201184e-03 0.0000000000000000e+00 6.3661325929201184e-03 -8.3988492154989727e-02 0.0000000000000000e+00 0.0000000000000000e+00 0.0000000000000000e+00 0.0000000000000000e+00  -1.0646982160155827e-01 6.3497924141815093e-03 0.0000000000000000e+00 6.3497924141815093e-03 -8.4441592187302419e-02 0.0000000000000000e+00 0.0000000000000000e+00 0.0000000000000000e+00 0.0000000000000000e+00  -1.1067464218277584e-01 6.3411354308433006e-03 0.0000000000000000e+00 6.3411354308433006e-03 -8.5641629493718827e-02 0.0000000000000000e+00 0.0000000000000000e+00 0.0000000000000000e+00 0.0000000000000000e+00  -1.1391289196960948e-01 7.0650791039597914e-03 0.0000000000000000e+00 7.0650791039597914e-03 -8.9711128363279977e-02 0.0000000000000000e+00 0.0000000000000000e+00 0.0000000000000000e+00 0.0000000000000000e+00  -1.1942441050986989e-01 2.5556089957423857e-03 0.0000000000000000e+00 2.5556089957423857e-03 -9.4188371164875134e-02 0.0000000000000000e+00 0.0000000000000000e+00 0.0000000000000000e+00 0.0000000000000000e+00  -1.2679719656042832e-01 1.0298461788539333e-02 0.0000000000000000e+00 1.0298461788539333e-02 -1.0268050379045535e-01 0.0000000000000000e+00 0.0000000000000000e+00 0.0000000000000000e+00 0.0000000000000000e+00  -1.3262348567178925e-01 -2.3421642601361595e-02 0.0000000000000000e+00 -2.3421642601361595e-02 -1.0807773390464046e-01 0.0000000000000000e+00 0.0000000000000000e+00 0.0000000000000000e+00 0.0000000000000000e+00  -1.3901200316607404e-01 4.0313375614154705e-02 0.0000000000000000e+00 4.0313375614154705e-02 -1.6871466725714215e-01 0.0000000000000000e+00 0.0000000000000000e+00 0.0000000000000000e+00 0.0000000000000000e+00  -1.4641672449831133e-01 -1.5151656076455815e-02 0.0000000000000000e+00 -1.5151656076455815e-02 -3.4143946857371203e-02 0.0000000000000000e+00 0.0000000000000000e+00 0.0000000000000000e+00 0.0000000000000000e+00  -2.9956943028180461e-01 -1.3591212639766981e-01 0.0000000000000000e+00 -1.3591212639766981e-01 -2.4849855006214508e-01 0.0000000000000000e+00 0.0000000000000000e+00 0.0000000000000000e+00 0.0000000000000000e+00  7.1348687740747180e-02 6.0248833838837647e-02 0.0000000000000000e+00 6.0248833838837647e-02 3.7386153503436166e-02 0.0000000000000000e+00 0.0000000000000000e+00 0.0000000000000000e+00 0.0000000000000000e+00  -5.3676611753283240e-03 -1.1951197912349812e-02 0.0000000000000000e+00 -1.1951197912349812e-02 -1.0403676883199840e-02 0.0000000000000000e+00 0.0000000000000000e+00 0.0000000000000000e+00 0.0000000000000000e+00  2.2528877916046051e-03 2.2291651911951495e-03 0.0000000000000000e+00 2.2291651911951495e-03 3.2098853460532854e-03 0.0000000000000000e+00 0.0000000000000000e+00 0.0000000000000000e+00 0.0000000000000000e+00  2.4985232992816432e-03 -3.4181437342699215e-04 0.0000000000000000e+00 -3.4181437342699215e-04 2.2008651845198189e-03 0.0000000000000000e+00 0.0000000000000000e+00 0.0000000000000000e+00 0.0000000000000000e+00  2.2123960809368121e-03 -2.9624473488642011e-05 0.0000000000000000e+00 -2.9624473488642011e-05 2.1961459821964900e-03 0.0000000000000000e+00 0.0000000000000000e+00 0.0000000000000000e+00 0.0000000000000000e+00  2.4315629503992137e-03 3.6832481390637156e-04 0.0000000000000000e+00 3.6832481390637156e-04 2.1661190263167849e-03 0.0000000000000000e+00 0.0000000000000000e+00 0.0000000000000000e+00 0.0000000000000000e+00  2.7328658020616685e-03 -2.3010033008396395e-03 0.0000000000000000e+00 -2.3010033008396395e-03 3.5694856917880525e-03 0.0000000000000000e+00 0.0000000000000000e+00 0.0000000000000000e+00 0.0000000000000000e+00  -5.7220455761931065e-03 1.1796871002632072e-02 0.0000000000000000e+00 1.1796871002632072e-02 -1.0612020204690665e-02 0.0000000000000000e+00 0.0000000000000000e+00 0.0000000000000000e+00 0.0000000000000000e+00  7.5266699994452721e-02 -5.8212402458714979e-02 0.0000000000000000e+00 -5.8212402458714979e-02 3.7922916019659907e-02 0.0000000000000000e+00 0.0000000000000000e+00 0.0000000000000000e+00 0.0000000000000000e+00  -3.1639633843168052e-01 1.2898394813859307e-01 0.0000000000000000e+00 1.2898394813859307e-01 -2.5678643323552947e-01 0.0000000000000000e+00 0.0000000000000000e+00 0.0000000000000000e+00 0.0000000000000000e+00  -1.4050727315176514e-01 1.8143153574654833e-02 0.0000000000000000e+00 1.8143153574654833e-02 -2.9498412803067524e-02 0.0000000000000000e+00 0.0000000000000000e+00 0.0000000000000000e+00 0.0000000000000000e+00  -1.4610722041418714e-01 -4.0916194525282175e-02 0.0000000000000000e+00 -4.0916194525282175e-02 -1.6829828396738788e-01 0.0000000000000000e+00 0.0000000000000000e+00 0.0000000000000000e+00 0.0000000000000000e+00  -1.3552673560861073e-01 2.3228719687478208e-02 0.0000000000000000e+00 2.3228719687478208e-02 -1.0612665100675550e-01 0.0000000000000000e+00 0.0000000000000000e+00 0.0000000000000000e+00 0.0000000000000000e+00  -1.2945805132599950e-01 -1.0104651317856020e-02 0.0000000000000000e+00 -1.0104651317856020e-02 -1.0107158102940350e-01 0.0000000000000000e+00 0.0000000000000000e+00 0.0000000000000000e+00 0.0000000000000000e+00  -1.2129524055765943e-01 -2.2169977182160882e-03 0.0000000000000000e+00 -2.2169977182160882e-03 -9.2900496291268050e-02 0.0000000000000000e+00 0.0000000000000000e+00 0.0000000000000000e+00 0.0000000000000000e+00  -1.1525733766962452e-01 -6.6528672924668457e-03 0.0000000000000000e+00 -6.6528672924668457e-03 -8.8822886469645659e-02 0.0000000000000000e+00 0.0000000000000000e+00 0.0000000000000000e+00 0.0000000000000000e+00  -1.1161686928545161e-01 -5.9664131483419232e-03 0.0000000000000000e+00 -5.9664131483419232e-03 -8.5112415008068612e-02 0.0000000000000000e+00 0.0000000000000000e+00 0.0000000000000000e+00 0.0000000000000000e+00  -1.0710923702243570e-01 -6.0352292151359468e-03 0.0000000000000000e+00 -6.0352292151359468e-03 -8.4208004866022965e-02 0.0000000000000000e+00 0.0000000000000000e+00 0.0000000000000000e+00 0.0000000000000000e+00  -1.0366166246700993e-01 -6.1283578207405069e-03 0.0000000000000000e+00 -6.1283578207405069e-03 -8.3962376790565202e-02 0.0000000000000000e+00 0.0000000000000000e+00 0.0000000000000000e+00 0.0000000000000000e+00  -1.0040177667776407e-01 -6.5806812901250521e-03 0.0000000000000000e+00 -6.5806812901250521e-03 -8.4594546579043431e-02 0.0000000000000000e+00 0.0000000000000000e+00 0.0000000000000000e+00 0.0000000000000000e+00  -9.7757754387776674e-02 -7.5259944788863588e-03 0.0000000000000000e+00 -7.5259944788863588e-03 -8.5317939612276628e-02 0.0000000000000000e+00 0.0000000000000000e+00 0.0000000000000000e+00 0.0000000000000000e+00  -9.5865968167781715e-02 -8.7812711767696738e-03 0.0000000000000000e+00 -8.7812711767696738e-03 -8.5634748375777808e-02 0.0000000000000000e+00 0.0000000000000000e+00 0.0000000000000000e+00 0.0000000000000000e+00  -9.4822057080773375e-02 -1.0010260902623070e-02 0.0000000000000000e+00 -1.0010260902623072e-02 -8.5232604770268991e-02 0.0000000000000000e+00 0.0000000000000000e+00 0.0000000000000000e+00 0.0000000000000000e+00  -9.4549765360498653e-02 -1.0764052912043874e-02 0.0000000000000000e+00 -1.0764052912043874e-02 -8.4112197327815455e-02 0.0000000000000000e+00 0.0000000000000000e+00 0.0000000000000000e+00 0.0000000000000000e+00  -9.4741394842518048e-02 -1.0691366978873143e-02 0.0000000000000000e+00 -1.0691366978873145e-02 -8.2641937464657006e-02 0.0000000000000000e+00 0.0000000000000000e+00 0.0000000000000000e+00 0.0000000000000000e+00  -9.4971983589084999e-02 -9.7149816058599257e-03 0.0000000000000000e+00 -9.7149816058599257e-03 -8.1393952439475156e-02 0.0000000000000000e+00 0.0000000000000000e+00 0.0000000000000000e+00 0.0000000000000000e+00  -9.4863210877709769e-02 -8.0602692077304233e-03 0.0000000000000000e+00 -8.0602692077304233e-03 -8.0899933000884064e-02 0.0000000000000000e+00 0.0000000000000000e+00 0.0000000000000000e+00 0.0000000000000000e+00  -9.4202204405800030e-02 -6.1585681689449757e-03 0.0000000000000000e+00 -6.1585681689449757e-03 -8.1456584069267632e-02 0.0000000000000000e+00 0.0000000000000000e+00 0.0000000000000000e+00 0.0000000000000000e+00  -9.2986870196579793e-02 -4.5037336468731152e-03 0.0000000000000000e+00 -4.5037336468731152e-03 -8.3037136276439535e-02 0.0000000000000000e+00 0.0000000000000000e+00 0.0000000000000000e+00 0.0000000000000000e+00  -9.1421015512462095e-02 -3.5048053600131770e-03 0.0000000000000000e+00 -3.5048053600131770e-03 -8.5298192314555474e-02 0.0000000000000000e+00 0.0000000000000000e+00 0.0000000000000000e+00 0.0000000000000000e+00  -8.9855818047791705e-02 -3.3471212297550884e-03 0.0000000000000000e+00 -3.3471212297550884e-03 -8.7683750785124345e-02 0.0000000000000000e+00 0.0000000000000000e+00 0.0000000000000000e+00 0.0000000000000000e+00  -8.8657148925571985e-02 -3.9146059982894223e-03 0.0000000000000000e+00 -3.9146059982894223e-03 -8.9630913295415116e-02 0.0000000000000000e+00 0.0000000000000000e+00 0.0000000000000000e+00 0.0000000000000000e+00  -8.8044000757294308e-02 -4.8482539748345380e-03 0.0000000000000000e+00 -4.8482539748345380e-03 -9.0800916263785614e-02 0.0000000000000000e+00 0.0000000000000000e+00 0.0000000000000000e+00 0.0000000000000000e+00  -8.7996559792070148e-02 -5.7410822628783933e-03 0.0000000000000000e+00 -5.7410822628783933e-03 -9.1201860191791259e-02 0.0000000000000000e+00 0.0000000000000000e+00 0.0000000000000000e+00 0.0000000000000000e+00  -8.8368621892304142e-02 -6.3275664327226647e-03 0.0000000000000000e+00 -6.3275664327226647e-03 -9.1066686171746930e-02 0.0000000000000000e+00 0.0000000000000000e+00 0.0000000000000000e+00 0.0000000000000000e+00  -8.8935038119507190e-02 -6.4611973607865709e-03 0.0000000000000000e+00 -6.4611973607865709e-03 -9.0785131736960262e-02 0.0000000000000000e+00 0.0000000000000000e+00 0.0000000000000000e+00 0.0000000000000000e+00  -8.9302947591339027e-02 -6.4133024316122148e-03 0.0000000000000000e+00 -6.4133024316122148e-03 -9.0811211942640260e-02 0.0000000000000000e+00 0.0000000000000000e+00 0.0000000000000000e+00 0.0000000000000000e+00  -9.0466992673143787e-02 -5.9574904478130923e-03 0.0000000000000000e+00 -5.9574904478130923e-03 -9.0613062205710623e-02 0.0000000000000000e+00 0.0000000000000000e+00 0.0000000000000000e+00 0.0000000000000000e+00  -8.9026343578126874e-02 -5.4944730637996406e-03 0.0000000000000000e+00 -5.4944730637996406e-03 -9.2631161243988097e-02 0.0000000000000000e+00 0.0000000000000000e+00 0.0000000000000000e+00 0.0000000000000000e+00  -9.2127746871313379e-02 -7.9966044751290568e-03 0.0000000000000000e+00 -7.9966044751290568e-03 -9.2423585257559782e-02 0.0000000000000000e+00 0.0000000000000000e+00 0.0000000000000000e+00 0.0000000000000000e+00  -8.9039439419067640e-02 -1.5175995886136154e-03 0.0000000000000000e+00 -1.5175995886136154e-03 -9.4205791834637786e-02 0.0000000000000000e+00 0.0000000000000000e+00 0.0000000000000000e+00 0.0000000000000000e+00  -9.6289914206859450e-02 -2.9442685590342230e-02 0.0000000000000000e+00 -2.9442685590342230e-02 -9.7533569468974360e-02 0.0000000000000000e+00 0.0000000000000000e+00 0.0000000000000000e+00 0.0000000000000000e+00  -9.6754381018431521e-02 3.8069873389554698e-02 0.0000000000000000e+00 3.8069873389554698e-02 -1.1315254870435695e-01 0.0000000000000000e+00 0.0000000000000000e+00 0.0000000000000000e+00 0.0000000000000000e+00  -1.0254228355424867e-01 2.1257704210498420e-02 0.0000000000000000e+00 2.1257704210498423e-02 -3.0855720632469521e-02 0.0000000000000000e+00 0.0000000000000000e+00 0.0000000000000000e+00 0.0000000000000000e+00  -2.2688485896416485e-01 -1.6178953012306746e-01 0.0000000000000000e+00 -1.6178953012306746e-01 -1.9536454029938988e-01 0.0000000000000000e+00 0.0000000000000000e+00 0.0000000000000000e+00 0.0000000000000000e+00  8.9451987459947674e-02 7.5314917798505382e-02 0.0000000000000000e+00 7.5314917798505382e-02 6.4681386328033816e-02 0.0000000000000000e+00 0.0000000000000000e+00 0.0000000000000000e+00 0.0000000000000000e+00  -4.8595972087045252e-03 -1.6551983854230130e-02 0.0000000000000000e+00 -1.6551983854230130e-02 -8.4189314201410497e-03 0.0000000000000000e+00 0.0000000000000000e+00 0.0000000000000000e+00 0.0000000000000000e+00  9.5255793420075969e-03 4.2515189502810961e-03 0.0000000000000000e+00 4.2515189502810961e-03 1.0129365417339985e-02 0.0000000000000000e+00 0.0000000000000000e+00 0.0000000000000000e+00 0.0000000000000000e+00  7.6754943086961474e-03 -7.4198527086053096e-04 0.0000000000000000e+00 -7.4198527086053096e-04 7.2330500736831988e-03 0.0000000000000000e+00 0.0000000000000000e+00 0.0000000000000000e+00 0.0000000000000000e+00  7.6869030316114566e-03 1.2063491868757889e-04 0.0000000000000000e+00 1.2063491868757889e-04 7.7710289811188937e-03 0.0000000000000000e+00 0.0000000000000000e+00 0.0000000000000000e+00 0.0000000000000000e+00  7.7441844005456447e-03 -1.1628110100621524e-05 0.0000000000000000e+00 -1.1628110100621524e-05 7.7182676922559323e-03 0.0000000000000000e+00 0.0000000000000000e+00 0.0000000000000000e+00 0.0000000000000000e+00  7.7166573594000766e-03 -6.6657833153365918e-06 0.0000000000000000e+00 -6.6657833153365918e-06 7.7281690888220409e-03 0.0000000000000000e+00 0.0000000000000000e+00 0.0000000000000000e+00 0.0000000000000000e+00  7.7200683722567220e-03 -1.7698771493000126e-05 0.0000000000000000e+00 -1.7698771493000126e-05 7.7322898356310477e-03 0.0000000000000000e+00 0.0000000000000000e+00 0.0000000000000000e+00 0.0000000000000000e+00  7.7201918331566899e-03 -2.9003188989328856e-05 0.0000000000000000e+00 -2.9003188989328856e-05 7.7296626815281776e-03 0.0000000000000000e+00 0.0000000000000000e+00 0.0000000000000000e+00 0.0000000000000000e+00  7.7225499123552950e-03 -4.0857114837868583e-05 0.0000000000000000e+00 -4.0857114837868583e-05 7.7229350369027510e-03 0.0000000000000000e+00 0.0000000000000000e+00 0.0000000000000000e+00 0.0000000000000000e+00  7.7037562368995581e-03 4.8516074804907996e-05 0.0000000000000000e+00 4.8516074804907996e-05 7.7042060997146167e-03 0.0000000000000000e+00 0.0000000000000000e+00 0.0000000000000000e+00 0.0000000000000000e+00  7.7015510284147793e-03 3.2956363450004502e-05 0.0000000000000000e+00 3.2956363450004502e-05 7.7110734818397154e-03 0.0000000000000000e+00 0.0000000000000000e+00 0.0000000000000000e+00 0.0000000000000000e+00  7.7004798378582815e-03 1.9637817188499302e-05 0.0000000000000000e+00 1.9637817188499302e-05 7.7111168460608295e-03 0.0000000000000000e+00 0.0000000000000000e+00 0.0000000000000000e+00 0.0000000000000000e+00  7.7086926063657029e-03 1.1637350710597396e-06 0.0000000000000000e+00 1.1637350710597396e-06 7.7124373029215220e-03 0.0000000000000000e+00 0.0000000000000000e+00 0.0000000000000000e+00 0.0000000000000000e+00  7.6610724567407352e-03 9.6633671892604973e-06 0.0000000000000000e+00 9.6633671892604973e-06 7.6690866382493330e-03 0.0000000000000000e+00 0.0000000000000000e+00 0.0000000000000000e+00 0.0000000000000000e+00  7.9635108174686553e-03 2.8606887401534441e-05 0.0000000000000000e+00 2.8606887401534441e-05 7.7753672232878830e-03 0.0000000000000000e+00 0.0000000000000000e+00 0.0000000000000000e+00 0.0000000000000000e+00  6.8208441008135558e-03 -1.0891761936594976e-03 0.0000000000000000e+00 -1.0891761936594976e-03 7.5938998869293723e-03 0.0000000000000000e+00 0.0000000000000000e+00 0.0000000000000000e+00 0.0000000000000000e+00  9.8106283496305451e-03 8.1779055006210247e-03 0.0000000000000000e+00 8.1779055006210247e-03 3.5178530918960360e-03 0.0000000000000000e+00 0.0000000000000000e+00 0.0000000000000000e+00 0.0000000000000000e+00  3.0509904527324629e-02 -5.5996349889595932e-02 0.0000000000000000e+00 -5.5996349889595932e-02 2.8333305041714184e-02 0.0000000000000000e+00 0.0000000000000000e+00 0.0000000000000000e+00 0.0000000000000000e+00  -7.7104414417334857e-02 1.5737758302139249e-01 0.0000000000000000e+00 1.5737758302139249e-01 -1.1991069902425100e-01 0.0000000000000000e+00 0.0000000000000000e+00 0.0000000000000000e+00 0.0000000000000000e+00  -2.4661303280631541e-01 -5.6946844519449445e-02 0.0000000000000000e+00 -5.6946844519449445e-02 -8.5375890693940096e-02 0.0000000000000000e+00 0.0000000000000000e+00 0.0000000000000000e+00 0.0000000000000000e+00  -5.8899788317244128e-02 -2.9762764380097180e-02 0.0000000000000000e+00 -2.9762764380097180e-02 -9.9022416808680763e-02 0.0000000000000000e+00 0.0000000000000000e+00 0.0000000000000000e+00 0.0000000000000000e+00  -9.7437973130579780e-02 2.3249648995319949e-02 0.0000000000000000e+00 2.3249648995319949e-02 -1.0424628181351783e-01 0.0000000000000000e+00 0.0000000000000000e+00 0.0000000000000000e+00 0.0000000000000000e+00  -9.2721194841904428e-02 1.4608588052585083e-03 0.0000000000000000e+00 1.4608588052585083e-03 -9.0567345275898756e-02 0.0000000000000000e+00 0.0000000000000000e+00 0.0000000000000000e+00 0.0000000000000000e+00  -9.0998088584445927e-02 9.0524835408778582e-03 0.0000000000000000e+00 9.0524835408778582e-03 -9.3424621985870995e-02 0.0000000000000000e+00 0.0000000000000000e+00 0.0000000000000000e+00 0.0000000000000000e+00  -8.9578944181448295e-02 5.2894007893046525e-03 0.0000000000000000e+00 5.2894007893046525e-03 -9.2903064481786660e-02 0.0000000000000000e+00 0.0000000000000000e+00 0.0000000000000000e+00 0.0000000000000000e+00  -8.9839655347753219e-02 5.9147576351394277e-03 0.0000000000000000e+00 5.9147576351394277e-03 -9.2019042116400718e-02 0.0000000000000000e+00 0.0000000000000000e+00 0.0000000000000000e+00 0.0000000000000000e+00  -8.9224681726160091e-02 5.7257275393984763e-03 0.0000000000000000e+00 5.7257275393984763e-03 -9.1699713758790116e-02 0.0000000000000000e+00 0.0000000000000000e+00 0.0000000000000000e+00 0.0000000000000000e+00  -8.9086533437443230e-02 5.9316400854084262e-03 0.0000000000000000e+00 5.9316400854084262e-03 -9.1224490121345730e-02 0.0000000000000000e+00 0.0000000000000000e+00 0.0000000000000000e+00 0.0000000000000000e+00  -8.8627728273474871e-02 6.0624755856681445e-03 0.0000000000000000e+00 6.0624755856681445e-03 -9.1158682162209431e-02 0.0000000000000000e+00 0.0000000000000000e+00 0.0000000000000000e+00 0.0000000000000000e+00  -8.8278314081529710e-02 5.9758880253786908e-03 0.0000000000000000e+00 5.9758880253786908e-03 -9.1095424683317119e-02 0.0000000000000000e+00 0.0000000000000000e+00 0.0000000000000000e+00 0.0000000000000000e+00  -8.8067960828598024e-02 5.6762377635171798e-03 0.0000000000000000e+00 5.6762377635171798e-03 -9.0896411234499583e-02 0.0000000000000000e+00 0.0000000000000000e+00 0.0000000000000000e+00 0.0000000000000000e+00  -8.8150294215041447e-02 5.2208747565943561e-03 0.0000000000000000e+00 5.2208747565943561e-03 -9.0341283498954705e-02 0.0000000000000000e+00 0.0000000000000000e+00 0.0000000000000000e+00 0.0000000000000000e+00  -8.8616831622526357e-02 4.7987911135791974e-03 0.0000000000000000e+00 4.7987911135791974e-03 -8.9296970134723153e-02 0.0000000000000000e+00 0.0000000000000000e+00 0.0000000000000000e+00 0.0000000000000000e+00  -8.9449758551704617e-02 4.6501327346348811e-03 0.0000000000000000e+00 4.6501327346348811e-03 -8.7796510807160000e-02 0.0000000000000000e+00 0.0000000000000000e+00 0.0000000000000000e+00 0.0000000000000000e+00  -9.0507292118130203e-02 4.9737242208163761e-03 0.0000000000000000e+00 4.9737242208163761e-03 -8.6054475463913621e-02 0.0000000000000000e+00 0.0000000000000000e+00 0.0000000000000000e+00 0.0000000000000000e+00  -9.1563732206713447e-02 5.8293677976038478e-03 0.0000000000000000e+00 5.8293677976038478e-03 -8.4407720353231561e-02 0.0000000000000000e+00 0.0000000000000000e+00 0.0000000000000000e+00 0.0000000000000000e+00  -9.2398450845992644e-02 7.0999682079326883e-03 0.0000000000000000e+00 7.0999682079326883e-03 -8.3191109905634483e-02 0.0000000000000000e+00 0.0000000000000000e+00 0.0000000000000000e+00 0.0000000000000000e+00  -9.2879175653781940e-02 8.5280507141242794e-03 0.0000000000000000e+00 8.5280507141242794e-03 -8.2616777740974381e-02 0.0000000000000000e+00 0.0000000000000000e+00 0.0000000000000000e+00 0.0000000000000000e+00  -9.3009188896503406e-02 9.8001855583289312e-03 0.0000000000000000e+00 9.8001855583289294e-03 -8.2703111256013789e-02 0.0000000000000000e+00 0.0000000000000000e+00 0.0000000000000000e+00 0.0000000000000000e+00  -9.2930973660291891e-02 1.0647511082737222e-02 0.0000000000000000e+00 1.0647511082737222e-02 -8.3270692556313378e-02 0.0000000000000000e+00 0.0000000000000000e+00 0.0000000000000000e+00 0.0000000000000000e+00  -9.2886051222806090e-02 1.0935568759528532e-02 0.0000000000000000e+00 1.0935568759528532e-02 -8.4006432977385692e-02 0.0000000000000000e+00 0.0000000000000000e+00 0.0000000000000000e+00 0.0000000000000000e+00  -9.3135367456943591e-02 1.0712485571689627e-02 0.0000000000000000e+00 1.0712485571689627e-02 -8.4583580748566159e-02 0.0000000000000000e+00 0.0000000000000000e+00 0.0000000000000000e+00 0.0000000000000000e+00  -9.3865381507129295e-02 1.0184989805259396e-02 0.0000000000000000e+00 1.0184989805259396e-02 -8.4797591251344603e-02 0.0000000000000000e+00 0.0000000000000000e+00 0.0000000000000000e+00 0.0000000000000000e+00  -9.5130994651639156e-02 9.6256963520483831e-03 0.0000000000000000e+00 9.6256963520483831e-03 -8.4651320146630626e-02 0.0000000000000000e+00 0.0000000000000000e+00 0.0000000000000000e+00 0.0000000000000000e+00  -9.6862852601116683e-02 9.2670429401359479e-03 0.0000000000000000e+00 9.2670429401359479e-03 -8.4357086491132535e-02 0.0000000000000000e+00 0.0000000000000000e+00 0.0000000000000000e+00 0.0000000000000000e+00  -9.8892130691456526e-02 9.2148326536935568e-03 0.0000000000000000e+00 9.2148326536935568e-03 -8.4290233226212860e-02 0.0000000000000000e+00 0.0000000000000000e+00 0.0000000000000000e+00 0.0000000000000000e+00  -1.0115592760792570e-01 9.4266338851996222e-03 0.0000000000000000e+00 9.4266338851996222e-03 -8.4787839340733043e-02 0.0000000000000000e+00 0.0000000000000000e+00 0.0000000000000000e+00 0.0000000000000000e+00  -1.0332671838785386e-01 9.8513603937583835e-03 0.0000000000000000e+00 9.8513603937583835e-03 -8.6438309301853880e-02 0.0000000000000000e+00 0.0000000000000000e+00 0.0000000000000000e+00 0.0000000000000000e+00  -1.0582606602163136e-01 9.6225913059575247e-03 0.0000000000000000e+00 9.6225913059575247e-03 -8.9152872638926878e-02 0.0000000000000000e+00 0.0000000000000000e+00 0.0000000000000000e+00 0.0000000000000000e+00  -1.0843946464742318e-01 1.0524792204018023e-02 0.0000000000000000e+00 1.0524792204018023e-02 -9.3602332070378241e-02 0.0000000000000000e+00 0.0000000000000000e+00 0.0000000000000000e+00 0.0000000000000000e+00  -1.1135861977239972e-01 5.8266059309316550e-03 0.0000000000000000e+00 5.8266059309316550e-03 -9.9605773598044414e-02 0.0000000000000000e+00 0.0000000000000000e+00 0.0000000000000000e+00 0.0000000000000000e+00  -1.1736592516031653e-01 1.3403138222417326e-02 0.0000000000000000e+00 1.3403138222417326e-02 -1.0691678317168894e-01 0.0000000000000000e+00 0.0000000000000000e+00 0.0000000000000000e+00 0.0000000000000000e+00  -1.1838135701203198e-01 -1.4427507063259281e-02 0.0000000000000000e+00 -1.4427507063259281e-02 -1.2900015171489884e-01 0.0000000000000000e+00 0.0000000000000000e+00 0.0000000000000000e+00 0.0000000000000000e+00  -5.8257130992081130e-02 2.1980400564587808e-02 0.0000000000000000e+00 2.1980400564587808e-02 -1.3376910803025818e-01 0.0000000000000000e+00 0.0000000000000000e+00 0.0000000000000000e+00 0.0000000000000000e+00  -3.8241360031776861e-01 4.2544390567278115e-02 0.0000000000000000e+00 4.2544390567278115e-02 -1.5732968783076412e-01 0.0000000000000000e+00 0.0000000000000000e+00 0.0000000000000000e+00 0.0000000000000000e+00  -2.2314913667694888e-02 -1.2369541810040122e-01 0.0000000000000000e+00 -1.2369541810040122e-01 -1.2141078671651809e-01 0.0000000000000000e+00 0.0000000000000000e+00 0.0000000000000000e+00 0.0000000000000000e+00  -1.4774951921851448e-04 3.0110055930565555e-02 0.0000000000000000e+00 3.0110055930565555e-02 2.7139409536414338e-03 0.0000000000000000e+00 0.0000000000000000e+00 0.0000000000000000e+00 0.0000000000000000e+00  5.4397562685521402e-03 -2.3135537814356652e-03 0.0000000000000000e+00 -2.3135537814356652e-03 1.2441392421090904e-03 0.0000000000000000e+00 0.0000000000000000e+00 0.0000000000000000e+00 0.0000000000000000e+00  1.2952478884350577e-03 -2.8012975129476739e-04 0.0000000000000000e+00 -2.8012975129476739e-04 1.7755429442785735e-03 0.0000000000000000e+00 0.0000000000000000e+00 0.0000000000000000e+00 0.0000000000000000e+00  2.3516808522350873e-03 7.1509450530692325e-05 0.0000000000000000e+00 7.1509450530692325e-05 2.1962487786872501e-03 0.0000000000000000e+00 0.0000000000000000e+00 0.0000000000000000e+00 0.0000000000000000e+00  1.5419157994540883e-03 5.5202041188599566e-05 0.0000000000000000e+00 5.5202041188599566e-05 1.9005290084095196e-03 0.0000000000000000e+00 0.0000000000000000e+00 0.0000000000000000e+00 0.0000000000000000e+00  5.1851294497978406e-03 2.7049648454697778e-03 0.0000000000000000e+00 2.7049648454697778e-03 1.0834084909885527e-03 0.0000000000000000e+00 0.0000000000000000e+00 0.0000000000000000e+00 0.0000000000000000e+00  2.3521405033388905e-03 -3.1351178892409515e-02 0.0000000000000000e+00 -3.1351178892409515e-02 4.0373555002071841e-03 0.0000000000000000e+00 0.0000000000000000e+00 0.0000000000000000e+00 0.0000000000000000e+00  -3.6727046312430470e-02 1.2579783165570177e-01 0.0000000000000000e+00 1.2579783165570177e-01 -1.3372088243509433e-01 0.0000000000000000e+00 0.0000000000000000e+00 0.0000000000000000e+00 0.0000000000000000e+00  -3.7896702063093746e-01 -4.1743962706177973e-02 0.0000000000000000e+00 -4.1743962706177973e-02 -1.4910510535236099e-01 0.0000000000000000e+00 0.0000000000000000e+00 0.0000000000000000e+00 0.0000000000000000e+00  -7.0226524731003354e-02 -2.6476371071766435e-02 0.0000000000000000e+00 -2.6476371071766435e-02 -1.3841661846925449e-01 0.0000000000000000e+00 0.0000000000000000e+00 0.0000000000000000e+00 0.0000000000000000e+00  -1.2568061903548366e-01 1.3253949310347792e-02 0.0000000000000000e+00 1.3253949310347792e-02 -1.2657387477058926e-01 0.0000000000000000e+00 0.0000000000000000e+00 0.0000000000000000e+00 0.0000000000000000e+00  -1.2275430127999416e-01 -1.4791869168500659e-02 0.0000000000000000e+00 -1.4791869168500659e-02 -1.0612592501644685e-01 0.0000000000000000e+00 0.0000000000000000e+00 0.0000000000000000e+00 0.0000000000000000e+00  -1.1553004558756387e-01 -6.5938894381052538e-03 0.0000000000000000e+00 -6.5938894381052538e-03 -9.8255928475825732e-02 0.0000000000000000e+00 0.0000000000000000e+00 0.0000000000000000e+00 0.0000000000000000e+00  -1.1157677907566209e-01 -1.0937536641905608e-02 0.0000000000000000e+00 -1.0937536641905608e-02 -9.2502281642050224e-02 0.0000000000000000e+00 0.0000000000000000e+00 0.0000000000000000e+00 0.0000000000000000e+00  -1.0815977762349228e-01 -9.8157999868652944e-03 0.0000000000000000e+00 -9.8157999868652944e-03 -8.8329403324503369e-02 0.0000000000000000e+00 0.0000000000000000e+00 0.0000000000000000e+00 0.0000000000000000e+00  -1.0504206309479275e-01 -9.9209105174737269e-03 0.0000000000000000e+00 -9.9209105174737269e-03 -8.5916939282527693e-02 0.0000000000000000e+00 0.0000000000000000e+00 0.0000000000000000e+00 0.0000000000000000e+00  -1.0240960534322874e-01 -9.4425664288071368e-03 0.0000000000000000e+00 -9.4425664288071368e-03 -8.4524036656482934e-02 0.0000000000000000e+00 0.0000000000000000e+00 0.0000000000000000e+00 0.0000000000000000e+00  -9.9805322929311963e-02 -9.2109125892359325e-03 0.0000000000000000e+00 -9.2109125892359325e-03 -8.4225980552651125e-02 0.0000000000000000e+00 0.0000000000000000e+00 0.0000000000000000e+00 0.0000000000000000e+00  -9.7529368509739769e-02 -9.2582528700190202e-03 0.0000000000000000e+00 -9.2582528700190202e-03 -8.4432661592641720e-02 0.0000000000000000e+00 0.0000000000000000e+00 0.0000000000000000e+00 0.0000000000000000e+00  -9.5619280949557503e-02 -9.6132915279818522e-03 0.0000000000000000e+00 -9.6132915279818522e-03 -8.4816574296259079e-02 0.0000000000000000e+00 0.0000000000000000e+00 0.0000000000000000e+00 0.0000000000000000e+00  -9.4223763644854616e-02 -1.0165079224152527e-02 0.0000000000000000e+00 -1.0165079224152527e-02 -8.5014366374522657e-02 0.0000000000000000e+00 0.0000000000000000e+00 0.0000000000000000e+00 0.0000000000000000e+00  -9.3397655318053399e-02 -1.0679987598300543e-02 0.0000000000000000e+00 -1.0679987598300543e-02 -8.4824235884921509e-02 0.0000000000000000e+00 0.0000000000000000e+00 0.0000000000000000e+00 0.0000000000000000e+00  -9.3075805220698943e-02 -1.0886197785796440e-02 0.0000000000000000e+00 -1.0886197785796440e-02 -8.4251677312241410e-02 0.0000000000000000e+00 0.0000000000000000e+00 0.0000000000000000e+00 0.0000000000000000e+00  -9.3064580799734259e-02 -1.0578275505006519e-02 0.0000000000000000e+00 -1.0578275505006519e-02 -8.3507532474279819e-02 0.0000000000000000e+00 0.0000000000000000e+00 0.0000000000000000e+00 0.0000000000000000e+00  -9.3097703337898977e-02 -9.7095563269180181e-03 0.0000000000000000e+00 -9.7095563269180181e-03 -8.2923469982507478e-02 0.0000000000000000e+00 0.0000000000000000e+00 0.0000000000000000e+00 0.0000000000000000e+00  -9.2929714439296929e-02 -8.4162739483053303e-03 0.0000000000000000e+00 -8.4162739483053303e-03 -8.2816249263123892e-02 0.0000000000000000e+00 0.0000000000000000e+00 0.0000000000000000e+00 0.0000000000000000e+00  -9.2415632320456131e-02 -6.9692809424399321e-03 0.0000000000000000e+00 -6.9692809424399321e-03 -8.3367457761494804e-02 0.0000000000000000e+00 0.0000000000000000e+00 0.0000000000000000e+00 0.0000000000000000e+00  -9.1551129593405681e-02 -5.6836884004452838e-03 0.0000000000000000e+00 -5.6836884004452838e-03 -8.4559259771588471e-02 0.0000000000000000e+00 0.0000000000000000e+00 0.0000000000000000e+00 0.0000000000000000e+00  -9.0468499758871959e-02 -4.8177164387670163e-03 0.0000000000000000e+00 -4.8177164387670163e-03 -8.6178881359936399e-02 0.0000000000000000e+00 0.0000000000000000e+00 0.0000000000000000e+00 0.0000000000000000e+00  -8.9388728395345299e-02 -4.4880257291421309e-03 0.0000000000000000e+00 -4.4880257291421309e-03 -8.7890497819750113e-02 0.0000000000000000e+00 0.0000000000000000e+00 0.0000000000000000e+00 0.0000000000000000e+00  -8.8537533615417871e-02 -4.6335472631437663e-03 0.0000000000000000e+00 -4.6335472631437663e-03 -8.9356793112384189e-02 0.0000000000000000e+00 0.0000000000000000e+00 0.0000000000000000e+00 0.0000000000000000e+00  -8.8056154159836794e-02 -5.0540515843849323e-03 0.0000000000000000e+00 -5.0540515843849323e-03 -9.0363515185186330e-02 0.0000000000000000e+00 0.0000000000000000e+00 0.0000000000000000e+00 0.0000000000000000e+00  -8.7961597332514865e-02 -5.5083469212283218e-03 0.0000000000000000e+00 -5.5083469212283218e-03 -9.0878377713864644e-02 0.0000000000000000e+00 0.0000000000000000e+00 0.0000000000000000e+00 0.0000000000000000e+00  -8.8161571670657843e-02 -5.8067713561855408e-03 0.0000000000000000e+00 -5.8067713561855408e-03 -9.1035242484527212e-02 0.0000000000000000e+00 0.0000000000000000e+00 0.0000000000000000e+00 0.0000000000000000e+00  -8.8502293006112814e-02 -5.8914179700816378e-03 0.0000000000000000e+00 -5.8914179700816378e-03 -9.1054775581128122e-02 0.0000000000000000e+00 0.0000000000000000e+00 0.0000000000000000e+00 0.0000000000000000e+00  -8.8953844909625768e-02 -5.7563389084624413e-03 0.0000000000000000e+00 -5.7563389084624413e-03 -9.1076110953268521e-02 0.0000000000000000e+00 0.0000000000000000e+00 0.0000000000000000e+00 0.0000000000000000e+00  -8.9084814050769012e-02 -5.5439184267603902e-03 0.0000000000000000e+00 -5.5439184267603902e-03 -9.1507832892836247e-02 0.0000000000000000e+00 0.0000000000000000e+00 0.0000000000000000e+00 0.0000000000000000e+00  -8.9694549949811395e-02 -5.7183661094005007e-03 0.0000000000000000e+00 -5.7183661094005007e-03 -9.1785063592109362e-02 0.0000000000000000e+00 0.0000000000000000e+00 0.0000000000000000e+00 0.0000000000000000e+00  -8.9415922657400726e-02 -5.0796498227074277e-03 0.0000000000000000e+00 -5.0796498227074277e-03 -9.2639283107639733e-02 0.0000000000000000e+00 0.0000000000000000e+00 0.0000000000000000e+00 0.0000000000000000e+00  -9.0823819612820531e-02 -8.8155168291401496e-03 0.0000000000000000e+00 -8.8155168291401496e-03 -9.3138997179888786e-02 0.0000000000000000e+00 0.0000000000000000e+00 0.0000000000000000e+00 0.0000000000000000e+00  -9.2501549715201581e-02 -1.2289717230560368e-03 0.0000000000000000e+00 -1.2289717230560368e-03 -9.0260327626768666e-02 0.0000000000000000e+00 0.0000000000000000e+00 0.0000000000000000e+00 0.0000000000000000e+00  -9.7216215507428455e-02 -2.2976583278429889e-02 0.0000000000000000e+00 -2.2976583278429889e-02 -1.0399139947290052e-01 0.0000000000000000e+00 0.0000000000000000e+00 0.0000000000000000e+00 0.0000000000000000e+00  -5.8691198914252805e-02 2.9971955667815478e-02 0.0000000000000000e+00 2.9971955667815478e-02 -9.8634608724703768e-02 0.0000000000000000e+00 0.0000000000000000e+00 0.0000000000000000e+00 0.0000000000000000e+00  -2.4646194679969072e-01 5.7182819797744228e-02 0.0000000000000000e+00 5.7182819797744228e-02 -8.5330805883785291e-02 0.0000000000000000e+00 0.0000000000000000e+00 0.0000000000000000e+00 0.0000000000000000e+00  -7.7387338132075045e-02 -1.5732535514028975e-01 0.0000000000000000e+00 -1.5732535514028975e-01 -1.2026055740175375e-01 0.0000000000000000e+00 0.0000000000000000e+00 0.0000000000000000e+00 0.0000000000000000e+00  2.9887137209656470e-02 5.6089637872493839e-02 0.0000000000000000e+00 5.6089637872493839e-02 2.7523919314968594e-02 0.0000000000000000e+00 0.0000000000000000e+00 0.0000000000000000e+00 0.0000000000000000e+00  9.5590021173848315e-03 -8.1736531347315934e-03 0.0000000000000000e+00 -8.1736531347315934e-03 3.2533335224178301e-03 0.0000000000000000e+00 0.0000000000000000e+00 0.0000000000000000e+00 0.0000000000000000e+00  6.9022214392410845e-03 1.0958174989714002e-03 0.0000000000000000e+00 1.0958174989714002e-03 7.6887593549894466e-03 0.0000000000000000e+00 0.0000000000000000e+00 0.0000000000000000e+00 0.0000000000000000e+00  7.9977534167741133e-03 -4.0557192622061867e-05 0.0000000000000000e+00 -4.0557192622061867e-05 7.7959442626560809e-03 0.0000000000000000e+00 0.0000000000000000e+00 0.0000000000000000e+00 0.0000000000000000e+00  7.6863221084005721e-03 -4.9793867856156987e-07 0.0000000000000000e+00 -4.9793867856156987e-07 7.7017560829664199e-03 0.0000000000000000e+00 0.0000000000000000e+00 0.0000000000000000e+00 0.0000000000000000e+00  7.7387486468058131e-03 -1.7944248613506532e-06 0.0000000000000000e+00 -1.7944248613506532e-06 7.7468779601005218e-03 0.0000000000000000e+00 0.0000000000000000e+00 0.0000000000000000e+00 0.0000000000000000e+00  7.7325270243116372e-03 -1.8702060871472340e-05 0.0000000000000000e+00 -1.8702060871472340e-05 7.7421865904389008e-03 0.0000000000000000e+00 0.0000000000000000e+00 0.0000000000000000e+00 0.0000000000000000e+00  7.7334437474376565e-03 -3.0184598509145162e-05 0.0000000000000000e+00 -3.0184598509145162e-05 7.7422398095509555e-03 0.0000000000000000e+00 0.0000000000000000e+00 0.0000000000000000e+00 0.0000000000000000e+00  7.7355005395835733e-03 -4.3922652832875185e-05 0.0000000000000000e+00 -4.3922652832875185e-05 7.7358804995315937e-03 0.0000000000000000e+00 0.0000000000000000e+00 0.0000000000000000e+00 0.0000000000000000e+00  7.7204299558417764e-03 5.1590128052658293e-05 0.0000000000000000e+00 5.1590128052658293e-05 7.7209785312410042e-03 0.0000000000000000e+00 0.0000000000000000e+00 0.0000000000000000e+00 0.0000000000000000e+00  7.7186065509172999e-03 3.4401167636479539e-05 0.0000000000000000e+00 3.4401167636479539e-05 7.7268516887890586e-03 0.0000000000000000e+00 0.0000000000000000e+00 0.0000000000000000e+00 0.0000000000000000e+00  7.7181024528986319e-03 1.6448166219176219e-05 0.0000000000000000e+00 1.6448166219176219e-05 7.7271667468869921e-03 0.0000000000000000e+00 0.0000000000000000e+00 0.0000000000000000e+00 0.0000000000000000e+00  7.7181632686854316e-03 1.6036291981236908e-05 0.0000000000000000e+00 1.6036291981236908e-05 7.7124271425813833e-03 0.0000000000000000e+00 0.0000000000000000e+00 0.0000000000000000e+00 0.0000000000000000e+00  7.7796266873047370e-03 -9.8862198496400635e-05 0.0000000000000000e+00 -9.8862198496400635e-05 7.7735898344863151e-03 0.0000000000000000e+00 0.0000000000000000e+00 0.0000000000000000e+00 0.0000000000000000e+00  7.2174742187599006e-03 3.9191821101993460e-04 0.0000000000000000e+00 3.9191821101993460e-04 7.1850502884833961e-03 0.0000000000000000e+00 0.0000000000000000e+00 0.0000000000000000e+00 0.0000000000000000e+00  1.1940940907622153e-02 -1.0270593298552727e-03 0.0000000000000000e+00 -1.0270593298552727e-03 9.5212346633552804e-03 0.0000000000000000e+00 0.0000000000000000e+00 0.0000000000000000e+00 0.0000000000000000e+00  -7.2858577335828305e-03 -9.5194650362199762e-03 0.0000000000000000e+00 -9.5194650362199762e-03 -2.4255252468848212e-03 0.0000000000000000e+00 0.0000000000000000e+00 0.0000000000000000e+00 0.0000000000000000e+00  9.2479279184106478e-02 5.7990551461008059e-02 0.0000000000000000e+00 5.7990551461008059e-02 -1.7606469141909085e-02 0.0000000000000000e+00 0.0000000000000000e+00 0.0000000000000000e+00 0.0000000000000000e+00  -4.4038318852970221e-01 -4.9508723969945836e-02 0.0000000000000000e+00 -4.9508723969945836e-02 -2.0960861064153616e-01 0.0000000000000000e+00 0.0000000000000000e+00 0.0000000000000000e+00 0.0000000000000000e+00  -6.3322073738486945e-03 6.7919395547213343e-03 0.0000000000000000e+00 6.7919395547213343e-03 -3.4015919736471570e-02 0.0000000000000000e+00 0.0000000000000000e+00 0.0000000000000000e+00 0.0000000000000000e+00  -8.3466141296243995e-02 4.5886464308760580e-03 0.0000000000000000e+00 4.5886464308760580e-03 -1.3478778711819980e-01 0.0000000000000000e+00 0.0000000000000000e+00 0.0000000000000000e+00 0.0000000000000000e+00  -9.5131309452538587e-02 2.8766787108281235e-03 0.0000000000000000e+00 2.8766787108281235e-03 -8.4063069175698515e-02 0.0000000000000000e+00 0.0000000000000000e+00 0.0000000000000000e+00 0.0000000000000000e+00  -8.9813231890949016e-02 7.4022729707550272e-03 0.0000000000000000e+00 7.4022729707550272e-03 -9.4527221596598737e-02 0.0000000000000000e+00 0.0000000000000000e+00 0.0000000000000000e+00 0.0000000000000000e+00  -8.9882158771220480e-02 4.9461918102029221e-03 0.0000000000000000e+00 4.9461918102029221e-03 -9.2225007160506550e-02 0.0000000000000000e+00 0.0000000000000000e+00 0.0000000000000000e+00 0.0000000000000000e+00  -8.9143428522989204e-02 5.7132718860917805e-03 0.0000000000000000e+00 5.7132718860917805e-03 -9.2586175651049873e-02 0.0000000000000000e+00 0.0000000000000000e+00 0.0000000000000000e+00 0.0000000000000000e+00  -8.8755442099974005e-02 5.2307710263691971e-03 0.0000000000000000e+00 5.2307710263691971e-03 -9.2278312441703716e-02 0.0000000000000000e+00 0.0000000000000000e+00 0.0000000000000000e+00 0.0000000000000000e+00  -8.8596544068934538e-02 5.3632652252642203e-03 0.0000000000000000e+00 5.3632652252642203e-03 -9.1891510804543344e-02 0.0000000000000000e+00 0.0000000000000000e+00 0.0000000000000000e+00 0.0000000000000000e+00  -8.8310093185025959e-02 5.4665898149483397e-03 0.0000000000000000e+00 5.4665898149483397e-03 -9.1644636974885396e-02 0.0000000000000000e+00 0.0000000000000000e+00 0.0000000000000000e+00 0.0000000000000000e+00  -8.8058936970754675e-02 5.5786676600381464e-03 0.0000000000000000e+00 5.5786676600381464e-03 -9.1428143712209184e-02 0.0000000000000000e+00 0.0000000000000000e+00 0.0000000000000000e+00 0.0000000000000000e+00  -8.7813460878147037e-02 5.5964057016911371e-03 0.0000000000000000e+00 5.5964057016911371e-03 -9.1226993115657518e-02 0.0000000000000000e+00 0.0000000000000000e+00 0.0000000000000000e+00 0.0000000000000000e+00  -8.7691487283789407e-02 5.5013992072838053e-03 0.0000000000000000e+00 5.5013992072838053e-03 -9.0890974003895286e-02 0.0000000000000000e+00 0.0000000000000000e+00 0.0000000000000000e+00 0.0000000000000000e+00  -8.7768384061602242e-02 5.3522806373452140e-03 0.0000000000000000e+00 5.3522806373452140e-03 -9.0307003025339075e-02 0.0000000000000000e+00 0.0000000000000000e+00 0.0000000000000000e+00 0.0000000000000000e+00  -8.8092351046197087e-02 5.2644677951547399e-03 0.0000000000000000e+00 5.2644677951547399e-03 -8.9412003117408198e-02 0.0000000000000000e+00 0.0000000000000000e+00 0.0000000000000000e+00 0.0000000000000000e+00  -8.8643322164568980e-02 5.3807155337531002e-03 0.0000000000000000e+00 5.3807155337531002e-03 -8.8240476757439762e-02 0.0000000000000000e+00 0.0000000000000000e+00 0.0000000000000000e+00 0.0000000000000000e+00  -8.9327181643816839e-02 5.8120533056105345e-03 0.0000000000000000e+00 5.8120533056105345e-03 -8.6931568126304801e-02 0.0000000000000000e+00 0.0000000000000000e+00 0.0000000000000000e+00 0.0000000000000000e+00  -9.0003053977808653e-02 6.5860098453679773e-03 0.0000000000000000e+00 6.5860098453679773e-03 -8.5690691143790534e-02 0.0000000000000000e+00 0.0000000000000000e+00 0.0000000000000000e+00 0.0000000000000000e+00  -9.0533178290814253e-02 7.6251155150001840e-03 0.0000000000000000e+00 7.6251155150001840e-03 -8.4720861585418791e-02 0.0000000000000000e+00 0.0000000000000000e+00 0.0000000000000000e+00 0.0000000000000000e+00  -9.0833731938104331e-02 8.7663449997483992e-03 0.0000000000000000e+00 8.7663449997483992e-03 -8.4152328424463602e-02 0.0000000000000000e+00 0.0000000000000000e+00 0.0000000000000000e+00 0.0000000000000000e+00  -9.0905921240907406e-02 9.8120467087698948e-03 0.0000000000000000e+00 9.8120467087698948e-03 -8.3999080711654489e-02 0.0000000000000000e+00 0.0000000000000000e+00 0.0000000000000000e+00 0.0000000000000000e+00  -9.0837723283574534e-02 1.0593192553105299e-02 0.0000000000000000e+00 1.0593192553105299e-02 -8.4157087456184984e-02 0.0000000000000000e+00 0.0000000000000000e+00 0.0000000000000000e+00 0.0000000000000000e+00  -9.0775359863542654e-02 1.1024024512338283e-02 0.0000000000000000e+00 1.1024024512338283e-02 -8.4445678432964258e-02 0.0000000000000000e+00 0.0000000000000000e+00 0.0000000000000000e+00 0.0000000000000000e+00  -9.0871942698849129e-02 1.1127992792140561e-02 0.0000000000000000e+00 1.1127992792140561e-02 -8.4680164456374135e-02 0.0000000000000000e+00 0.0000000000000000e+00 0.0000000000000000e+00 0.0000000000000000e+00  -9.1231704382108758e-02 1.1022329086945538e-02 0.0000000000000000e+00 1.1022329086945538e-02 -8.4749511581980921e-02 0.0000000000000000e+00 0.0000000000000000e+00 0.0000000000000000e+00 0.0000000000000000e+00  -9.1873223330792411e-02 1.0866845331650776e-02 0.0000000000000000e+00 1.0866845331650776e-02 -8.4668104776988135e-02 0.0000000000000000e+00 0.0000000000000000e+00 0.0000000000000000e+00 0.0000000000000000e+00  -9.2723098497414988e-02 1.0799239970668888e-02 0.0000000000000000e+00 1.0799239970668888e-02 -8.4584277956551338e-02 0.0000000000000000e+00 0.0000000000000000e+00 0.0000000000000000e+00 0.0000000000000000e+00  -9.3652604593623706e-02 1.0885100040889023e-02 0.0000000000000000e+00 1.0885100040889023e-02 -8.4737042296052001e-02 0.0000000000000000e+00 0.0000000000000000e+00 0.0000000000000000e+00 0.0000000000000000e+00  -9.4472538029998068e-02 1.1107766311142450e-02 0.0000000000000000e+00 1.1107766311142450e-02 -8.5438935985617054e-02 0.0000000000000000e+00 0.0000000000000000e+00 0.0000000000000000e+00 0.0000000000000000e+00  -9.5070730039500034e-02 1.1286068839045520e-02 0.0000000000000000e+00 1.1286068839045520e-02 -8.6927697821975750e-02 0.0000000000000000e+00 0.0000000000000000e+00 0.0000000000000000e+00 0.0000000000000000e+00  -9.5261771351236951e-02 1.1453421671424909e-02 0.0000000000000000e+00 1.1453421671424909e-02 -8.9492972036679524e-02 0.0000000000000000e+00 0.0000000000000000e+00 0.0000000000000000e+00 0.0000000000000000e+00  -9.4935785145362425e-02 1.0670199206911516e-02 0.0000000000000000e+00 1.0670199206911516e-02 -9.3300167910978671e-02 0.0000000000000000e+00 0.0000000000000000e+00 0.0000000000000000e+00 0.0000000000000000e+00  -9.4533336518297914e-02 1.0792962803059625e-02 0.0000000000000000e+00 1.0792962803059625e-02 -9.8009785736508662e-02 0.0000000000000000e+00 0.0000000000000000e+00 0.0000000000000000e+00 0.0000000000000000e+00  -9.0834242348071720e-02 6.1408008291448804e-03 0.0000000000000000e+00 6.1408008291448804e-03 -1.0731279235135020e-01 0.0000000000000000e+00 0.0000000000000000e+00 0.0000000000000000e+00 0.0000000000000000e+00  -9.5572805225442259e-02 6.2633987495720501e-03 0.0000000000000000e+00 6.2633987495720501e-03 -1.0258408640627673e-01 0.0000000000000000e+00 0.0000000000000000e+00 0.0000000000000000e+00 0.0000000000000000e+00  -5.4831926517089770e-02 4.5851185716835659e-03 0.0000000000000000e+00 4.5851185716835659e-03 -1.7886569378073414e-01 0.0000000000000000e+00 0.0000000000000000e+00 0.0000000000000000e+00 0.0000000000000000e+00  1.4396728980367115e-02 -4.0665670416769772e-02 0.0000000000000000e+00 -4.0665670416769772e-02 -3.1804738357107509e-02 0.0000000000000000e+00 0.0000000000000000e+00 0.0000000000000000e+00 0.0000000000000000e+00  -4.9063615397363780e-01 -1.9222717862464114e-02 0.0000000000000000e+00 -1.9222717862464114e-02 -2.8500657021032622e-01 0.0000000000000000e+00 0.0000000000000000e+00 0.0000000000000000e+00 0.0000000000000000e+00  9.6445046855578989e-02 7.8483994377263559e-03 0.0000000000000000e+00 7.8483994377263559e-03 7.7759905577797443e-03 0.0000000000000000e+00 0.0000000000000000e+00 0.0000000000000000e+00 0.0000000000000000e+00  -1.0637565874403775e-02 -6.8886855527274292e-03 0.0000000000000000e+00 -6.8886855527274292e-03 -9.1644481844681547e-03 0.0000000000000000e+00 0.0000000000000000e+00 0.0000000000000000e+00 0.0000000000000000e+00  2.6322600322442576e-03 2.2177540547456106e-03 0.0000000000000000e+00 2.2177540547456106e-03 2.4138778912187581e-03 0.0000000000000000e+00 0.0000000000000000e+00 0.0000000000000000e+00 0.0000000000000000e+00  2.2335745607585016e-03 -3.8933637825838750e-04 0.0000000000000000e+00 -3.8933637825838750e-04 2.0038979004420353e-03 0.0000000000000000e+00 0.0000000000000000e+00 0.0000000000000000e+00 0.0000000000000000e+00  2.1536625722239191e-03 -1.2065854491560767e-03 0.0000000000000000e+00 -1.2065854491560767e-03 2.2012043467605634e-03 0.0000000000000000e+00 0.0000000000000000e+00 0.0000000000000000e+00 0.0000000000000000e+00  -8.3371412708868435e-03 5.0917568451185327e-03 0.0000000000000000e+00 5.0917568451185327e-03 -8.1830017145455795e-03 0.0000000000000000e+00 0.0000000000000000e+00 0.0000000000000000e+00 0.0000000000000000e+00  9.0368876398482942e-02 -3.4055243043580202e-03 0.0000000000000000e+00 -3.4055243043580202e-03 1.0017905894979886e-03 0.0000000000000000e+00 0.0000000000000000e+00 0.0000000000000000e+00 0.0000000000000000e+00  -5.1119246458808265e-01 9.6748113541649736e-03 0.0000000000000000e+00 9.6748113541649736e-03 -2.9595824847659724e-01 0.0000000000000000e+00 0.0000000000000000e+00 0.0000000000000000e+00 0.0000000000000000e+00  4.8719097340617192e-03 3.6511251049539818e-02 0.0000000000000000e+00 3.6511251049539818e-02 -3.1897389263810506e-02 0.0000000000000000e+00 0.0000000000000000e+00 0.0000000000000000e+00 0.0000000000000000e+00  -6.4901527404073331e-02 -7.9213524966342923e-03 0.0000000000000000e+00 -7.9213524966342923e-03 -1.7939732622909510e-01 0.0000000000000000e+00 0.0000000000000000e+00 0.0000000000000000e+00 0.0000000000000000e+00  -1.0352781553277603e-01 -1.0682305155756409e-02 0.0000000000000000e+00 -1.0682305155756409e-02 -1.0382746386429005e-01 0.0000000000000000e+00 0.0000000000000000e+00 0.0000000000000000e+00 0.0000000000000000e+00  -9.7407158069254193e-02 -8.8829723415582863e-03 0.0000000000000000e+00 -8.8829723415582863e-03 -1.0664256895385393e-01 0.0000000000000000e+00 0.0000000000000000e+00 0.0000000000000000e+00 0.0000000000000000e+00  -9.9507151577218650e-02 -1.2823878837389271e-02 0.0000000000000000e+00 -1.2823878837389271e-02 -9.7339040533495153e-02 0.0000000000000000e+00 0.0000000000000000e+00 0.0000000000000000e+00 0.0000000000000000e+00  -9.8798086253250927e-02 -1.2065518345909750e-02 0.0000000000000000e+00 -1.2065518345909750e-02 -9.2570691942015532e-02 0.0000000000000000e+00 0.0000000000000000e+00 0.0000000000000000e+00 0.0000000000000000e+00  -9.8208041581058461e-02 -1.2412209713395527e-02 0.0000000000000000e+00 -1.2412209713395527e-02 -8.8926251971749637e-02 0.0000000000000000e+00 0.0000000000000000e+00 0.0000000000000000e+00 0.0000000000000000e+00  -9.7307039248268834e-02 -1.1946051031215035e-02 0.0000000000000000e+00 -1.1946051031215035e-02 -8.6558923539353946e-02 0.0000000000000000e+00 0.0000000000000000e+00 0.0000000000000000e+00 0.0000000000000000e+00  -9.6160415890901130e-02 -1.1567980718923973e-02 0.0000000000000000e+00 -1.1567980718923973e-02 -8.5265447428968327e-02 0.0000000000000000e+00 0.0000000000000000e+00 0.0000000000000000e+00 0.0000000000000000e+00  -9.4924675458652796e-02 -1.1212403591050975e-02 0.0000000000000000e+00 -1.1212403591050975e-02 -8.4726087964162672e-02 0.0000000000000000e+00 0.0000000000000000e+00 0.0000000000000000e+00 0.0000000000000000e+00  -9.3683120475821488e-02 -1.1034780644302260e-02 0.0000000000000000e+00 -1.1034780644302260e-02 -8.4695313950103060e-02 0.0000000000000000e+00 0.0000000000000000e+00 0.0000000000000000e+00 0.0000000000000000e+00  -9.2600561926913461e-02 -1.1034956620964258e-02 0.0000000000000000e+00 -1.1034956620964258e-02 -8.4861899111181666e-02 0.0000000000000000e+00 0.0000000000000000e+00 0.0000000000000000e+00 0.0000000000000000e+00  -9.1785460743882205e-02 -1.1136774980877071e-02 0.0000000000000000e+00 -1.1136774980877071e-02 -8.4992979465171772e-02 0.0000000000000000e+00 0.0000000000000000e+00 0.0000000000000000e+00 0.0000000000000000e+00  -9.1295363950710029e-02 -1.1196824525967146e-02 0.0000000000000000e+00 -1.1196824525967146e-02 -8.4947513727576585e-02 0.0000000000000000e+00 0.0000000000000000e+00 0.0000000000000000e+00 0.0000000000000000e+00  -9.1099780237496722e-02 -1.1052439490652311e-02 0.0000000000000000e+00 -1.1052439490652311e-02 -8.4717817702652395e-02 0.0000000000000000e+00 0.0000000000000000e+00 0.0000000000000000e+00 0.0000000000000000e+00  -9.1085636926927921e-02 -1.0585146700542667e-02 0.0000000000000000e+00 -1.0585146700542667e-02 -8.4420542123684494e-02 0.0000000000000000e+00 0.0000000000000000e+00 0.0000000000000000e+00 0.0000000000000000e+00  -9.1093290472386901e-02 -9.7711692533667405e-03 0.0000000000000000e+00 -9.7711692533667405e-03 -8.4244849718137449e-02 0.0000000000000000e+00 0.0000000000000000e+00 0.0000000000000000e+00 0.0000000000000000e+00  -9.0971780224672283e-02 -8.6965177504500241e-03 0.0000000000000000e+00 -8.6965177504500241e-03 -8.4374747744004316e-02 0.0000000000000000e+00 0.0000000000000000e+00 0.0000000000000000e+00 0.0000000000000000e+00  -9.0629918048415525e-02 -7.5307620049482925e-03 0.0000000000000000e+00 -7.5307620049482925e-03 -8.4916419093545692e-02 0.0000000000000000e+00 0.0000000000000000e+00 0.0000000000000000e+00 0.0000000000000000e+00  -9.0064583395578462e-02 -6.4720114600302723e-03 0.0000000000000000e+00 -6.4720114600302723e-03 -8.5856898101809409e-02 0.0000000000000000e+00 0.0000000000000000e+00 0.0000000000000000e+00 0.0000000000000000e+00  -8.9358623356517647e-02 -5.6833140068485279e-03 0.0000000000000000e+00 -5.6833140068485279e-03 -8.7066127136624163e-02 0.0000000000000000e+00 0.0000000000000000e+00 0.0000000000000000e+00 0.0000000000000000e+00  -8.8649292046775560e-02 -5.2415824054637605e-03 0.0000000000000000e+00 -5.2415824054637605e-03 -8.8340932762300914e-02 0.0000000000000000e+00 0.0000000000000000e+00 0.0000000000000000e+00 0.0000000000000000e+00  -8.8077012522461751e-02 -5.1182921972242950e-03 0.0000000000000000e+00 -5.1182921972242950e-03 -8.9475844996744505e-02 0.0000000000000000e+00 0.0000000000000000e+00 0.0000000000000000e+00 0.0000000000000000e+00  -8.7735312081817077e-02 -5.2012855794471517e-03 0.0000000000000000e+00 -5.2012855794471517e-03 -9.0331971897291641e-02 0.0000000000000000e+00 0.0000000000000000e+00 0.0000000000000000e+00 0.0000000000000000e+00  -8.7643567409846010e-02 -5.3467964069975225e-03 0.0000000000000000e+00 -5.3467964069975225e-03 -9.0875319455006015e-02 0.0000000000000000e+00 0.0000000000000000e+00 0.0000000000000000e+00 0.0000000000000000e+00  -8.7752954702670471e-02 -5.4385660355801791e-03 0.0000000000000000e+00 -5.4385660355801791e-03 -9.1169536420291533e-02 0.0000000000000000e+00 0.0000000000000000e+00 0.0000000000000000e+00 0.0000000000000000e+00  -8.7987511591446674e-02 -5.4170994523330381e-03 0.0000000000000000e+00 -5.4170994523330381e-03 -9.1328353632253917e-02 0.0000000000000000e+00 0.0000000000000000e+00 0.0000000000000000e+00 0.0000000000000000e+00  -8.8228697119326835e-02 -5.3000618663141862e-03 0.0000000000000000e+00 -5.3000618663141862e-03 -9.1502823464507610e-02 0.0000000000000000e+00 0.0000000000000000e+00 0.0000000000000000e+00 0.0000000000000000e+00  -8.8505427195649980e-02 -5.1891906816808600e-03 0.0000000000000000e+00 -5.1891906816808600e-03 -9.1709195494061702e-02 0.0000000000000000e+00 0.0000000000000000e+00 0.0000000000000000e+00 0.0000000000000000e+00  -8.8652030583454236e-02 -5.0472004565061020e-03 0.0000000000000000e+00 -5.0472004565061020e-03 -9.2059988605705939e-02 0.0000000000000000e+00 0.0000000000000000e+00 0.0000000000000000e+00 0.0000000000000000e+00  -8.9025218417408708e-02 -5.5168694537395015e-03 0.0000000000000000e+00 -5.5168694537395015e-03 -9.2337234301553023e-02 0.0000000000000000e+00 0.0000000000000000e+00 0.0000000000000000e+00 0.0000000000000000e+00  -8.9739477132844719e-02 -4.7413022146350443e-03 0.0000000000000000e+00 -4.7413022146350443e-03 -9.1953340411733114e-02 0.0000000000000000e+00 0.0000000000000000e+00 0.0000000000000000e+00 0.0000000000000000e+00  -8.9643994409020933e-02 -7.1855225764879526e-03 0.0000000000000000e+00 -7.1855225764879526e-03 -9.4240874866506175e-02 0.0000000000000000e+00 0.0000000000000000e+00 0.0000000000000000e+00 0.0000000000000000e+00  -9.4922234055528187e-02 -2.6758578787048192e-03 0.0000000000000000e+00 -2.6758578787048192e-03 -8.3745866116325798e-02 0.0000000000000000e+00 0.0000000000000000e+00 0.0000000000000000e+00 0.0000000000000000e+00  -8.3267018308129520e-02 -4.3652710133618251e-03 0.0000000000000000e+00 -4.3652710133618251e-03 -1.3448370728188308e-01 0.0000000000000000e+00 0.0000000000000000e+00 0.0000000000000000e+00 0.0000000000000000e+00  -6.1694341303003882e-03 -6.5772290754530999e-03 0.0000000000000000e+00 -6.5772290754530999e-03 -3.3663275567901815e-02 0.0000000000000000e+00 0.0000000000000000e+00 0.0000000000000000e+00 0.0000000000000000e+00  -4.4024804902199322e-01 4.9621188901936758e-02 0.0000000000000000e+00 4.9621188901936758e-02 -2.0958319903968495e-01 0.0000000000000000e+00 0.0000000000000000e+00 0.0000000000000000e+00 0.0000000000000000e+00  9.2088699692181211e-02 -5.7983703440506330e-02 0.0000000000000000e+00 -5.7983703440506330e-02 -1.8078583608481070e-02 0.0000000000000000e+00 0.0000000000000000e+00 0.0000000000000000e+00 0.0000000000000000e+00  -7.6951062625139691e-03 9.5737580847722811e-03 0.0000000000000000e+00 9.5737580847722811e-03 -2.9909882715591974e-03 0.0000000000000000e+00 0.0000000000000000e+00 0.0000000000000000e+00 0.0000000000000000e+00  1.1753445576307982e-02 1.0518113512057261e-03 0.0000000000000000e+00 1.0518113512057261e-03 9.4012795714742397e-03 0.0000000000000000e+00 0.0000000000000000e+00 0.0000000000000000e+00 0.0000000000000000e+00  7.2531373765927646e-03 -3.9808558373756811e-04 0.0000000000000000e+00 -3.9808558373756811e-04 7.1706418025299246e-03 0.0000000000000000e+00 0.0000000000000000e+00 0.0000000000000000e+00 0.0000000000000000e+00  7.8082914272648175e-03 9.0011995363911305e-05 0.0000000000000000e+00 9.0011995363911305e-05 7.8302325963492438e-03 0.0000000000000000e+00 0.0000000000000000e+00 0.0000000000000000e+00 0.0000000000000000e+00  7.7521100467601491e-03 -1.9136893391650278e-05 0.0000000000000000e+00 -1.9136893391650278e-05 7.7382839937761069e-03 0.0000000000000000e+00 0.0000000000000000e+00 0.0000000000000000e+00 0.0000000000000000e+00  7.7480278070786281e-03 -1.5424389278768905e-05 0.0000000000000000e+00 -1.5424389278768905e-05 7.7565027622124886e-03 0.0000000000000000e+00 0.0000000000000000e+00 0.0000000000000000e+00 0.0000000000000000e+00  7.7485555832145763e-03 -3.1512601708744163e-05 0.0000000000000000e+00 -3.1512601708744163e-05 7.7560734845287240e-03 0.0000000000000000e+00 0.0000000000000000e+00 0.0000000000000000e+00 0.0000000000000000e+00  7.7501881178811379e-03 -4.6726844862837581e-05 0.0000000000000000e+00 -4.6726844862837581e-05 7.7507176183996187e-03 0.0000000000000000e+00 0.0000000000000000e+00 0.0000000000000000e+00 0.0000000000000000e+00  7.7394862390740300e-03 5.4512431892381168e-05 0.0000000000000000e+00 5.4512431892381168e-05 7.7400236584073473e-03 0.0000000000000000e+00 0.0000000000000000e+00 0.0000000000000000e+00 0.0000000000000000e+00  7.7375114725017208e-03 3.5013899082771386e-05 0.0000000000000000e+00 3.5013899082771386e-05 7.7445687162357290e-03 0.0000000000000000e+00 0.0000000000000000e+00 0.0000000000000000e+00 0.0000000000000000e+00  7.7407241211522749e-03 1.7267344640387822e-05 0.0000000000000000e+00 1.7267344640387822e-05 7.7438357269552774e-03 0.0000000000000000e+00 0.0000000000000000e+00 0.0000000000000000e+00 0.0000000000000000e+00  7.7248692953346106e-03 -9.3153565570639134e-06 0.0000000000000000e+00 -9.3153565570639134e-06 7.7317172001660599e-03 0.0000000000000000e+00 0.0000000000000000e+00 0.0000000000000000e+00 0.0000000000000000e+00  7.8121390852033254e-03 1.2412481007054063e-04 0.0000000000000000e+00 1.2412481007054063e-04 7.6765763731726187e-03 0.0000000000000000e+00 0.0000000000000000e+00 0.0000000000000000e+00 0.0000000000000000e+00  7.9989658709974914e-03 -1.3924393642067837e-03 0.0000000000000000e+00 -1.3924393642067837e-03 8.3008694535152677e-03 0.0000000000000000e+00 0.0000000000000000e+00 0.0000000000000000e+00 0.0000000000000000e+00  3.3256241904445361e-03 7.7292288708573622e-03 0.0000000000000000e+00 7.7292288708573622e-03 -1.1903613489379888e-03 0.0000000000000000e+00 0.0000000000000000e+00 0.0000000000000000e+00 0.0000000000000000e+00  7.7560489086498111e-02 -3.9928700424197910e-02 0.0000000000000000e+00 -3.9928700424197910e-02 2.9660663806960190e-02 0.0000000000000000e+00 0.0000000000000000e+00 0.0000000000000000e+00 0.0000000000000000e+00  -3.5396677922601189e-01 7.6339161333638564e-02 0.0000000000000000e+00 7.6339161333638564e-02 -2.3322884279681333e-01 0.0000000000000000e+00 0.0000000000000000e+00 0.0000000000000000e+00 0.0000000000000000e+00  -7.4454350319041698e-02 2.0686463749325968e-02 0.0000000000000000e+00 2.0686463749325968e-02 2.2585476152495121e-02 0.0000000000000000e+00 0.0000000000000000e+00 0.0000000000000000e+00 0.0000000000000000e+00  -4.6579682800110170e-02 -2.0961066270719815e-02 0.0000000000000000e+00 -2.0961066270719815e-02 -1.6141846752262357e-01 0.0000000000000000e+00 0.0000000000000000e+00 0.0000000000000000e+00 0.0000000000000000e+00  -9.6369237299021943e-02 1.1807936992395379e-02 0.0000000000000000e+00 1.1807936992395379e-02 -7.5328471917246592e-02 0.0000000000000000e+00 0.0000000000000000e+00 0.0000000000000000e+00 0.0000000000000000e+00  -8.5755078370400847e-02 4.3923906540342802e-03 0.0000000000000000e+00 4.3923906540342802e-03 -9.7956075379933394e-02 0.0000000000000000e+00 0.0000000000000000e+00 0.0000000000000000e+00 0.0000000000000000e+00  -8.9536269721757003e-02 4.7739423492399284e-03 0.0000000000000000e+00 4.7739423492399284e-03 -9.1398350359812239e-02 0.0000000000000000e+00 0.0000000000000000e+00 0.0000000000000000e+00 0.0000000000000000e+00  -8.8259943583095996e-02 5.1963283592007629e-03 0.0000000000000000e+00 5.1963283592007629e-03 -9.2905493576328033e-02 0.0000000000000000e+00 0.0000000000000000e+00 0.0000000000000000e+00 0.0000000000000000e+00  -8.8184113620558904e-02 4.8641790595168729e-03 0.0000000000000000e+00 4.8641790595168729e-03 -9.2531387286253375e-02 0.0000000000000000e+00 0.0000000000000000e+00 0.0000000000000000e+00 0.0000000000000000e+00  -8.7941730640530721e-02 4.9359664877462140e-03 0.0000000000000000e+00 4.9359664877462140e-03 -9.2427718831933722e-02 0.0000000000000000e+00 0.0000000000000000e+00 0.0000000000000000e+00 0.0000000000000000e+00  -8.7751089252757278e-02 4.9488254971516137e-03 0.0000000000000000e+00 4.9488254971516137e-03 -9.2208834882778284e-02 0.0000000000000000e+00 0.0000000000000000e+00 0.0000000000000000e+00 0.0000000000000000e+00  -8.7568836311512604e-02 5.0708471851041532e-03 0.0000000000000000e+00 5.0708471851041532e-03 -9.1978477994168154e-02 0.0000000000000000e+00 0.0000000000000000e+00 0.0000000000000000e+00 0.0000000000000000e+00  -8.7366060669426288e-02 5.1924837331126369e-03 0.0000000000000000e+00 5.1924837331126369e-03 -9.1754764950527895e-02 0.0000000000000000e+00 0.0000000000000000e+00 0.0000000000000000e+00 0.0000000000000000e+00  -8.7194740943955878e-02 5.2859639627304529e-03 0.0000000000000000e+00 5.2859639627304529e-03 -9.1481532676032498e-02 0.0000000000000000e+00 0.0000000000000000e+00 0.0000000000000000e+00 0.0000000000000000e+00  -8.7099723259308121e-02 5.3422521612409204e-03 0.0000000000000000e+00 5.3422521612409204e-03 -9.1096090222254608e-02 0.0000000000000000e+00 0.0000000000000000e+00 0.0000000000000000e+00 0.0000000000000000e+00  -8.7133466045340044e-02 5.3978034726357600e-03 0.0000000000000000e+00 5.3978034726357600e-03 -9.0532309322254464e-02 0.0000000000000000e+00 0.0000000000000000e+00 0.0000000000000000e+00 0.0000000000000000e+00  -8.7318671929869099e-02 5.5245711171191380e-03 0.0000000000000000e+00 5.5245711171191380e-03 -8.9763855033942616e-02 0.0000000000000000e+00 0.0000000000000000e+00 0.0000000000000000e+00 0.0000000000000000e+00  -8.7636708792400791e-02 5.8051026098011977e-03 0.0000000000000000e+00 5.8051026098011977e-03 -8.8822093015409165e-02 0.0000000000000000e+00 0.0000000000000000e+00 0.0000000000000000e+00 0.0000000000000000e+00  -8.8025283233247542e-02 6.3000681567749782e-03 0.0000000000000000e+00 6.3000681567749782e-03 -8.7797780580232992e-02 0.0000000000000000e+00 0.0000000000000000e+00 0.0000000000000000e+00 0.0000000000000000e+00  -8.8395224168639652e-02 7.0189511553092852e-03 0.0000000000000000e+00 7.0189511553092852e-03 -8.6818143268329720e-02 0.0000000000000000e+00 0.0000000000000000e+00 0.0000000000000000e+00 0.0000000000000000e+00  -8.8659924911336008e-02 7.9083023844461892e-03 0.0000000000000000e+00 7.9083023844461892e-03 -8.6007239694332466e-02 0.0000000000000000e+00 0.0000000000000000e+00 0.0000000000000000e+00 0.0000000000000000e+00  -8.8765375669811478e-02 8.8631101419400348e-03 0.0000000000000000e+00 8.8631101419400348e-03 -8.5445512399134532e-02 0.0000000000000000e+00 0.0000000000000000e+00 0.0000000000000000e+00 0.0000000000000000e+00  -8.8708854593058328e-02 9.7571502927441597e-03 0.0000000000000000e+00 9.7571502927441597e-03 -8.5144480279140775e-02 0.0000000000000000e+00 0.0000000000000000e+00 0.0000000000000000e+00 0.0000000000000000e+00  -8.8539064723272137e-02 1.0481155146494638e-02 0.0000000000000000e+00 1.0481155146494638e-02 -8.5046461039225738e-02 0.0000000000000000e+00 0.0000000000000000e+00 0.0000000000000000e+00 0.0000000000000000e+00  -8.8336942817810279e-02 1.0975137376735424e-02 0.0000000000000000e+00 1.0975137376735424e-02 -8.5050265180080423e-02 0.0000000000000000e+00 0.0000000000000000e+00 0.0000000000000000e+00 0.0000000000000000e+00  -8.8182862736701062e-02 1.1242736052683808e-02 0.0000000000000000e+00 1.1242736052683808e-02 -8.5054661283665428e-02 0.0000000000000000e+00 0.0000000000000000e+00 0.0000000000000000e+00 0.0000000000000000e+00  -8.8121395225518470e-02 1.1341415094564581e-02 0.0000000000000000e+00 1.1341415094564581e-02 -8.5004270104031013e-02 0.0000000000000000e+00 0.0000000000000000e+00 0.0000000000000000e+00 0.0000000000000000e+00  -8.8135904818264527e-02 1.1351899639960826e-02 0.0000000000000000e+00 1.1351899639960826e-02 -8.4921151987746510e-02 0.0000000000000000e+00 0.0000000000000000e+00 0.0000000000000000e+00 0.0000000000000000e+00  -8.8141799509361241e-02 1.1338980440128764e-02 0.0000000000000000e+00 1.1338980440128764e-02 -8.4910625218358182e-02 0.0000000000000000e+00 0.0000000000000000e+00 0.0000000000000000e+00 0.0000000000000000e+00  -8.7990568550121120e-02 1.1318927244998384e-02 0.0000000000000000e+00 1.1318927244998384e-02 -8.5147286817649784e-02 0.0000000000000000e+00 0.0000000000000000e+00 0.0000000000000000e+00 0.0000000000000000e+00  -8.7495119716485381e-02 1.1231112389605806e-02 0.0000000000000000e+00 1.1231112389605806e-02 -8.5833370946350837e-02 0.0000000000000000e+00 0.0000000000000000e+00 0.0000000000000000e+00 0.0000000000000000e+00  -8.6423355575486513e-02 1.0968351094150413e-02 0.0000000000000000e+00 1.0968351094150413e-02 -8.7180049257049239e-02 0.0000000000000000e+00 0.0000000000000000e+00 0.0000000000000000e+00 0.0000000000000000e+00  -8.4513405921419121e-02 1.0258043512398399e-02 0.0000000000000000e+00 1.0258043512398399e-02 -8.9361869719119455e-02 0.0000000000000000e+00 0.0000000000000000e+00 0.0000000000000000e+00 0.0000000000000000e+00  -8.1522430509258448e-02 9.0561700998123863e-03 0.0000000000000000e+00 9.0561700998123863e-03 -9.2421887431320529e-02 0.0000000000000000e+00 0.0000000000000000e+00 0.0000000000000000e+00 0.0000000000000000e+00  -7.6544491633470740e-02 6.4440929403880706e-03 0.0000000000000000e+00 6.4440929403880706e-03 -9.6911835893808376e-02 0.0000000000000000e+00 0.0000000000000000e+00 0.0000000000000000e+00 0.0000000000000000e+00  -7.1064440524860592e-02 2.8895301498144815e-03 0.0000000000000000e+00 2.8895301498144815e-03 -1.0018651163514128e-01 0.0000000000000000e+00 0.0000000000000000e+00 0.0000000000000000e+00 0.0000000000000000e+00  -5.5558330021121129e-02 -2.4553464429285903e-03 0.0000000000000000e+00 -2.4553464429285903e-03 -1.1284114428146327e-01 0.0000000000000000e+00 0.0000000000000000e+00 0.0000000000000000e+00 0.0000000000000000e+00  -5.3666621295162323e-02 -2.2339660815374397e-02 0.0000000000000000e+00 -2.2339660815374397e-02 -9.5479097939045687e-02 0.0000000000000000e+00 0.0000000000000000e+00 0.0000000000000000e+00 0.0000000000000000e+00  5.3512508079082956e-02 -1.9198130946983776e-03 0.0000000000000000e+00 -1.9198130946983776e-03 -1.5861395718665164e-01 0.0000000000000000e+00 0.0000000000000000e+00 0.0000000000000000e+00 0.0000000000000000e+00  -2.0699079949099583e-01 -5.2587364278782484e-03 0.0000000000000000e+00 -5.2587364278782484e-03 -8.8343873452870425e-02 0.0000000000000000e+00 0.0000000000000000e+00 0.0000000000000000e+00 0.0000000000000000e+00  -1.1785971351485260e-01 -1.3585184263658673e-01 0.0000000000000000e+00 -1.3585184263658673e-01 -1.3719313309201092e-01 0.0000000000000000e+00 0.0000000000000000e+00 0.0000000000000000e+00 0.0000000000000000e+00  2.0971171589427462e-02 4.2063704326969237e-02 0.0000000000000000e+00 4.2063704326969237e-02 1.1785671607093824e-02 0.0000000000000000e+00 0.0000000000000000e+00 0.0000000000000000e+00 0.0000000000000000e+00  4.4418147156677964e-03 -7.2734607630120631e-03 0.0000000000000000e+00 -7.2734607630120631e-03 2.2048302069870959e-03 0.0000000000000000e+00 0.0000000000000000e+00 0.0000000000000000e+00 0.0000000000000000e+00  -2.2751882826200784e-03 1.6164370851223806e-03 0.0000000000000000e+00 1.6164370851223806e-03 -1.6311609182628987e-03 0.0000000000000000e+00 0.0000000000000000e+00 0.0000000000000000e+00 0.0000000000000000e+00  6.6602010167457048e-03 2.5539814460416579e-03 0.0000000000000000e+00 2.5539814460416579e-03 3.1229577596501379e-03 0.0000000000000000e+00 0.0000000000000000e+00 0.0000000000000000e+00 0.0000000000000000e+00  1.1148453896391295e-02 -3.1425891289762010e-02 0.0000000000000000e+00 -3.1425891289762010e-02 6.3751002010656891e-03 0.0000000000000000e+00 0.0000000000000000e+00 0.0000000000000000e+00 0.0000000000000000e+00  -1.0471733937356718e-01 1.2087691539365471e-01 0.0000000000000000e+00 1.2087691539365471e-01 -1.4485897085217442e-01 0.0000000000000000e+00 0.0000000000000000e+00 0.0000000000000000e+00 0.0000000000000000e+00  -2.4404554256178609e-01 -2.1483445379252833e-03 0.0000000000000000e+00 -2.1483445379252833e-03 -9.6629193321120826e-02 0.0000000000000000e+00 0.0000000000000000e+00 0.0000000000000000e+00 0.0000000000000000e+00  4.8353937678705654e-02 -4.5635677950628976e-03 0.0000000000000000e+00 -4.5635677950628976e-03 -1.5884769576745297e-01 0.0000000000000000e+00 0.0000000000000000e+00 0.0000000000000000e+00 0.0000000000000000e+00  -6.1851725237580313e-02 1.4481560868922000e-02 0.0000000000000000e+00 1.4481560868922000e-02 -1.0029186560221458e-01 0.0000000000000000e+00 0.0000000000000000e+00 0.0000000000000000e+00 0.0000000000000000e+00  -6.3326482347553059e-02 -3.0116133762188341e-03 0.0000000000000000e+00 -3.0116133762188341e-03 -1.1429259479901284e-01 0.0000000000000000e+00 0.0000000000000000e+00 0.0000000000000000e+00 0.0000000000000000e+00  -7.7201715612301991e-02 -7.2858309148170555e-03 0.0000000000000000e+00 -7.2858309148170555e-03 -1.0095445832191041e-01 0.0000000000000000e+00 0.0000000000000000e+00 0.0000000000000000e+00 0.0000000000000000e+00  -8.1563680613138942e-02 -9.6671822400051267e-03 0.0000000000000000e+00 -9.6671822400051267e-03 -9.6994841860490733e-02 0.0000000000000000e+00 0.0000000000000000e+00 0.0000000000000000e+00 0.0000000000000000e+00  -8.5494628479374724e-02 -1.1448699186695412e-02 0.0000000000000000e+00 -1.1448699186695412e-02 -9.2328395864881327e-02 0.0000000000000000e+00 0.0000000000000000e+00 0.0000000000000000e+00 0.0000000000000000e+00  -8.7645733982674515e-02 -1.2014220168673831e-02 0.0000000000000000e+00 -1.2014220168673831e-02 -8.9237284631116090e-02 0.0000000000000000e+00 0.0000000000000000e+00 0.0000000000000000e+00 0.0000000000000000e+00  -8.8867727522994266e-02 -1.2258505209414069e-02 0.0000000000000000e+00 -1.2258505209414069e-02 -8.7125843454619004e-02 0.0000000000000000e+00 0.0000000000000000e+00 0.0000000000000000e+00 0.0000000000000000e+00  -8.9392565348878017e-02 -1.2181810629863531e-02 0.0000000000000000e+00 -1.2181810629863531e-02 -8.5879542372494358e-02 0.0000000000000000e+00 0.0000000000000000e+00 0.0000000000000000e+00 0.0000000000000000e+00  -8.9459198579459318e-02 -1.2022516440384557e-02 0.0000000000000000e+00 -1.2022516440384557e-02 -8.5292130204116245e-02 0.0000000000000000e+00 0.0000000000000000e+00 0.0000000000000000e+00 0.0000000000000000e+00  -8.9278960228935431e-02 -1.1860640221318910e-02 0.0000000000000000e+00 -1.1860640221318910e-02 -8.5135441608427995e-02 0.0000000000000000e+00 0.0000000000000000e+00 0.0000000000000000e+00 0.0000000000000000e+00  -8.9019099267520274e-02 -1.1736575635323798e-02 0.0000000000000000e+00 -1.1736575635323798e-02 -8.5201838268332442e-02 0.0000000000000000e+00 0.0000000000000000e+00 0.0000000000000000e+00 0.0000000000000000e+00  -8.8810806005414453e-02 -1.1620000979490716e-02 0.0000000000000000e+00 -1.1620000979490716e-02 -8.5317285650718971e-02 0.0000000000000000e+00 0.0000000000000000e+00 0.0000000000000000e+00 0.0000000000000000e+00  -8.8724246320939754e-02 -1.1436762703165295e-02 0.0000000000000000e+00 -1.1436762703165295e-02 -8.5379864748267059e-02 0.0000000000000000e+00 0.0000000000000000e+00 0.0000000000000000e+00 0.0000000000000000e+00  -8.8764544292282005e-02 -1.1100134642942313e-02 0.0000000000000000e+00 -1.1100134642942313e-02 -8.5371779934628952e-02 0.0000000000000000e+00 0.0000000000000000e+00 0.0000000000000000e+00 0.0000000000000000e+00  -8.8878204098052360e-02 -1.0548880722270549e-02 0.0000000000000000e+00 -1.0548880722270549e-02 -8.5352539838931846e-02 0.0000000000000000e+00 0.0000000000000000e+00 0.0000000000000000e+00 0.0000000000000000e+00  -8.8978071338709053e-02 -9.7770455595395187e-03 0.0000000000000000e+00 -9.7770455595395187e-03 -8.5426927243810305e-02 0.0000000000000000e+00 0.0000000000000000e+00 0.0000000000000000e+00 0.0000000000000000e+00  -8.8978188769396227e-02 -8.8432368950377288e-03 0.0000000000000000e+00 -8.8432368950377288e-03 -8.5698909929063760e-02 0.0000000000000000e+00 0.0000000000000000e+00 0.0000000000000000e+00 0.0000000000000000e+00  -8.8826289058926963e-02 -7.8558866601102315e-03 0.0000000000000000e+00 -7.8558866601102315e-03 -8.6228105936101265e-02 0.0000000000000000e+00 0.0000000000000000e+00 0.0000000000000000e+00 0.0000000000000000e+00  -8.8522707249197363e-02 -6.9405874308015930e-03 0.0000000000000000e+00 -6.9405874308015930e-03 -8.7004140091946972e-02 0.0000000000000000e+00 0.0000000000000000e+00 0.0000000000000000e+00 0.0000000000000000e+00  -8.8119931911871216e-02 -6.2016583395763606e-03 0.0000000000000000e+00 -6.2016583395763606e-03 -8.7947109088569661e-02 0.0000000000000000e+00 0.0000000000000000e+00 0.0000000000000000e+00 0.0000000000000000e+00  -8.7703578682995983e-02 -5.6916652354494744e-03 0.0000000000000000e+00 -5.6916652354494744e-03 -8.8933168244565472e-02 0.0000000000000000e+00 0.0000000000000000e+00 0.0000000000000000e+00 0.0000000000000000e+00  -8.7362069480625595e-02 -5.4000757023468680e-03 0.0000000000000000e+00 -5.4000757023468680e-03 -8.9835246521383805e-02 0.0000000000000000e+00 0.0000000000000000e+00 0.0000000000000000e+00 0.0000000000000000e+00  -8.7157016761919101e-02 -5.2651264726233183e-03 0.0000000000000000e+00 -5.2651264726233183e-03 -9.0562839881412643e-02 0.0000000000000000e+00 0.0000000000000000e+00 0.0000000000000000e+00 0.0000000000000000e+00  -8.7106390545920870e-02 -5.2032505320302657e-03 0.0000000000000000e+00 -5.2032505320302657e-03 -9.1084964200262977e-02 0.0000000000000000e+00 0.0000000000000000e+00 0.0000000000000000e+00 0.0000000000000000e+00  -8.7186841354751313e-02 -5.1415863168382172e-03 0.0000000000000000e+00 -5.1415863168382172e-03 -9.1428446769066793e-02 0.0000000000000000e+00 0.0000000000000000e+00 0.0000000000000000e+00 0.0000000000000000e+00  -8.7345255488128409e-02 -5.0428907026003793e-03 0.0000000000000000e+00 -5.0428907026003793e-03 -9.1660024923449962e-02 0.0000000000000000e+00 0.0000000000000000e+00 0.0000000000000000e+00 0.0000000000000000e+00  -8.7536037210995468e-02 -4.9154583616501197e-03 0.0000000000000000e+00 -4.9154583616501197e-03 -9.1843180288875656e-02 0.0000000000000000e+00 0.0000000000000000e+00 0.0000000000000000e+00 0.0000000000000000e+00  -8.7706039068867481e-02 -4.7867207791151591e-03 0.0000000000000000e+00 -4.7867207791151591e-03 -9.2035238196128397e-02 0.0000000000000000e+00 0.0000000000000000e+00 0.0000000000000000e+00 0.0000000000000000e+00  -8.7883064261530697e-02 -4.7660491138783005e-03 0.0000000000000000e+00 -4.7660491138783005e-03 -9.2219239670280811e-02 0.0000000000000000e+00 0.0000000000000000e+00 0.0000000000000000e+00 0.0000000000000000e+00  -8.8108473495947234e-02 -4.6868996422258459e-03 0.0000000000000000e+00 -4.6868996422258459e-03 -9.2292916638597983e-02 0.0000000000000000e+00 0.0000000000000000e+00 0.0000000000000000e+00 0.0000000000000000e+00  -8.8163971149366735e-02 -5.0126213170542293e-03 0.0000000000000000e+00 -5.0126213170542293e-03 -9.2641731234408373e-02 0.0000000000000000e+00 0.0000000000000000e+00 0.0000000000000000e+00 0.0000000000000000e+00  -8.9414876072602525e-02 -4.5901693499062349e-03 0.0000000000000000e+00 -4.5901693499062349e-03 -9.1111242674278586e-02 0.0000000000000000e+00 0.0000000000000000e+00 0.0000000000000000e+00 0.0000000000000000e+00  -8.5609549222917303e-02 -4.2070121845331019e-03 0.0000000000000000e+00 -4.2070121845331019e-03 -9.7645951681226056e-02 0.0000000000000000e+00 0.0000000000000000e+00 0.0000000000000000e+00 0.0000000000000000e+00  -9.6192389849439369e-02 -1.1635527594082479e-02 0.0000000000000000e+00 -1.1635527594082479e-02 -7.4984131943769808e-02 0.0000000000000000e+00 0.0000000000000000e+00 0.0000000000000000e+00 0.0000000000000000e+00  -4.6489980950208711e-02 2.1141270400420818e-02 0.0000000000000000e+00 2.1141270400420818e-02 -1.6108155486667400e-01 0.0000000000000000e+00 0.0000000000000000e+00 0.0000000000000000e+00 0.0000000000000000e+00  -7.4124113639578881e-02 -2.0474381822048526e-02 0.0000000000000000e+00 -2.0474381822048526e-02 2.2913068634617336e-02 0.0000000000000000e+00 0.0000000000000000e+00 0.0000000000000000e+00 0.0000000000000000e+00  -3.5445856972659961e-01 -7.6280011717026378e-02 0.0000000000000000e+00 -7.6280011717026378e-02 -2.3340107853244493e-01 0.0000000000000000e+00 0.0000000000000000e+00 0.0000000000000000e+00 0.0000000000000000e+00  7.7132263118506794e-02 4.0025589709298377e-02 0.0000000000000000e+00 4.0025589709298377e-02 2.9102558608608813e-02 0.0000000000000000e+00 0.0000000000000000e+00 0.0000000000000000e+00 0.0000000000000000e+00  3.1145456880873586e-03 -7.7226662575264719e-03 0.0000000000000000e+00 -7.7226662575264719e-03 -1.5187822719993980e-03 0.0000000000000000e+00 0.0000000000000000e+00 0.0000000000000000e+00 0.0000000000000000e+00  8.0676618711405471e-03 1.4108549264741112e-03 0.0000000000000000e+00 1.4108549264741112e-03 8.3943291588517432e-03 0.0000000000000000e+00 0.0000000000000000e+00 0.0000000000000000e+00 0.0000000000000000e+00  7.8454649784381238e-03 -1.3406422494552432e-04 0.0000000000000000e+00 -1.3406422494552432e-04 7.6933926730378202e-03 0.0000000000000000e+00 0.0000000000000000e+00 0.0000000000000000e+00 0.0000000000000000e+00  7.7519845967346686e-03 1.4903206846673066e-05 0.0000000000000000e+00 1.4903206846673066e-05 7.7591819115106720e-03 0.0000000000000000e+00 0.0000000000000000e+00 0.0000000000000000e+00 0.0000000000000000e+00  7.7678226760378383e-03 -1.5743591333206991e-05 0.0000000000000000e+00 -1.5743591333206991e-05 7.7716220189750339e-03 0.0000000000000000e+00 0.0000000000000000e+00 0.0000000000000000e+00 0.0000000000000000e+00  7.7652012342379530e-03 -3.2128408276173714e-05 0.0000000000000000e+00 -3.2128408276173714e-05 7.7718952135049871e-03 0.0000000000000000e+00 0.0000000000000000e+00 0.0000000000000000e+00 0.0000000000000000e+00  7.7671227710103949e-03 -4.9464152184654662e-05 0.0000000000000000e+00 -4.9464152184654662e-05 7.7676291905977952e-03 0.0000000000000000e+00 0.0000000000000000e+00 0.0000000000000000e+00 0.0000000000000000e+00  7.7607403939610837e-03 5.7162612365641870e-05 0.0000000000000000e+00 5.7162612365641870e-05 7.7612899365818600e-03 0.0000000000000000e+00 0.0000000000000000e+00 0.0000000000000000e+00 0.0000000000000000e+00  7.7598529696655330e-03 3.4929030632518268e-05 0.0000000000000000e+00 3.4929030632518268e-05 7.7650239441869814e-03 0.0000000000000000e+00 0.0000000000000000e+00 0.0000000000000000e+00 0.0000000000000000e+00  7.7582822860825899e-03 1.7933395807736551e-05 0.0000000000000000e+00 1.7933395807736551e-05 7.7581973694140337e-03 0.0000000000000000e+00 0.0000000000000000e+00 0.0000000000000000e+00 0.0000000000000000e+00  7.7950828624404334e-03 -2.5045475254574354e-05 0.0000000000000000e+00 -2.5045475254574354e-05 7.7746357526427808e-03 0.0000000000000000e+00 0.0000000000000000e+00 0.0000000000000000e+00 0.0000000000000000e+00  7.5046854493602787e-03 4.1020126338724635e-05 0.0000000000000000e+00 4.1020126338724635e-05 7.5049735524706515e-03 0.0000000000000000e+00 0.0000000000000000e+00 0.0000000000000000e+00 0.0000000000000000e+00  1.0359384107467749e-02 6.7417847912870459e-04 0.0000000000000000e+00 6.7417847912870459e-04 7.9138490537870570e-03 0.0000000000000000e+00 0.0000000000000000e+00 0.0000000000000000e+00 0.0000000000000000e+00  4.0654001903062615e-03 -1.8161999386563776e-02 0.0000000000000000e+00 -1.8161999386563776e-02 3.7997099470040200e-03 0.0000000000000000e+00 0.0000000000000000e+00 0.0000000000000000e+00 0.0000000000000000e+00  1.0831615373679236e-02 9.8180822444170326e-02 0.0000000000000000e+00 9.8180822444170326e-02 -9.8384984641021814e-02 0.0000000000000000e+00 0.0000000000000000e+00 0.0000000000000000e+00 0.0000000000000000e+00  -4.3984609515398521e-01 -6.2161747185886858e-02 0.0000000000000000e+00 -6.2161747185886858e-02 -1.4490541995915152e-01 0.0000000000000000e+00 0.0000000000000000e+00 0.0000000000000000e+00 0.0000000000000000e+00  1.3104951693906830e-02 -9.0900387957612468e-03 0.0000000000000000e+00 -9.0900387957612468e-03 -8.7697044668377230e-02 0.0000000000000000e+00 0.0000000000000000e+00 0.0000000000000000e+00 0.0000000000000000e+00  -8.6329859377164267e-02 1.7998888814870051e-02 0.0000000000000000e+00 1.7998888814870051e-02 -8.9463937713084821e-02 0.0000000000000000e+00 0.0000000000000000e+00 0.0000000000000000e+00 0.0000000000000000e+00  -8.3508579237820291e-02 2.0339716691946024e-03 0.0000000000000000e+00 2.0339716691946024e-03 -9.6602688493404365e-02 0.0000000000000000e+00 0.0000000000000000e+00 0.0000000000000000e+00 0.0000000000000000e+00  -8.8271530724547367e-02 6.0466425062751673e-03 0.0000000000000000e+00 6.0466425062751673e-03 -9.0545218650514930e-02 0.0000000000000000e+00 0.0000000000000000e+00 0.0000000000000000e+00 0.0000000000000000e+00  -8.6867274875552361e-02 4.7976278812984436e-03 0.0000000000000000e+00 4.7976278812984436e-03 -9.3170869845938642e-02 0.0000000000000000e+00 0.0000000000000000e+00 0.0000000000000000e+00 0.0000000000000000e+00  -8.7404744500792664e-02 4.6674300943604597e-03 0.0000000000000000e+00 4.6674300943604597e-03 -9.2548016348151338e-02 0.0000000000000000e+00 0.0000000000000000e+00 0.0000000000000000e+00 0.0000000000000000e+00  -8.7192253754837454e-02 4.6000599861067701e-03 0.0000000000000000e+00 4.6000599861067701e-03 -9.2722598998242145e-02 0.0000000000000000e+00 0.0000000000000000e+00 0.0000000000000000e+00 0.0000000000000000e+00  -8.7094176962329975e-02 4.5423899596285164e-03 0.0000000000000000e+00 4.5423899596285164e-03 -9.2616409910138572e-02 0.0000000000000000e+00 0.0000000000000000e+00 0.0000000000000000e+00 0.0000000000000000e+00  -8.6946693314725071e-02 4.5994816972194192e-03 0.0000000000000000e+00 4.5994816972194192e-03 -9.2493219245774069e-02 0.0000000000000000e+00 0.0000000000000000e+00 0.0000000000000000e+00 0.0000000000000000e+00  -8.6784978573448843e-02 4.7048445014632985e-03 0.0000000000000000e+00 4.7048445014632985e-03 -9.2320646443541945e-02 0.0000000000000000e+00 0.0000000000000000e+00 0.0000000000000000e+00 0.0000000000000000e+00  -8.6616384836108257e-02 4.8478702221743464e-03 0.0000000000000000e+00 4.8478702221743464e-03 -9.2103853334825736e-02 0.0000000000000000e+00 0.0000000000000000e+00 0.0000000000000000e+00 0.0000000000000000e+00  -8.6461635964776393e-02 4.9995531664706154e-03 0.0000000000000000e+00 4.9995531664706154e-03 -9.1820899982711521e-02 0.0000000000000000e+00 0.0000000000000000e+00 0.0000000000000000e+00 0.0000000000000000e+00  -8.6354361621500161e-02 5.1581931307007551e-03 0.0000000000000000e+00 5.1581931307007551e-03 -9.1434365641990326e-02 0.0000000000000000e+00 0.0000000000000000e+00 0.0000000000000000e+00 0.0000000000000000e+00  -8.6321476139778877e-02 5.3460266059220888e-03 0.0000000000000000e+00 5.3460266059220888e-03 -9.0913785255711629e-02 0.0000000000000000e+00 0.0000000000000000e+00 0.0000000000000000e+00 0.0000000000000000e+00  -8.6373372347539751e-02 5.6050228507594146e-03 0.0000000000000000e+00 5.6050228507594146e-03 -9.0250957869663237e-02 0.0000000000000000e+00 0.0000000000000000e+00 0.0000000000000000e+00 0.0000000000000000e+00  -8.6493908357172883e-02 5.9815764080702275e-03 0.0000000000000000e+00 5.9815764080702275e-03 -8.9472378387293675e-02 0.0000000000000000e+00 0.0000000000000000e+00 0.0000000000000000e+00 0.0000000000000000e+00  -8.6641053993213105e-02 6.5068530133231264e-03 0.0000000000000000e+00 6.5068530133231264e-03 -8.8638226770302905e-02 0.0000000000000000e+00 0.0000000000000000e+00 0.0000000000000000e+00 0.0000000000000000e+00  -8.6757238477079779e-02 7.1802685201971042e-03 0.0000000000000000e+00 7.1802685201971042e-03 -8.7828374571495699e-02 0.0000000000000000e+00 0.0000000000000000e+00 0.0000000000000000e+00 0.0000000000000000e+00  -8.6786641112138921e-02 7.9629708149871366e-03 0.0000000000000000e+00 7.9629708149871366e-03 -8.7119438444170957e-02 0.0000000000000000e+00 0.0000000000000000e+00 0.0000000000000000e+00 0.0000000000000000e+00  -8.6692645498318663e-02 8.7845997084582822e-03 0.0000000000000000e+00 8.7845997084582822e-03 -8.6561576756721437e-02 0.0000000000000000e+00 0.0000000000000000e+00 0.0000000000000000e+00 0.0000000000000000e+00  -8.6468392061234051e-02 9.5610872943069497e-03 0.0000000000000000e+00 9.5610872943069497e-03 -8.6164172466388800e-02 0.0000000000000000e+00 0.0000000000000000e+00 0.0000000000000000e+00 0.0000000000000000e+00  -8.6135885024214806e-02 1.0216964827583597e-02 0.0000000000000000e+00 1.0216964827583597e-02 -8.5896268413134691e-02 0.0000000000000000e+00 0.0000000000000000e+00 0.0000000000000000e+00 0.0000000000000000e+00  -8.5733107451813173e-02 1.0703852270740517e-02 0.0000000000000000e+00 1.0703852270740517e-02 -8.5702285464368200e-02 0.0000000000000000e+00 0.0000000000000000e+00 0.0000000000000000e+00 0.0000000000000000e+00  -8.5292748937776289e-02 1.1007910249067991e-02 0.0000000000000000e+00 1.1007910249067991e-02 -8.5527982804466648e-02 0.0000000000000000e+00 0.0000000000000000e+00 0.0000000000000000e+00 0.0000000000000000e+00  -8.4819094342818174e-02 1.1142817260359561e-02 0.0000000000000000e+00 1.1142817260359561e-02 -8.5347694739935795e-02 0.0000000000000000e+00 0.0000000000000000e+00 0.0000000000000000e+00 0.0000000000000000e+00  -8.4270104601102375e-02 1.1130137549905187e-02 0.0000000000000000e+00 1.1130137549905187e-02 -8.5183230979334598e-02 0.0000000000000000e+00 0.0000000000000000e+00 0.0000000000000000e+00 0.0000000000000000e+00  -8.3548167807648038e-02 1.0973476693859676e-02 0.0000000000000000e+00 1.0973476693859676e-02 -8.5108763779731658e-02 0.0000000000000000e+00 0.0000000000000000e+00 0.0000000000000000e+00 0.0000000000000000e+00  -8.2500565457907654e-02 1.0632699354771361e-02 0.0000000000000000e+00 1.0632699354771361e-02 -8.5239503424828056e-02 0.0000000000000000e+00 0.0000000000000000e+00 0.0000000000000000e+00 0.0000000000000000e+00  -8.0920776082911136e-02 1.0008165743549638e-02 0.0000000000000000e+00 1.0008165743549638e-02 -8.5711766529411287e-02 0.0000000000000000e+00 0.0000000000000000e+00 0.0000000000000000e+00 0.0000000000000000e+00  -7.8549969437366238e-02 8.9156435623812102e-03 0.0000000000000000e+00 8.9156435623812102e-03 -8.6654177828765666e-02 0.0000000000000000e+00 0.0000000000000000e+00 0.0000000000000000e+00 0.0000000000000000e+00  -7.5074837141095307e-02 7.1132441906649494e-03 0.0000000000000000e+00 7.1132441906649494e-03 -8.8148359136641652e-02 0.0000000000000000e+00 0.0000000000000000e+00 0.0000000000000000e+00 0.0000000000000000e+00  -7.0027816749750768e-02 4.1734399864836423e-03 0.0000000000000000e+00 4.1734399864836423e-03 -9.0268811115437789e-02 0.0000000000000000e+00 0.0000000000000000e+00 0.0000000000000000e+00 0.0000000000000000e+00  -6.3101666992636668e-02 -3.3683538088944532e-04 0.0000000000000000e+00 -3.3683538088944532e-04 -9.2622619925238792e-02 0.0000000000000000e+00 0.0000000000000000e+00 0.0000000000000000e+00 0.0000000000000000e+00  -5.2679467297119933e-02 -7.1623119907381931e-03 0.0000000000000000e+00 -7.1623119907381931e-03 -9.5859861912155037e-02 0.0000000000000000e+00 0.0000000000000000e+00 0.0000000000000000e+00 0.0000000000000000e+00  -4.0309029411643563e-02 -1.8647734744126447e-02 0.0000000000000000e+00 -1.8647734744126447e-02 -9.5723311200579989e-02 0.0000000000000000e+00 0.0000000000000000e+00 0.0000000000000000e+00 0.0000000000000000e+00  -2.1040570699303353e-02 -2.9828456812793884e-02 0.0000000000000000e+00 -2.9828456812793884e-02 -9.4144749888053950e-02 0.0000000000000000e+00 0.0000000000000000e+00 0.0000000000000000e+00 0.0000000000000000e+00  1.2630392540942769e-02 -4.9503026845976503e-02 0.0000000000000000e+00 -4.9503026845976503e-02 -1.1176737516765806e-01 0.0000000000000000e+00 0.0000000000000000e+00 0.0000000000000000e+00 0.0000000000000000e+00  1.4157707630755290e-01 -8.1445045235474203e-02 0.0000000000000000e+00 -8.1445045235474203e-02 -6.4428600552997914e-02 0.0000000000000000e+00 0.0000000000000000e+00 0.0000000000000000e+00 0.0000000000000000e+00  -3.6036358351203507e-01 -1.8580805289960839e-02 0.0000000000000000e+00 -1.8580805289960839e-02 -2.3046022911544656e-01 0.0000000000000000e+00 0.0000000000000000e+00 0.0000000000000000e+00 0.0000000000000000e+00  1.1323175570853218e-01 -4.8547961940175403e-02 0.0000000000000000e+00 -4.8547961940175403e-02 4.4474806888677415e-02 0.0000000000000000e+00 0.0000000000000000e+00 0.0000000000000000e+00 0.0000000000000000e+00  -1.8509718166574474e-02 1.2644906525511573e-02 0.0000000000000000e+00 1.2644906525511573e-02 -1.7134078812452741e-02 0.0000000000000000e+00 0.0000000000000000e+00 0.0000000000000000e+00 0.0000000000000000e+00  1.2991409486337497e-02 -6.9931672479653676e-03 0.0000000000000000e+00 -6.9931672479653676e-03 1.3341767016427915e-02 0.0000000000000000e+00 0.0000000000000000e+00 0.0000000000000000e+00 0.0000000000000000e+00  -2.5549058440487448e-02 8.0956857675839548e-03 0.0000000000000000e+00 8.0956857675839548e-03 -1.9066073222138099e-02 0.0000000000000000e+00 0.0000000000000000e+00 0.0000000000000000e+00 0.0000000000000000e+00  1.2111588292329716e-01 9.2201671921434466e-03 0.0000000000000000e+00 9.2201671921434466e-03 3.8067390419399175e-02 0.0000000000000000e+00 0.0000000000000000e+00 0.0000000000000000e+00 0.0000000000000000e+00  -4.1025304828513021e-01 2.6810777127065515e-02 0.0000000000000000e+00 2.6810777127065515e-02 -2.4572666129281773e-01 0.0000000000000000e+00 0.0000000000000000e+00 0.0000000000000000e+00 0.0000000000000000e+00  1.4702948266313295e-01 7.9675350720321031e-02 0.0000000000000000e+00 7.9675350720321031e-02 -5.0396931610230143e-02 0.0000000000000000e+00 0.0000000000000000e+00 0.0000000000000000e+00 0.0000000000000000e+00  1.4268313650683991e-02 3.7191153363807787e-02 0.0000000000000000e+00 3.7191153363807787e-02 -1.2654399084286488e-01 0.0000000000000000e+00 0.0000000000000000e+00 0.0000000000000000e+00 0.0000000000000000e+00  -2.7999946941562961e-02 2.1757325474521635e-02 0.0000000000000000e+00 2.1757325474521635e-02 -9.8453962682525570e-02 0.0000000000000000e+00 0.0000000000000000e+00 0.0000000000000000e+00 0.0000000000000000e+00  -4.5898525140893306e-02 1.1767137810172296e-02 0.0000000000000000e+00 1.1767137810172296e-02 -9.9184319555664438e-02 0.0000000000000000e+00 0.0000000000000000e+00 0.0000000000000000e+00 0.0000000000000000e+00  -5.7780594275657966e-02 1.8187987533889618e-03 0.0000000000000000e+00 1.8187987533889618e-03 -9.7743672224546663e-02 0.0000000000000000e+00 0.0000000000000000e+00 0.0000000000000000e+00 0.0000000000000000e+00  -6.7393304209287228e-02 -3.8534036865537622e-03 0.0000000000000000e+00 -3.8534036865537622e-03 -9.3766969852360174e-02 0.0000000000000000e+00 0.0000000000000000e+00 0.0000000000000000e+00 0.0000000000000000e+00  -7.3602931111683312e-02 -7.3899459781694302e-03 0.0000000000000000e+00 -7.3899459781694302e-03 -9.0957642213840312e-02 0.0000000000000000e+00 0.0000000000000000e+00 0.0000000000000000e+00 0.0000000000000000e+00  -7.7989602203915237e-02 -9.5703913084681756e-03 0.0000000000000000e+00 -9.5703913084681756e-03 -8.8628754543333535e-02 0.0000000000000000e+00 0.0000000000000000e+00 0.0000000000000000e+00 0.0000000000000000e+00  -8.0899529196280850e-02 -1.0783094888094783e-02 0.0000000000000000e+00 -1.0783094888094783e-02 -8.7052115718531151e-02 0.0000000000000000e+00 0.0000000000000000e+00 0.0000000000000000e+00 0.0000000000000000e+00  -8.2797883837281566e-02 -1.1424523970481736e-02 0.0000000000000000e+00 -1.1424523970481736e-02 -8.6095753500191705e-02 0.0000000000000000e+00 0.0000000000000000e+00 0.0000000000000000e+00 0.0000000000000000e+00  -8.3993219853780623e-02 -1.1705352648369145e-02 0.0000000000000000e+00 -1.1705352648369145e-02 -8.5636969976136790e-02 0.0000000000000000e+00 0.0000000000000000e+00 0.0000000000000000e+00 0.0000000000000000e+00  -8.4733662426117157e-02 -1.1783795418661952e-02 0.0000000000000000e+00 -1.1783795418661952e-02 -8.5524630599737694e-02 0.0000000000000000e+00 0.0000000000000000e+00 0.0000000000000000e+00 0.0000000000000000e+00  -8.5213536270236923e-02 -1.1738729391819804e-02 0.0000000000000000e+00 -1.1738729391819804e-02 -8.5610857678131105e-02 0.0000000000000000e+00 0.0000000000000000e+00 0.0000000000000000e+00 0.0000000000000000e+00  -8.5573334676008750e-02 -1.1594512877659073e-02 0.0000000000000000e+00 -1.1594512877659073e-02 -8.5775985095270332e-02 0.0000000000000000e+00 0.0000000000000000e+00 0.0000000000000000e+00 0.0000000000000000e+00  -8.5899577304320116e-02 -1.1335994166709414e-02 0.0000000000000000e+00 -1.1335994166709414e-02 -8.5945348068704061e-02 0.0000000000000000e+00 0.0000000000000000e+00 0.0000000000000000e+00 0.0000000000000000e+00  -8.6224832292352088e-02 -1.0933359380948483e-02 0.0000000000000000e+00 -1.0933359380948483e-02 -8.6098606891956544e-02 0.0000000000000000e+00 0.0000000000000000e+00 0.0000000000000000e+00 0.0000000000000000e+00  -8.6537077877265833e-02 -1.0367121595489999e-02 0.0000000000000000e+00 -1.0367121595489999e-02 -8.6263632556231123e-02 0.0000000000000000e+00 0.0000000000000000e+00 0.0000000000000000e+00 0.0000000000000000e+00  -8.6797516241738204e-02 -9.6470539651207637e-03 0.0000000000000000e+00 -9.6470539651207637e-03 -8.6496917228899864e-02 0.0000000000000000e+00 0.0000000000000000e+00 0.0000000000000000e+00 0.0000000000000000e+00  -8.6963494153092652e-02 -8.8186784204288948e-03 0.0000000000000000e+00 -8.8186784204288948e-03 -8.6855975264633886e-02 0.0000000000000000e+00 0.0000000000000000e+00 0.0000000000000000e+00 0.0000000000000000e+00  -8.7009563062859410e-02 -7.9553991700924195e-03 0.0000000000000000e+00 -7.9553991700924195e-03 -8.7373220222238299e-02 0.0000000000000000e+00 0.0000000000000000e+00 0.0000000000000000e+00 0.0000000000000000e+00  -8.6940138946708656e-02 -7.1396856762856384e-03 0.0000000000000000e+00 -7.1396856762856384e-03 -8.8040226384551459e-02 0.0000000000000000e+00 0.0000000000000000e+00 0.0000000000000000e+00 0.0000000000000000e+00  -8.6790153698789951e-02 -6.4405243797895370e-03 0.0000000000000000e+00 -6.4405243797895370e-03 -8.8807382394556003e-02 0.0000000000000000e+00 0.0000000000000000e+00 0.0000000000000000e+00 0.0000000000000000e+00  -8.6614258954922474e-02 -5.8954775079131634e-03 0.0000000000000000e+00 -5.8954775079131634e-03 -8.9598362029185141e-02 0.0000000000000000e+00 0.0000000000000000e+00 0.0000000000000000e+00 0.0000000000000000e+00  -8.6469160718777596e-02 -5.5038815727169402e-03 0.0000000000000000e+00 -5.5038815727169402e-03 -9.0333486153681947e-02 0.0000000000000000e+00 0.0000000000000000e+00 0.0000000000000000e+00 0.0000000000000000e+00  -8.6396181248454315e-02 -5.2333909385062806e-03 0.0000000000000000e+00 -5.2333909385062806e-03 -9.0952782355737727e-02 0.0000000000000000e+00 0.0000000000000000e+00 0.0000000000000000e+00 0.0000000000000000e+00  -8.6410828861500089e-02 -5.0365424986209975e-03 0.0000000000000000e+00 -5.0365424986209975e-03 -9.1430033616661327e-02 0.0000000000000000e+00 0.0000000000000000e+00 0.0000000000000000e+00 0.0000000000000000e+00  -8.6502106892644662e-02 -4.8704421285402028e-03 0.0000000000000000e+00 -4.8704421285402028e-03 -9.1773807476318914e-02 0.0000000000000000e+00 0.0000000000000000e+00 0.0000000000000000e+00 0.0000000000000000e+00  -8.6642483074745716e-02 -4.7120840794449854e-03 0.0000000000000000e+00 -4.7120840794449854e-03 -9.2015041242541451e-02 0.0000000000000000e+00 0.0000000000000000e+00 0.0000000000000000e+00 0.0000000000000000e+00  -8.6797627116401349e-02 -4.5626207456461836e-03 0.0000000000000000e+00 -4.5626207456461836e-03 -9.2191771032365949e-02 0.0000000000000000e+00 0.0000000000000000e+00 0.0000000000000000e+00 0.0000000000000000e+00  -8.6946032655963790e-02 -4.4507763926757461e-03 0.0000000000000000e+00 -4.4507763926757461e-03 -9.2326648773430817e-02 0.0000000000000000e+00 0.0000000000000000e+00 0.0000000000000000e+00 0.0000000000000000e+00  -8.7079381446524495e-02 -4.3874258835834819e-03 0.0000000000000000e+00 -4.3874258835834819e-03 -9.2415255961525389e-02 0.0000000000000000e+00 0.0000000000000000e+00 0.0000000000000000e+00 0.0000000000000000e+00  -8.7161846430961754e-02 -4.4396414332063608e-03 0.0000000000000000e+00 -4.4396414332063608e-03 -9.2490306700633004e-02 0.0000000000000000e+00 0.0000000000000000e+00 0.0000000000000000e+00 0.0000000000000000e+00  -8.7356770812583751e-02 -4.5038591749544457e-03 0.0000000000000000e+00 -4.5038591749544457e-03 -9.2287709202453633e-02 0.0000000000000000e+00 0.0000000000000000e+00 0.0000000000000000e+00 0.0000000000000000e+00  -8.6800808154930811e-02 -4.6330939398197312e-03 0.0000000000000000e+00 -4.6330939398197312e-03 -9.2884444306031239e-02 0.0000000000000000e+00 0.0000000000000000e+00 0.0000000000000000e+00 0.0000000000000000e+00  -8.8185977098285073e-02 -5.8853824754610002e-03 0.0000000000000000e+00 -5.8853824754610002e-03 -9.0231567344243008e-02 0.0000000000000000e+00 0.0000000000000000e+00 0.0000000000000000e+00 0.0000000000000000e+00  -8.3405541548581610e-02 -1.8722874431851154e-03 0.0000000000000000e+00 -1.8722874431851154e-03 -9.6264589008274448e-02 0.0000000000000000e+00 0.0000000000000000e+00 0.0000000000000000e+00 0.0000000000000000e+00  -8.6243638792198526e-02 -1.7850012903315299e-02 0.0000000000000000e+00 -1.7850012903315299e-02 -8.9061089696426232e-02 0.0000000000000000e+00 0.0000000000000000e+00 0.0000000000000000e+00 0.0000000000000000e+00  1.3032394611308874e-02 9.3251128705691168e-03 0.0000000000000000e+00 9.3251128705691168e-03 -8.7490355591153715e-02 0.0000000000000000e+00 0.0000000000000000e+00 0.0000000000000000e+00 0.0000000000000000e+00  -4.3921895030665226e-01 6.2318707982796165e-02 0.0000000000000000e+00 6.2318707982796165e-02 -1.4446281735901709e-01 0.0000000000000000e+00 0.0000000000000000e+00 0.0000000000000000e+00 0.0000000000000000e+00  1.0357882478454639e-02 -9.8340340405057042e-02 0.0000000000000000e+00 -9.8340340405057042e-02 -9.8748630856533001e-02 0.0000000000000000e+00 0.0000000000000000e+00 0.0000000000000000e+00 0.0000000000000000e+00  3.7734243357603302e-03 1.8280129346548008e-02 0.0000000000000000e+00 1.8280129346548008e-02 3.3097579286161241e-03 0.0000000000000000e+00 0.0000000000000000e+00 0.0000000000000000e+00 0.0000000000000000e+00  1.0188193855954273e-02 -6.6553234375479442e-04 0.0000000000000000e+00 -6.6553234375479442e-04 7.7946806786801850e-03 0.0000000000000000e+00 0.0000000000000000e+00 0.0000000000000000e+00 0.0000000000000000e+00  7.5569361668917732e-03 -4.5952167303447134e-05 0.0000000000000000e+00 -4.5952167303447134e-05 7.5112246017804331e-03 0.0000000000000000e+00 0.0000000000000000e+00 0.0000000000000000e+00 0.0000000000000000e+00  7.8174882070828136e-03 2.4663724778047878e-05 0.0000000000000000e+00 2.4663724778047878e-05 7.8095410523068617e-03 0.0000000000000000e+00 0.0000000000000000e+00 0.0000000000000000e+00 0.0000000000000000e+00  7.7841833678691449e-03 -1.9114630469927849e-05 0.0000000000000000e+00 -1.9114630469927849e-05 7.7834402670946112e-03 0.0000000000000000e+00 0.0000000000000000e+00 0.0000000000000000e+00 0.0000000000000000e+00  7.7858016385233932e-03 -3.2413638070150098e-05 0.0000000000000000e+00 -3.2413638070150098e-05 7.7896203859968219e-03 0.0000000000000000e+00 0.0000000000000000e+00 0.0000000000000000e+00 0.0000000000000000e+00  7.7864219417252255e-03 -5.1762722308015513e-05 0.0000000000000000e+00 -5.1762722308015513e-05 7.7868216293018469e-03 0.0000000000000000e+00 0.0000000000000000e+00 0.0000000000000000e+00 0.0000000000000000e+00  7.7849111493849682e-03 5.8931015561664284e-05 0.0000000000000000e+00 5.8931015561664284e-05 7.7854398496164552e-03 0.0000000000000000e+00 0.0000000000000000e+00 0.0000000000000000e+00 0.0000000000000000e+00  7.7844237243071667e-03 3.5462256317362416e-05 0.0000000000000000e+00 3.5462256317362416e-05 7.7863037024576255e-03 0.0000000000000000e+00 0.0000000000000000e+00 0.0000000000000000e+00 0.0000000000000000e+00  7.7841358630940686e-03 1.0182861831015785e-05 0.0000000000000000e+00 1.0182861831015785e-05 7.7824812829301480e-03 0.0000000000000000e+00 0.0000000000000000e+00 0.0000000000000000e+00 0.0000000000000000e+00  7.7991030942413924e-03 3.5393054401020477e-05 0.0000000000000000e+00 3.5393054401020477e-05 7.7502759524347336e-03 0.0000000000000000e+00 0.0000000000000000e+00 0.0000000000000000e+00 0.0000000000000000e+00  7.9801888751619126e-03 -5.7770552397776371e-04 0.0000000000000000e+00 -5.7770552397776371e-04 7.9756408378579002e-03 0.0000000000000000e+00 0.0000000000000000e+00 0.0000000000000000e+00 0.0000000000000000e+00  5.3076588570713477e-03 3.6811546370615774e-03 0.0000000000000000e+00 3.6811546370615774e-03 1.4927003430239272e-03 0.0000000000000000e+00 0.0000000000000000e+00 0.0000000000000000e+00 0.0000000000000000e+00  6.5031101178927950e-02 -1.9202325369809578e-02 0.0000000000000000e+00 -1.9202325369809578e-02 1.1872029019176330e-02 0.0000000000000000e+00 0.0000000000000000e+00 0.0000000000000000e+00 0.0000000000000000e+00  -4.3892424180797640e-01 2.3840412609384968e-02 0.0000000000000000e+00 2.3840412609384968e-02 -2.8035741650826268e-01 0.0000000000000000e+00 0.0000000000000000e+00 0.0000000000000000e+00 0.0000000000000000e+00  -2.4048258265825195e-02 3.4028859306688641e-02 0.0000000000000000e+00 3.4028859306688641e-02 2.8080249934147570e-02 0.0000000000000000e+00 0.0000000000000000e+00 0.0000000000000000e+00 0.0000000000000000e+00  -4.0840968354662811e-02 -7.6608627758597203e-03 0.0000000000000000e+00 -7.6608627758597203e-03 -1.4127971154235100e-01 0.0000000000000000e+00 0.0000000000000000e+00 0.0000000000000000e+00 0.0000000000000000e+00  -9.0229625091109628e-02 5.0586833487279827e-03 0.0000000000000000e+00 5.0586833487279827e-03 -8.1266581701618990e-02 0.0000000000000000e+00 0.0000000000000000e+00 0.0000000000000000e+00 0.0000000000000000e+00  -8.5494302396137437e-02 7.2307505813769043e-03 0.0000000000000000e+00 7.2307505813769043e-03 -9.1528546109797909e-02 0.0000000000000000e+00 0.0000000000000000e+00 0.0000000000000000e+00 0.0000000000000000e+00  -8.6178187265824643e-02 4.9842467015963881e-03 0.0000000000000000e+00 4.9842467015963881e-03 -9.2191709941279162e-02 0.0000000000000000e+00 0.0000000000000000e+00 0.0000000000000000e+00 0.0000000000000000e+00  -8.6597055412743637e-02 4.9110124190773902e-03 0.0000000000000000e+00 4.9110124190773902e-03 -9.2201459200991015e-02 0.0000000000000000e+00 0.0000000000000000e+00 0.0000000000000000e+00 0.0000000000000000e+00  -8.6461837485861046e-02 4.4626053764554646e-03 0.0000000000000000e+00 4.4626053764554646e-03 -9.2681078047146204e-02 0.0000000000000000e+00 0.0000000000000000e+00 0.0000000000000000e+00 0.0000000000000000e+00  -8.6450088027196156e-02 4.2762773405651648e-03 0.0000000000000000e+00 4.2762773405651648e-03 -9.2746988656387183e-02 0.0000000000000000e+00 0.0000000000000000e+00 0.0000000000000000e+00 0.0000000000000000e+00  -8.6318691897810329e-02 4.2108401715228588e-03 0.0000000000000000e+00 4.2108401715228588e-03 -9.2804756515052378e-02 0.0000000000000000e+00 0.0000000000000000e+00 0.0000000000000000e+00 0.0000000000000000e+00  -8.6174118846065240e-02 4.2398203536289378e-03 0.0000000000000000e+00 4.2398203536289378e-03 -9.2761543014471773e-02 0.0000000000000000e+00 0.0000000000000000e+00 0.0000000000000000e+00 0.0000000000000000e+00  -8.6006997956279294e-02 4.3478480075410941e-03 0.0000000000000000e+00 4.3478480075410941e-03 -9.2651784119392039e-02 0.0000000000000000e+00 0.0000000000000000e+00 0.0000000000000000e+00 0.0000000000000000e+00  -8.5830796541521065e-02 4.5061356232238082e-03 0.0000000000000000e+00 4.5061356232238082e-03 -9.2470567257785324e-02 0.0000000000000000e+00 0.0000000000000000e+00 0.0000000000000000e+00 0.0000000000000000e+00  -8.5659838997329943e-02 4.6994925186649768e-03 0.0000000000000000e+00 4.6994925186649768e-03 -9.2208137367084733e-02 0.0000000000000000e+00 0.0000000000000000e+00 0.0000000000000000e+00 0.0000000000000000e+00  -8.5511213169902553e-02 4.9240831848940264e-03 0.0000000000000000e+00 4.9240831848940264e-03 -9.1848684409193596e-02 0.0000000000000000e+00 0.0000000000000000e+00 0.0000000000000000e+00 0.0000000000000000e+00  -8.5398570045865901e-02 5.1920721551057232e-03 0.0000000000000000e+00 5.1920721551057232e-03 -9.1380130704280207e-02 0.0000000000000000e+00 0.0000000000000000e+00 0.0000000000000000e+00 0.0000000000000000e+00  -8.5323989738792697e-02 5.5264281494573318e-03 0.0000000000000000e+00 5.5264281494573318e-03 -9.0804516051263981e-02 0.0000000000000000e+00 0.0000000000000000e+00 0.0000000000000000e+00 0.0000000000000000e+00  -8.5273613308290655e-02 5.9514489424490318e-03 0.0000000000000000e+00 5.9514489424490318e-03 -9.0143660968722714e-02 0.0000000000000000e+00 0.0000000000000000e+00 0.0000000000000000e+00 0.0000000000000000e+00  -8.5218135014049179e-02 6.4809650770517478e-03 0.0000000000000000e+00 6.4809650770517478e-03 -8.9438143753983471e-02 0.0000000000000000e+00 0.0000000000000000e+00 0.0000000000000000e+00 0.0000000000000000e+00  -8.5119193961870857e-02 7.1086482419759952e-03 0.0000000000000000e+00 7.1086482419759952e-03 -8.8738699638051310e-02 0.0000000000000000e+00 0.0000000000000000e+00 0.0000000000000000e+00 0.0000000000000000e+00  -8.4939435885609579e-02 7.8042558792524343e-03 0.0000000000000000e+00 7.8042558792524343e-03 -8.8092852082085893e-02 0.0000000000000000e+00 0.0000000000000000e+00 0.0000000000000000e+00 0.0000000000000000e+00  -8.4652425933127759e-02 8.5174672168021794e-03 0.0000000000000000e+00 8.5174672168021794e-03 -8.7531634090014729e-02 0.0000000000000000e+00 0.0000000000000000e+00 0.0000000000000000e+00 0.0000000000000000e+00  -8.4248284314517627e-02 9.1879900590423145e-03 0.0000000000000000e+00 9.1879900590423145e-03 -8.7061568158313341e-02 0.0000000000000000e+00 0.0000000000000000e+00 0.0000000000000000e+00 0.0000000000000000e+00  -8.3732305175539118e-02 9.7580731224731227e-03 0.0000000000000000e+00 9.7580731224731227e-03 -8.6665268355987410e-02 0.0000000000000000e+00 0.0000000000000000e+00 0.0000000000000000e+00 0.0000000000000000e+00  -8.3116209573137062e-02 1.0182450073132156e-02 0.0000000000000000e+00 1.0182450073132156e-02 -8.6310904950318734e-02 0.0000000000000000e+00 0.0000000000000000e+00 0.0000000000000000e+00 0.0000000000000000e+00  -8.2404174735493774e-02 1.0431412591912659e-02 0.0000000000000000e+00 1.0431412591912659e-02 -8.5967494898458077e-02 0.0000000000000000e+00 0.0000000000000000e+00 0.0000000000000000e+00 0.0000000000000000e+00  -8.1577470455111434e-02 1.0484929764092940e-02 0.0000000000000000e+00 1.0484929764092940e-02 -8.5620725047051607e-02 0.0000000000000000e+00 0.0000000000000000e+00 0.0000000000000000e+00 0.0000000000000000e+00  -8.0581600924751820e-02 1.0318672907740080e-02 0.0000000000000000e+00 1.0318672907740080e-02 -8.5283730347735343e-02 0.0000000000000000e+00 0.0000000000000000e+00 0.0000000000000000e+00 0.0000000000000000e+00  -7.9318501297738500e-02 9.8850104240603368e-03 0.0000000000000000e+00 9.8850104240603368e-03 -8.4998737920384482e-02 0.0000000000000000e+00 0.0000000000000000e+00 0.0000000000000000e+00 0.0000000000000000e+00  -7.7643301497098804e-02 9.0932216549993554e-03 0.0000000000000000e+00 9.0932216549993554e-03 -8.4828670297058276e-02 0.0000000000000000e+00 0.0000000000000000e+00 0.0000000000000000e+00 0.0000000000000000e+00  -7.5363868552943566e-02 7.7894431531253050e-03 0.0000000000000000e+00 7.7894431531253050e-03 -8.4839134295614793e-02 0.0000000000000000e+00 0.0000000000000000e+00 0.0000000000000000e+00 0.0000000000000000e+00  -7.2240014221848947e-02 5.7422152405401349e-03 0.0000000000000000e+00 5.7422152405401349e-03 -8.5071481266918464e-02 0.0000000000000000e+00 0.0000000000000000e+00 0.0000000000000000e+00 0.0000000000000000e+00  -6.7970653407000203e-02 2.6109763096884885e-03 0.0000000000000000e+00 2.6109763096884885e-03 -8.5515097515696192e-02 0.0000000000000000e+00 0.0000000000000000e+00 0.0000000000000000e+00 0.0000000000000000e+00  -6.2218844876063717e-02 -2.0633308726891388e-03 0.0000000000000000e+00 -2.0633308726891388e-03 -8.6016471432023678e-02 0.0000000000000000e+00 0.0000000000000000e+00 0.0000000000000000e+00 0.0000000000000000e+00  -5.4480201908046574e-02 -8.9276973212335294e-03 0.0000000000000000e+00 -8.9276973212335294e-03 -8.6332510206184043e-02 0.0000000000000000e+00 0.0000000000000000e+00 0.0000000000000000e+00 0.0000000000000000e+00  -4.4421035569385446e-02 -1.8970377432035151e-02 0.0000000000000000e+00 -1.8970377432035151e-02 -8.5547799701208321e-02 0.0000000000000000e+00 0.0000000000000000e+00 0.0000000000000000e+00 0.0000000000000000e+00  -3.1784315366952857e-02 -3.2855028977165406e-02 0.0000000000000000e+00 -3.2855028977165406e-02 -8.2177295181094734e-02 0.0000000000000000e+00 0.0000000000000000e+00 0.0000000000000000e+00 0.0000000000000000e+00  -1.2138487828589039e-02 -5.2370634724442665e-02 0.0000000000000000e+00 -5.2370634724442665e-02 -7.8650106050791646e-02 0.0000000000000000e+00 0.0000000000000000e+00 0.0000000000000000e+00 0.0000000000000000e+00  -2.6372136576622756e-03 -8.4875696133728723e-02 0.0000000000000000e+00 -8.4875696133728723e-02 -4.3988111738955483e-02 0.0000000000000000e+00 0.0000000000000000e+00 0.0000000000000000e+00 0.0000000000000000e+00  4.8016518413705418e-02 -8.1451409337321770e-02 0.0000000000000000e+00 -8.1451409337321770e-02 -8.7017184864228686e-02 0.0000000000000000e+00 0.0000000000000000e+00 0.0000000000000000e+00 0.0000000000000000e+00  -6.2872494935713539e-03 -1.2163790478936500e-01 0.0000000000000000e+00 -1.2163790478936500e-01 -6.4570167385348640e-02 0.0000000000000000e+00 0.0000000000000000e+00 0.0000000000000000e+00 0.0000000000000000e+00  -2.0392783859784336e-01 -1.6324931531846185e-01 0.0000000000000000e+00 -1.6324931531846185e-01 -1.8511583914564947e-01 0.0000000000000000e+00 0.0000000000000000e+00 0.0000000000000000e+00 0.0000000000000000e+00  1.1647066684742215e-01 -9.0182609872767956e-04 0.0000000000000000e+00 -9.0182609872767956e-04 1.2247985423974568e-01 0.0000000000000000e+00 0.0000000000000000e+00 0.0000000000000000e+00 0.0000000000000000e+00  -8.0911176572372248e-03 3.1458719723300353e-02 0.0000000000000000e+00 3.1458719723300353e-02 -3.5234161525833294e-02 0.0000000000000000e+00 0.0000000000000000e+00 0.0000000000000000e+00 0.0000000000000000e+00  1.2547975763859279e-01 -7.7536701458939386e-02 0.0000000000000000e+00 -7.7536701458939386e-02 9.7827938687945523e-02 0.0000000000000000e+00 0.0000000000000000e+00 0.0000000000000000e+00 0.0000000000000000e+00  -1.8746966113901764e-01 2.0781846918638858e-01 0.0000000000000000e+00 2.0781846918638858e-01 -1.4449936223712523e-01 0.0000000000000000e+00 0.0000000000000000e+00 0.0000000000000000e+00 0.0000000000000000e+00  -3.7143016530086857e-02 9.8831433920686926e-02 0.0000000000000000e+00 9.8831433920686926e-02 -7.4113535352329771e-02 0.0000000000000000e+00 0.0000000000000000e+00 0.0000000000000000e+00 0.0000000000000000e+00  6.7879582181066142e-02 7.0176671953787906e-02 0.0000000000000000e+00 7.0176671953787906e-02 -1.0391849933974713e-01 0.0000000000000000e+00 0.0000000000000000e+00 0.0000000000000000e+00 0.0000000000000000e+00  -5.8559267735977857e-03 7.6354408288839576e-02 0.0000000000000000e+00 7.6354408288839576e-02 -5.1647624143196208e-02 0.0000000000000000e+00 0.0000000000000000e+00 0.0000000000000000e+00 0.0000000000000000e+00  -1.4692905157500200e-02 4.3984241563552184e-02 0.0000000000000000e+00 4.3984241563552184e-02 -8.5826345969182607e-02 0.0000000000000000e+00 0.0000000000000000e+00 0.0000000000000000e+00 0.0000000000000000e+00  -3.5450915928592557e-02 2.5867581602413599e-02 0.0000000000000000e+00 2.5867581602413599e-02 -8.6673543102501277e-02 0.0000000000000000e+00 0.0000000000000000e+00 0.0000000000000000e+00 0.0000000000000000e+00  -4.7872264337019653e-02 1.3107185874043154e-02 0.0000000000000000e+00 1.3107185874043154e-02 -8.8736065587266016e-02 0.0000000000000000e+00 0.0000000000000000e+00 0.0000000000000000e+00 0.0000000000000000e+00  -5.7670544713113045e-02 4.1890018062002545e-03 0.0000000000000000e+00 4.1890018062002545e-03 -8.8514474900701523e-02 0.0000000000000000e+00 0.0000000000000000e+00 0.0000000000000000e+00 0.0000000000000000e+00  -6.5016023793879593e-02 -1.7162808479285563e-03 0.0000000000000000e+00 -1.7162808479285563e-03 -8.7579797364458228e-02 0.0000000000000000e+00 0.0000000000000000e+00 0.0000000000000000e+00 0.0000000000000000e+00  -7.0361671315301536e-02 -5.5856088514469404e-03 0.0000000000000000e+00 -5.5856088514469404e-03 -8.6690937852939201e-02 0.0000000000000000e+00 0.0000000000000000e+00 0.0000000000000000e+00 0.0000000000000000e+00  -7.4242666337247312e-02 -8.0640796602505522e-03 0.0000000000000000e+00 -8.0640796602505522e-03 -8.6017759664760926e-02 0.0000000000000000e+00 0.0000000000000000e+00 0.0000000000000000e+00 0.0000000000000000e+00  -7.7019836928906141e-02 -9.5901762635379004e-03 0.0000000000000000e+00 -9.5901762635379004e-03 -8.5649821680434265e-02 0.0000000000000000e+00 0.0000000000000000e+00 0.0000000000000000e+00 0.0000000000000000e+00  -7.9001923665245222e-02 -1.0482537534573729e-02 0.0000000000000000e+00 -1.0482537534573729e-02 -8.5557008882328797e-02 0.0000000000000000e+00 0.0000000000000000e+00 0.0000000000000000e+00 0.0000000000000000e+00  -8.0429604141561667e-02 -1.0951169903481455e-02 0.0000000000000000e+00 -1.0951169903481455e-02 -8.5671386891537679e-02 0.0000000000000000e+00 0.0000000000000000e+00 0.0000000000000000e+00 0.0000000000000000e+00  -8.1490884063586927e-02 -1.1131212625133899e-02 0.0000000000000000e+00 -1.1131212625133899e-02 -8.5911678672582620e-02 0.0000000000000000e+00 0.0000000000000000e+00 0.0000000000000000e+00 0.0000000000000000e+00  -8.2324448424126700e-02 -1.1097952670913175e-02 0.0000000000000000e+00 -1.1097952670913175e-02 -8.6206486163673393e-02 0.0000000000000000e+00 0.0000000000000000e+00 0.0000000000000000e+00 0.0000000000000000e+00  -8.3021589860817632e-02 -1.0886816113317080e-02 0.0000000000000000e+00 -1.0886816113317080e-02 -8.6509683727818684e-02 0.0000000000000000e+00 0.0000000000000000e+00 0.0000000000000000e+00 0.0000000000000000e+00  -8.3630351296513097e-02 -1.0512742407299457e-02 0.0000000000000000e+00 -1.0512742407299457e-02 -8.6806903866934987e-02 0.0000000000000000e+00 0.0000000000000000e+00 0.0000000000000000e+00 0.0000000000000000e+00  -8.4163785886007897e-02 -9.9886609416558313e-03 0.0000000000000000e+00 -9.9886609416558313e-03 -8.7112624090951704e-02 0.0000000000000000e+00 0.0000000000000000e+00 0.0000000000000000e+00 0.0000000000000000e+00  -8.4612990969136062e-02 -9.3389525040712285e-03 0.0000000000000000e+00 -9.3389525040712285e-03 -8.7458588459173175e-02 0.0000000000000000e+00 0.0000000000000000e+00 0.0000000000000000e+00 0.0000000000000000e+00  -8.4962483003889908e-02 -8.6048818233431992e-03 0.0000000000000000e+00 -8.6048818233431992e-03 -8.7877511681267326e-02 0.0000000000000000e+00 0.0000000000000000e+00 0.0000000000000000e+00 0.0000000000000000e+00  -8.5204090031021723e-02 -7.8411522042043432e-03 0.0000000000000000e+00 -7.8411522042043432e-03 -8.8387537142610689e-02 0.0000000000000000e+00 0.0000000000000000e+00 0.0000000000000000e+00 0.0000000000000000e+00  -8.5345569972772095e-02 -7.1056619932448458e-03 0.0000000000000000e+00 -7.1056619932448458e-03 -8.8982673019639441e-02 0.0000000000000000e+00 0.0000000000000000e+00 0.0000000000000000e+00 0.0000000000000000e+00  -8.5411834616185039e-02 -6.4467663992881351e-03 0.0000000000000000e+00 -6.4467663992881351e-03 -8.9632195116720909e-02 0.0000000000000000e+00 0.0000000000000000e+00 0.0000000000000000e+00 0.0000000000000000e+00  -8.5439149370019937e-02 -5.8930210781932739e-03 0.0000000000000000e+00 -5.8930210781932739e-03 -9.0288732838138208e-02 0.0000000000000000e+00 0.0000000000000000e+00 0.0000000000000000e+00 0.0000000000000000e+00  -8.5465071718374530e-02 -5.4492671211211060e-03 0.0000000000000000e+00 -5.4492671211211060e-03 -9.0901633018875702e-02 0.0000000000000000e+00 0.0000000000000000e+00 0.0000000000000000e+00 0.0000000000000000e+00  -8.5518274306816938e-02 -5.1003595821409141e-03 0.0000000000000000e+00 -5.1003595821409141e-03 -9.1430400901270775e-02 0.0000000000000000e+00 0.0000000000000000e+00 0.0000000000000000e+00 0.0000000000000000e+00  -8.5612075794254616e-02 -4.8208600409514824e-03 0.0000000000000000e+00 -4.8208600409514824e-03 -9.1853346526470050e-02 0.0000000000000000e+00 0.0000000000000000e+00 0.0000000000000000e+00 0.0000000000000000e+00  -8.5743898725126860e-02 -4.5868428346868212e-03 0.0000000000000000e+00 -4.5868428346868212e-03 -9.2168630873545848e-02 0.0000000000000000e+00 0.0000000000000000e+00 0.0000000000000000e+00 0.0000000000000000e+00  -8.5899601077689167e-02 -4.3853908965849186e-03 0.0000000000000000e+00 -4.3853908965849186e-03 -9.2388612890456967e-02 0.0000000000000000e+00 0.0000000000000000e+00 0.0000000000000000e+00 0.0000000000000000e+00  -8.6061589727635154e-02 -4.2198213271614979e-03 0.0000000000000000e+00 -4.2198213271614979e-03 -9.2529452678757257e-02 0.0000000000000000e+00 0.0000000000000000e+00 0.0000000000000000e+00 0.0000000000000000e+00  -8.6215018347772024e-02 -4.1051101418674001e-03 0.0000000000000000e+00 -4.1051101418674001e-03 -9.2601289956910998e-02 0.0000000000000000e+00 0.0000000000000000e+00 0.0000000000000000e+00 0.0000000000000000e+00  -8.6345979556135155e-02 -4.0701479844579801e-03 0.0000000000000000e+00 -4.0701479844579801e-03 -9.2609327694849919e-02 0.0000000000000000e+00 0.0000000000000000e+00 0.0000000000000000e+00 0.0000000000000000e+00  -8.6463551350800541e-02 -4.1307850226793182e-03 0.0000000000000000e+00 -4.1307850226793182e-03 -9.2519156500293506e-02 0.0000000000000000e+00 0.0000000000000000e+00 0.0000000000000000e+00 0.0000000000000000e+00  -8.6461429879321913e-02 -4.3139396004271136e-03 0.0000000000000000e+00 -4.3139396004271136e-03 -9.2423218885593059e-02 0.0000000000000000e+00 0.0000000000000000e+00 0.0000000000000000e+00 0.0000000000000000e+00  -8.6583299422934162e-02 -4.7613634781297296e-03 0.0000000000000000e+00 -4.7613634781297296e-03 -9.1915054373948549e-02 0.0000000000000000e+00 0.0000000000000000e+00 0.0000000000000000e+00 0.0000000000000000e+00  -8.6152301507826379e-02 -4.8343647306568482e-03 0.0000000000000000e+00 -4.8343647306568482e-03 -9.1878383212679979e-02 0.0000000000000000e+00 0.0000000000000000e+00 0.0000000000000000e+00 0.0000000000000000e+00  -8.5461890777450006e-02 -7.0828015691484572e-03 0.0000000000000000e+00 -7.0828015691484572e-03 -9.1185126218824908e-02 0.0000000000000000e+00 0.0000000000000000e+00 0.0000000000000000e+00 0.0000000000000000e+00  -9.0182305980645833e-02 -4.8964149103252761e-03 0.0000000000000000e+00 -4.8964149103252761e-03 -8.0913946357790534e-02 0.0000000000000000e+00 0.0000000000000000e+00 0.0000000000000000e+00 0.0000000000000000e+00  -4.0908795705243722e-02 7.7799088857109450e-03 0.0000000000000000e+00 7.7799088857109450e-03 -1.4091001448178503e-01 0.0000000000000000e+00 0.0000000000000000e+00 0.0000000000000000e+00 0.0000000000000000e+00  -2.3684675404014120e-02 -3.3864931152543097e-02 0.0000000000000000e+00 -3.3864931152543097e-02 2.8407742868423954e-02 0.0000000000000000e+00 0.0000000000000000e+00 0.0000000000000000e+00 0.0000000000000000e+00  -4.3984860536682496e-01 -2.3568278921556936e-02 0.0000000000000000e+00 -2.3568278921556936e-02 -2.8055344340633137e-01 0.0000000000000000e+00 0.0000000000000000e+00 0.0000000000000000e+00 0.0000000000000000e+00  6.4770367621698896e-02 1.9223664790541981e-02 0.0000000000000000e+00 1.9223664790541981e-02 1.1419200007806942e-02 0.0000000000000000e+00 0.0000000000000000e+00 0.0000000000000000e+00 0.0000000000000000e+00  5.1952463946859104e-03 -3.6587544080386707e-03 0.0000000000000000e+00 -3.6587544080386707e-03 1.2503237478550060e-03 0.0000000000000000e+00 0.0000000000000000e+00 0.0000000000000000e+00 0.0000000000000000e+00  8.0519310799388646e-03 5.8519521590957564e-04 0.0000000000000000e+00 5.8519521590957564e-04 8.0545999095433182e-03 0.0000000000000000e+00 0.0000000000000000e+00 0.0000000000000000e+00 0.0000000000000000e+00  7.8184227236951925e-03 -4.7029094565213211e-05 0.0000000000000000e+00 -4.7029094565213211e-05 7.7779171736197718e-03 0.0000000000000000e+00 0.0000000000000000e+00 0.0000000000000000e+00 0.0000000000000000e+00  7.8093453309828996e-03 -1.1568146834586026e-05 0.0000000000000000e+00 -1.1568146834586026e-05 7.8035143725079656e-03 0.0000000000000000e+00 0.0000000000000000e+00 0.0000000000000000e+00 0.0000000000000000e+00  7.8085187902695872e-03 -3.2449150474823689e-05 0.0000000000000000e+00 -3.2449150474823689e-05 7.8070838304153444e-03 0.0000000000000000e+00 0.0000000000000000e+00 0.0000000000000000e+00 0.0000000000000000e+00  7.8081817637822362e-03 -5.2600179316961729e-05 0.0000000000000000e+00 -5.2600179316961729e-05 7.8084740953570037e-03 0.0000000000000000e+00 0.0000000000000000e+00 0.0000000000000000e+00 0.0000000000000000e+00  7.8111147448704892e-03 5.9909102484317160e-05 0.0000000000000000e+00 5.9909102484317160e-05 7.8115241696499766e-03 0.0000000000000000e+00 0.0000000000000000e+00 0.0000000000000000e+00 0.0000000000000000e+00  7.8124695390414823e-03 3.4198843957448496e-05 0.0000000000000000e+00 3.4198843957448496e-05 7.8100790130389451e-03 0.0000000000000000e+00 0.0000000000000000e+00 0.0000000000000000e+00 0.0000000000000000e+00  7.8164783190610900e-03 8.6280606154412817e-06 0.0000000000000000e+00 8.6280606154412817e-06 7.8033332718801711e-03 0.0000000000000000e+00 0.0000000000000000e+00 0.0000000000000000e+00 0.0000000000000000e+00  7.7822545289187592e-03 5.7290737601485480e-06 0.0000000000000000e+00 5.7290737601485480e-06 7.7379974520739650e-03 0.0000000000000000e+00 0.0000000000000000e+00 0.0000000000000000e+00 0.0000000000000000e+00  8.7886162104361520e-03 2.3517362115439886e-05 0.0000000000000000e+00 2.3517362115439886e-05 7.9111155446845889e-03 0.0000000000000000e+00 0.0000000000000000e+00 0.0000000000000000e+00 0.0000000000000000e+00  4.9731785823373918e-03 -7.5076537063401491e-03 0.0000000000000000e+00 -7.5076537063401491e-03 1.1810341061555202e-03 0.0000000000000000e+00 0.0000000000000000e+00 0.0000000000000000e+00 0.0000000000000000e+00  1.7005109842478786e-02 6.9085985226782096e-02 0.0000000000000000e+00 6.9085985226782096e-02 -9.4553881207307983e-02 0.0000000000000000e+00 0.0000000000000000e+00 0.0000000000000000e+00 0.0000000000000000e+00  -5.5879932039984948e-01 -6.5822636213446278e-02 0.0000000000000000e+00 -6.5822636213446278e-02 -2.1686616240373599e-01 0.0000000000000000e+00 0.0000000000000000e+00 0.0000000000000000e+00 0.0000000000000000e+00  3.3876428980178751e-02 9.0763670939848877e-03 0.0000000000000000e+00 9.0763670939848877e-03 -5.2659759330508517e-02 0.0000000000000000e+00 0.0000000000000000e+00 0.0000000000000000e+00 0.0000000000000000e+00  -7.9940401650518716e-02 1.2433170815993301e-02 0.0000000000000000e+00 1.2433170815993301e-02 -8.8496622021584884e-02 0.0000000000000000e+00 0.0000000000000000e+00 0.0000000000000000e+00 0.0000000000000000e+00  -8.3157435820042827e-02 5.1632758716393433e-03 0.0000000000000000e+00 5.1632758716393433e-03 -9.2955412205470364e-02 0.0000000000000000e+00 0.0000000000000000e+00 0.0000000000000000e+00 0.0000000000000000e+00  -8.7267739889298632e-02 5.9024261897516360e-03 0.0000000000000000e+00 5.9024261897516360e-03 -8.9398025389095262e-02 0.0000000000000000e+00 0.0000000000000000e+00 0.0000000000000000e+00 0.0000000000000000e+00  -8.6266626296668841e-02 5.3229432751809025e-03 0.0000000000000000e+00 5.3229432751809025e-03 -9.1377898232603380e-02 0.0000000000000000e+00 0.0000000000000000e+00 0.0000000000000000e+00 0.0000000000000000e+00  -8.6210394595329878e-02 4.5538953900623527e-03 0.0000000000000000e+00 4.5538953900623527e-03 -9.2004245240886129e-02 0.0000000000000000e+00 0.0000000000000000e+00 0.0000000000000000e+00 0.0000000000000000e+00  -8.6048009326721367e-02 4.1647720239801431e-03 0.0000000000000000e+00 4.1647720239801431e-03 -9.2449126176756741e-02 0.0000000000000000e+00 0.0000000000000000e+00 0.0000000000000000e+00 0.0000000000000000e+00  -8.5845324522830613e-02 3.9134288400619732e-03 0.0000000000000000e+00 3.9134288400619732e-03 -9.2777521883269654e-02 0.0000000000000000e+00 0.0000000000000000e+00 0.0000000000000000e+00 0.0000000000000000e+00  -8.5654543307734671e-02 3.8250010692329850e-03 0.0000000000000000e+00 3.8250010692329850e-03 -9.2947352793642135e-02 0.0000000000000000e+00 0.0000000000000000e+00 0.0000000000000000e+00 0.0000000000000000e+00  -8.5452697479480491e-02 3.8522273523897712e-03 0.0000000000000000e+00 3.8522273523897712e-03 -9.3011458341049430e-02 0.0000000000000000e+00 0.0000000000000000e+00 0.0000000000000000e+00 0.0000000000000000e+00  -8.5247167638879545e-02 3.9645935829553149e-03 0.0000000000000000e+00 3.9645935829553149e-03 -9.2973252416286761e-02 0.0000000000000000e+00 0.0000000000000000e+00 0.0000000000000000e+00 0.0000000000000000e+00  -8.5036592988225565e-02 4.1392987456095589e-03 0.0000000000000000e+00 4.1392987456095589e-03 -9.2842007081628236e-02 0.0000000000000000e+00 0.0000000000000000e+00 0.0000000000000000e+00 0.0000000000000000e+00  -8.4825242045633076e-02 4.3609190897968613e-03 0.0000000000000000e+00 4.3609190897968613e-03 -9.2617787942028809e-02 0.0000000000000000e+00 0.0000000000000000e+00 0.0000000000000000e+00 0.0000000000000000e+00  -8.4618833867819154e-02 4.6248803502943825e-03 0.0000000000000000e+00 4.6248803502943825e-03 -9.2298005626555560e-02 0.0000000000000000e+00 0.0000000000000000e+00 0.0000000000000000e+00 0.0000000000000000e+00  -8.4420907049707963e-02 4.9362023594984221e-03 0.0000000000000000e+00 4.9362023594984221e-03 -9.1882224098355808e-02 0.0000000000000000e+00 0.0000000000000000e+00 0.0000000000000000e+00 0.0000000000000000e+00  -8.4228405713620058e-02 5.3061402553281614e-03 0.0000000000000000e+00 5.3061402553281614e-03 -9.1377666749950903e-02 0.0000000000000000e+00 0.0000000000000000e+00 0.0000000000000000e+00 0.0000000000000000e+00  -8.4028903228819521e-02 5.7457951136980637e-03 0.0000000000000000e+00 5.7457951136980637e-03 -9.0802326197432906e-02 0.0000000000000000e+00 0.0000000000000000e+00 0.0000000000000000e+00 0.0000000000000000e+00  -8.3801065399815841e-02 6.2588419442227176e-03 0.0000000000000000e+00 6.2588419442227176e-03 -9.0183926283364246e-02 0.0000000000000000e+00 0.0000000000000000e+00 0.0000000000000000e+00 0.0000000000000000e+00  -8.3518371444018455e-02 6.8356559266023430e-03 0.0000000000000000e+00 6.8356559266023430e-03 -8.9554705977949942e-02 0.0000000000000000e+00 0.0000000000000000e+00 0.0000000000000000e+00 0.0000000000000000e+00  -8.3154869690223343e-02 7.4509209448951870e-03 0.0000000000000000e+00 7.4509209448951870e-03 -8.8943582472674143e-02 0.0000000000000000e+00 0.0000000000000000e+00 0.0000000000000000e+00 0.0000000000000000e+00  -8.2690678953904306e-02 8.0655537310248167e-03 0.0000000000000000e+00 8.0655537310248167e-03 -8.8368498979693094e-02 0.0000000000000000e+00 0.0000000000000000e+00 0.0000000000000000e+00 0.0000000000000000e+00  -8.2114832689041573e-02 8.6320857319661624e-03 0.0000000000000000e+00 8.6320857319661624e-03 -8.7831869441154897e-02 0.0000000000000000e+00 0.0000000000000000e+00 0.0000000000000000e+00 0.0000000000000000e+00  -8.1423856182559554e-02 9.1011893203891327e-03 0.0000000000000000e+00 9.1011893203891327e-03 -8.7320994284352624e-02 0.0000000000000000e+00 0.0000000000000000e+00 0.0000000000000000e+00 0.0000000000000000e+00  -8.0615875078295651e-02 9.4263788500745325e-03 0.0000000000000000e+00 9.4263788500745325e-03 -8.6813505443383232e-02 0.0000000000000000e+00 0.0000000000000000e+00 0.0000000000000000e+00 0.0000000000000000e+00  -7.9681534301003026e-02 9.5643001281971000e-03 0.0000000000000000e+00 9.5643001281971000e-03 -8.6285975428025935e-02 0.0000000000000000e+00 0.0000000000000000e+00 0.0000000000000000e+00 0.0000000000000000e+00  -7.8593995360189711e-02 9.4692872486727923e-03 0.0000000000000000e+00 9.4692872486727923e-03 -8.5722491983846252e-02 0.0000000000000000e+00 0.0000000000000000e+00 0.0000000000000000e+00 0.0000000000000000e+00  -7.7300426529213248e-02 9.0824798718357781e-03 0.0000000000000000e+00 9.0824798718357781e-03 -8.5119686566756531e-02 0.0000000000000000e+00 0.0000000000000000e+00 0.0000000000000000e+00 0.0000000000000000e+00  -7.5716606532492126e-02 8.3171289814266622e-03 0.0000000000000000e+00 8.3171289814266622e-03 -8.4485475580289696e-02 0.0000000000000000e+00 0.0000000000000000e+00 0.0000000000000000e+00 0.0000000000000000e+00  -7.3725154527194275e-02 7.0418589633277984e-03 0.0000000000000000e+00 7.0418589633277984e-03 -8.3829907898562525e-02 0.0000000000000000e+00 0.0000000000000000e+00 0.0000000000000000e+00 0.0000000000000000e+00  -7.1176914139383388e-02 5.0636977146054640e-03 0.0000000000000000e+00 5.0636977146054640e-03 -8.3147329992036015e-02 0.0000000000000000e+00 0.0000000000000000e+00 0.0000000000000000e+00 0.0000000000000000e+00  -6.7894170678340304e-02 2.1088557546826065e-03 0.0000000000000000e+00 2.1088557546826065e-03 -8.2389557820074719e-02 0.0000000000000000e+00 0.0000000000000000e+00 0.0000000000000000e+00 0.0000000000000000e+00  -6.3681002139801421e-02 -2.1960809362936077e-03 0.0000000000000000e+00 -2.1960809362936077e-03 -8.1421643637408198e-02 0.0000000000000000e+00 0.0000000000000000e+00 0.0000000000000000e+00 0.0000000000000000e+00  -5.8329298972572399e-02 -8.3523006073487217e-03 0.0000000000000000e+00 -8.3523006073487217e-03 -7.9970439577312272e-02 0.0000000000000000e+00 0.0000000000000000e+00 0.0000000000000000e+00 0.0000000000000000e+00  -5.1669268022177764e-02 -1.7021952731860517e-02 0.0000000000000000e+00 -1.7021952731860517e-02 -7.7499776708670975e-02 0.0000000000000000e+00 0.0000000000000000e+00 0.0000000000000000e+00 0.0000000000000000e+00  -4.3698339681779122e-02 -2.9010223482035791e-02 0.0000000000000000e+00 -2.9010223482035791e-02 -7.3022578631616278e-02 0.0000000000000000e+00 0.0000000000000000e+00 0.0000000000000000e+00 0.0000000000000000e+00  -3.3950531960238430e-02 -4.5268055521617438e-02 0.0000000000000000e+00 -4.5268055521617438e-02 -6.5613781381019351e-02 0.0000000000000000e+00 0.0000000000000000e+00 0.0000000000000000e+00 0.0000000000000000e+00  -2.5841024631622460e-02 -6.7887294671853129e-02 0.0000000000000000e+00 -6.7887294671853129e-02 -4.9415637796310953e-02 0.0000000000000000e+00 0.0000000000000000e+00 0.0000000000000000e+00 0.0000000000000000e+00  -1.1399381476716852e-02 -9.0900250146632153e-02 0.0000000000000000e+00 -9.0900250146632153e-02 -3.3283063241360440e-02 0.0000000000000000e+00 0.0000000000000000e+00 0.0000000000000000e+00 0.0000000000000000e+00  -2.2656895602252161e-02 -1.4402856418852161e-01 0.0000000000000000e+00 -1.4402856418852161e-01 1.9616274400334751e-02 0.0000000000000000e+00 0.0000000000000000e+00 0.0000000000000000e+00 0.0000000000000000e+00  -3.7105526139823125e-02 -1.1871594684458912e-01 0.0000000000000000e+00 -1.1871594684458912e-01 8.7307466744288992e-03 0.0000000000000000e+00 0.0000000000000000e+00 0.0000000000000000e+00 0.0000000000000000e+00  -2.0698053859315191e-01 -1.3924669074393287e-01 0.0000000000000000e+00 -1.3924669074393287e-01 -5.7384620004945763e-02 0.0000000000000000e+00 0.0000000000000000e+00 0.0000000000000000e+00 0.0000000000000000e+00  -3.1044417298550869e-01 -1.6009477073802494e-01 0.0000000000000000e+00 -1.6009477073802494e-01 -2.5313262487889182e-01 0.0000000000000000e+00 0.0000000000000000e+00 0.0000000000000000e+00 0.0000000000000000e+00  -2.3236600764073756e-01 -1.0433107070637371e-01 0.0000000000000000e+00 -1.0433107070637371e-01 5.8073837463516402e-02 0.0000000000000000e+00 0.0000000000000000e+00 0.0000000000000000e+00 0.0000000000000000e+00  -2.7090367239412949e-01 2.6771999320896789e-01 0.0000000000000000e+00 2.6771999320896789e-01 -1.7534461763758655e-01 0.0000000000000000e+00 0.0000000000000000e+00 0.0000000000000000e+00 0.0000000000000000e+00  -2.2929530210563789e-01 9.5118484499020592e-02 0.0000000000000000e+00 9.5118484499020592e-02 -1.2549222313034733e-01 0.0000000000000000e+00 0.0000000000000000e+00 0.0000000000000000e+00 0.0000000000000000e+00  -6.6245329358128047e-03 1.1246887712727836e-01 0.0000000000000000e+00 1.1246887712727836e-01 -2.5527491968749313e-02 0.0000000000000000e+00 0.0000000000000000e+00 0.0000000000000000e+00 0.0000000000000000e+00  -2.4304209374213029e-02 1.3245768277269798e-01 0.0000000000000000e+00 1.3245768277269798e-01 6.3319661475113483e-03 0.0000000000000000e+00 0.0000000000000000e+00 0.0000000000000000e+00 0.0000000000000000e+00  -1.0837652596949500e-02 8.3356026328917018e-02 0.0000000000000000e+00 8.3356026328917018e-02 -4.2059304161889161e-02 0.0000000000000000e+00 0.0000000000000000e+00 0.0000000000000000e+00 0.0000000000000000e+00  -2.6810406787237687e-02 6.0523674865568547e-02 0.0000000000000000e+00 6.0523674865568547e-02 -5.6667035788187076e-02 0.0000000000000000e+00 0.0000000000000000e+00 0.0000000000000000e+00 0.0000000000000000e+00  -3.5406924427861627e-02 3.8494920050995911e-02 0.0000000000000000e+00 3.8494920050995911e-02 -7.1245736406228943e-02 0.0000000000000000e+00 0.0000000000000000e+00 0.0000000000000000e+00 0.0000000000000000e+00  -4.5528493031816053e-02 2.3156141859851133e-02 0.0000000000000000e+00 2.3156141859851133e-02 -7.7215916576431814e-02 0.0000000000000000e+00 0.0000000000000000e+00 0.0000000000000000e+00 0.0000000000000000e+00  -5.3562552471331862e-02 1.2093336358302349e-02 0.0000000000000000e+00 1.2093336358302349e-02 -8.0665586351575655e-02 0.0000000000000000e+00 0.0000000000000000e+00 0.0000000000000000e+00 0.0000000000000000e+00  -6.0154077016666627e-02 4.3029712470674143e-03 0.0000000000000000e+00 4.3029712470674143e-03 -8.2387885403184286e-02 0.0000000000000000e+00 0.0000000000000000e+00 0.0000000000000000e+00 0.0000000000000000e+00  -6.5350318500040305e-02 -1.0781346217157985e-03 0.0000000000000000e+00 -1.0781346217157985e-03 -8.3319967724967525e-02 0.0000000000000000e+00 0.0000000000000000e+00 0.0000000000000000e+00 0.0000000000000000e+00  -6.9373152486233242e-02 -4.7231864009582370e-03 0.0000000000000000e+00 -4.7231864009582370e-03 -8.3928736532174614e-02 0.0000000000000000e+00 0.0000000000000000e+00 0.0000000000000000e+00 0.0000000000000000e+00  -7.2459533533657514e-02 -7.1309563047190451e-03 0.0000000000000000e+00 -7.1309563047190451e-03 -8.4436914510423955e-02 0.0000000000000000e+00 0.0000000000000000e+00 0.0000000000000000e+00 0.0000000000000000e+00  -7.4823163917451363e-02 -8.6631629642444224e-03 0.0000000000000000e+00 -8.6631629642444224e-03 -8.4940841320343269e-02 0.0000000000000000e+00 0.0000000000000000e+00 0.0000000000000000e+00 0.0000000000000000e+00  -7.6650373847756567e-02 -9.5789929539628269e-03 0.0000000000000000e+00 -9.5789929539628269e-03 -8.5462055115376981e-02 0.0000000000000000e+00 0.0000000000000000e+00 0.0000000000000000e+00 0.0000000000000000e+00  -7.8093281473997217e-02 -1.0056618461582657e-02 0.0000000000000000e+00 -1.0056618461582657e-02 -8.5988558388775768e-02 0.0000000000000000e+00 0.0000000000000000e+00 0.0000000000000000e+00 0.0000000000000000e+00  -7.9268758958319405e-02 -1.0213959277773870e-02 0.0000000000000000e+00 -1.0213959277773870e-02 -8.6499302952243770e-02 0.0000000000000000e+00 0.0000000000000000e+00 0.0000000000000000e+00 0.0000000000000000e+00  -8.0258691351793185e-02 -1.0126252333120582e-02 0.0000000000000000e+00 -1.0126252333120582e-02 -8.6979925095632987e-02 0.0000000000000000e+00 0.0000000000000000e+00 0.0000000000000000e+00 0.0000000000000000e+00  -8.1112816603305105e-02 -9.8428867830929068e-03 0.0000000000000000e+00 -9.8428867830929068e-03 -8.7430294669683509e-02 0.0000000000000000e+00 0.0000000000000000e+00 0.0000000000000000e+00 0.0000000000000000e+00  -8.1854785081812403e-02 -9.4019297102300083e-03 0.0000000000000000e+00 -9.4019297102300083e-03 -8.7864608788483567e-02 0.0000000000000000e+00 0.0000000000000000e+00 0.0000000000000000e+00 0.0000000000000000e+00  -8.2491037862201813e-02 -8.8407289310202287e-03 0.0000000000000000e+00 -8.8407289310202287e-03 -8.8305569717265497e-02 0.0000000000000000e+00 0.0000000000000000e+00 0.0000000000000000e+00 0.0000000000000000e+00  -8.3020982648959046e-02 -8.2010511721809475e-03 0.0000000000000000e+00 -8.2010511721809475e-03 -8.8775299495266677e-02 0.0000000000000000e+00 0.0000000000000000e+00 0.0000000000000000e+00 0.0000000000000000e+00  -8.3446123883999412e-02 -7.5285054157818460e-03 0.0000000000000000e+00 -7.5285054157818460e-03 -8.9286426445979977e-02 0.0000000000000000e+00 0.0000000000000000e+00 0.0000000000000000e+00 0.0000000000000000e+00  -8.3775926612445525e-02 -6.8675930257932416e-03 0.0000000000000000e+00 -6.8675930257932416e-03 -8.9836481942134463e-02 0.0000000000000000e+00 0.0000000000000000e+00 0.0000000000000000e+00 0.0000000000000000e+00  -8.4029167114443873e-02 -6.2549816565061808e-03 0.0000000000000000e+00 -6.2549816565061808e-03 -9.0407426114936226e-02 0.0000000000000000e+00 0.0000000000000000e+00 0.0000000000000000e+00 0.0000000000000000e+00  -8.4230996592604718e-02 -5.7139769303198515e-03 0.0000000000000000e+00 -5.7139769303198515e-03 -9.0970205697248646e-02 0.0000000000000000e+00 0.0000000000000000e+00 0.0000000000000000e+00 0.0000000000000000e+00  -8.4407347866311808e-02 -5.2525026654540886e-03 0.0000000000000000e+00 -5.2525026654540886e-03 -9.1492437261549833e-02 0.0000000000000000e+00 0.0000000000000000e+00 0.0000000000000000e+00 0.0000000000000000e+00  -8.4579102318867061e-02 -4.8654378398046132e-03 0.0000000000000000e+00 -4.8654378398046132e-03 -9.1946279248142138e-02 0.0000000000000000e+00 0.0000000000000000e+00 0.0000000000000000e+00 0.0000000000000000e+00  -8.4758312321003892e-02 -4.5404637836066507e-03 0.0000000000000000e+00 -4.5404637836066507e-03 -9.2313673703019933e-02 0.0000000000000000e+00 0.0000000000000000e+00 0.0000000000000000e+00 0.0000000000000000e+00  -8.4947701263158995e-02 -4.2653272699400818e-03 0.0000000000000000e+00 -4.2653272699400818e-03 -9.2587396186676274e-02 0.0000000000000000e+00 0.0000000000000000e+00 0.0000000000000000e+00 0.0000000000000000e+00  -8.5143420971567796e-02 -4.0342326220555794e-03 0.0000000000000000e+00 -4.0342326220555794e-03 -9.2767943077865456e-02 0.0000000000000000e+00 0.0000000000000000e+00 0.0000000000000000e+00 0.0000000000000000e+00  -8.5339465363814801e-02 -3.8512156810480260e-03 0.0000000000000000e+00 -3.8512156810480260e-03 -9.2858005959395071e-02 0.0000000000000000e+00 0.0000000000000000e+00 0.0000000000000000e+00 0.0000000000000000e+00  -8.5531331079810369e-02 -3.7314120506038348e-03 0.0000000000000000e+00 -3.7314120506038348e-03 -9.2857613117483792e-02 0.0000000000000000e+00 0.0000000000000000e+00 0.0000000000000000e+00 0.0000000000000000e+00  -8.5720255454046573e-02 -3.6975912115613475e-03 0.0000000000000000e+00 -3.6975912115613475e-03 -9.2757508402992447e-02 0.0000000000000000e+00 0.0000000000000000e+00 0.0000000000000000e+00 0.0000000000000000e+00  -8.5898950134315463e-02 -3.7804085002240270e-03 0.0000000000000000e+00 -3.7804085002240270e-03 -9.2554134162923615e-02 0.0000000000000000e+00 0.0000000000000000e+00 0.0000000000000000e+00 0.0000000000000000e+00  -8.6090737425388031e-02 -4.0273507699381695e-03 0.0000000000000000e+00 -4.0273507699381695e-03 -9.2194310646794869e-02 0.0000000000000000e+00 0.0000000000000000e+00 0.0000000000000000e+00 0.0000000000000000e+00  -8.6243997529302577e-02 -4.4131503551768647e-03 0.0000000000000000e+00 -4.4131503551768647e-03 -9.1719847466116985e-02 0.0000000000000000e+00 0.0000000000000000e+00 0.0000000000000000e+00 0.0000000000000000e+00  -8.6293843438384046e-02 -5.1798453043064548e-03 0.0000000000000000e+00 -5.1798453043064548e-03 -9.1065498541310796e-02 0.0000000000000000e+00 0.0000000000000000e+00 0.0000000000000000e+00 0.0000000000000000e+00  -8.7291044473368037e-02 -5.7550218895527829e-03 0.0000000000000000e+00 -5.7550218895527829e-03 -8.9061724160576311e-02 0.0000000000000000e+00 0.0000000000000000e+00 0.0000000000000000e+00 0.0000000000000000e+00  -8.3177770350656141e-02 -5.0148633139332419e-03 0.0000000000000000e+00 -5.0148633139332419e-03 -9.2604884311658309e-02 0.0000000000000000e+00 0.0000000000000000e+00 0.0000000000000000e+00 0.0000000000000000e+00  -8.0027745315733867e-02 -1.2282261234377213e-02 0.0000000000000000e+00 -1.2282261234377213e-02 -8.8066532658114538e-02 0.0000000000000000e+00 0.0000000000000000e+00 0.0000000000000000e+00 0.0000000000000000e+00  3.3617766890230660e-02 -8.7821473721229927e-03 0.0000000000000000e+00 -8.7821473721229927e-03 -5.2596453640959974e-02 0.0000000000000000e+00 0.0000000000000000e+00 0.0000000000000000e+00 0.0000000000000000e+00  -5.5815166132712013e-01 6.6000068759606706e-02 0.0000000000000000e+00 6.6000068759606706e-02 -2.1630481620201558e-01 0.0000000000000000e+00 0.0000000000000000e+00 0.0000000000000000e+00 0.0000000000000000e+00  1.6570628612944290e-02 -6.9259536615610962e-02 0.0000000000000000e+00 -6.9259536615610962e-02 -9.4965821723078742e-02 0.0000000000000000e+00 0.0000000000000000e+00 0.0000000000000000e+00 0.0000000000000000e+00  4.8702599284088655e-03 7.5704324861610604e-03 0.0000000000000000e+00 7.5704324861610604e-03 8.5664836194360963e-04 0.0000000000000000e+00 0.0000000000000000e+00 0.0000000000000000e+00 0.0000000000000000e+00  8.7326531146192116e-03 -1.2766209535755535e-05 0.0000000000000000e+00 -1.2766209535755535e-05 7.8907751748089755e-03 0.0000000000000000e+00 0.0000000000000000e+00 0.0000000000000000e+00 0.0000000000000000e+00  7.8283900487176594e-03 -1.0996209081048522e-05 0.0000000000000000e+00 -1.0996209081048522e-05 7.7619937431982772e-03 0.0000000000000000e+00 0.0000000000000000e+00 0.0000000000000000e+00 0.0000000000000000e+00  7.8399471675597038e-03 -3.5793623717040787e-06 0.0000000000000000e+00 -3.5793623717040787e-06 7.8197462273777371e-03 0.0000000000000000e+00 0.0000000000000000e+00 0.0000000000000000e+00 0.0000000000000000e+00  7.8326757914330778e-03 -2.9888449233261256e-05 0.0000000000000000e+00 -2.9888449233261256e-05 7.8277096275487200e-03 0.0000000000000000e+00 0.0000000000000000e+00 0.0000000000000000e+00 0.0000000000000000e+00  7.8302696005337208e-03 -5.2608635999952351e-05 0.0000000000000000e+00 -5.2608635999952351e-05 7.8306140585409842e-03 0.0000000000000000e+00 0.0000000000000000e+00 0.0000000000000000e+00 0.0000000000000000e+00  7.8396703464054737e-03 5.9507599267731865e-05 0.0000000000000000e+00 5.9507599267731865e-05 7.8401515852026850e-03 0.0000000000000000e+00 0.0000000000000000e+00 0.0000000000000000e+00 0.0000000000000000e+00  7.8397492967235780e-03 3.2042064514213784e-05 0.0000000000000000e+00 3.2042064514213784e-05 7.8340634042101884e-03 0.0000000000000000e+00 0.0000000000000000e+00 0.0000000000000000e+00 0.0000000000000000e+00  7.8577857398576222e-03 8.0840957736746821e-06 0.0000000000000000e+00 8.0840957736746821e-06 7.8311884485081154e-03 0.0000000000000000e+00 0.0000000000000000e+00 0.0000000000000000e+00 0.0000000000000000e+00  7.8270258506864185e-03 -1.0281518555149090e-04 0.0000000000000000e+00 -1.0281518555149090e-04 7.7574944909144994e-03 0.0000000000000000e+00 0.0000000000000000e+00 0.0000000000000000e+00 0.0000000000000000e+00  8.3400070921246256e-03 1.1071900270746308e-03 0.0000000000000000e+00 1.1071900270746308e-03 6.2623341127341237e-03 0.0000000000000000e+00 0.0000000000000000e+00 0.0000000000000000e+00 0.0000000000000000e+00  2.6737092756724923e-02 -1.4949769479341532e-02 0.0000000000000000e+00 -1.4949769479341532e-02 5.3579786027722854e-03 0.0000000000000000e+00 0.0000000000000000e+00 0.0000000000000000e+00 0.0000000000000000e+00  -2.7614450923354761e-01 4.4998553207341703e-02 0.0000000000000000e+00 4.4998553207341703e-02 -2.6314077168176270e-01 0.0000000000000000e+00 0.0000000000000000e+00 0.0000000000000000e+00 0.0000000000000000e+00  -1.4150037954332498e-01 1.2565301474928776e-02 0.0000000000000000e+00 1.2565301474928776e-02 -4.2612480353305324e-03 0.0000000000000000e+00 0.0000000000000000e+00 0.0000000000000000e+00 0.0000000000000000e+00  -1.8635930617645381e-02 -1.5111338495955511e-02 0.0000000000000000e+00 -1.5111338495955511e-02 -1.2565538972830215e-01 0.0000000000000000e+00 0.0000000000000000e+00 0.0000000000000000e+00 0.0000000000000000e+00  -9.0160543361158405e-02 6.1969733524053746e-03 0.0000000000000000e+00 6.1969733524053746e-03 -8.1430771393487103e-02 0.0000000000000000e+00 0.0000000000000000e+00 0.0000000000000000e+00 0.0000000000000000e+00  -8.7590775546242186e-02 6.8441607112432667e-03 0.0000000000000000e+00 6.8441607112432667e-03 -8.8558331900300519e-02 0.0000000000000000e+00 0.0000000000000000e+00 0.0000000000000000e+00 0.0000000000000000e+00  -8.7333787158691764e-02 5.3570192722090368e-03 0.0000000000000000e+00 5.3570192722090368e-03 -8.9796675864434086e-02 0.0000000000000000e+00 0.0000000000000000e+00 0.0000000000000000e+00 0.0000000000000000e+00  -8.6934332708435411e-02 4.6362634626968460e-03 0.0000000000000000e+00 4.6362634626968460e-03 -9.0566416960948595e-02 0.0000000000000000e+00 0.0000000000000000e+00 0.0000000000000000e+00 0.0000000000000000e+00  -8.6249443172271789e-02 4.0225802499662061e-03 0.0000000000000000e+00 4.0225802499662061e-03 -9.1575586494564903e-02 0.0000000000000000e+00 0.0000000000000000e+00 0.0000000000000000e+00 0.0000000000000000e+00  -8.5771860075012057e-02 3.6107110904316031e-03 0.0000000000000000e+00 3.6107110904316031e-03 -9.2271894883648023e-02 0.0000000000000000e+00 0.0000000000000000e+00 0.0000000000000000e+00 0.0000000000000000e+00  -8.5381341916251172e-02 3.4070486474965921e-03 0.0000000000000000e+00 3.4070486474965921e-03 -9.2767591305120620e-02 0.0000000000000000e+00 0.0000000000000000e+00 0.0000000000000000e+00 0.0000000000000000e+00  -8.5057313539234000e-02 3.3484139955308983e-03 0.0000000000000000e+00 3.3484139955308983e-03 -9.3087233887355694e-02 0.0000000000000000e+00 0.0000000000000000e+00 0.0000000000000000e+00 0.0000000000000000e+00  -8.4774988512761246e-02 3.4013242542061577e-03 0.0000000000000000e+00 3.4013242542061577e-03 -9.3252736143501838e-02 0.0000000000000000e+00 0.0000000000000000e+00 0.0000000000000000e+00 0.0000000000000000e+00  -8.4510758742168485e-02 3.5350609018265098e-03 0.0000000000000000e+00 3.5350609018265098e-03 -9.3289322563593929e-02 0.0000000000000000e+00 0.0000000000000000e+00 0.0000000000000000e+00 0.0000000000000000e+00  -8.4251143060495581e-02 3.7288439420644086e-03 0.0000000000000000e+00 3.7288439420644086e-03 -9.3212112989364354e-02 0.0000000000000000e+00 0.0000000000000000e+00 0.0000000000000000e+00 0.0000000000000000e+00  -8.3988075052905301e-02 3.9702727145827519e-03 0.0000000000000000e+00 3.9702727145827519e-03 -9.3031474070291359e-02 0.0000000000000000e+00 0.0000000000000000e+00 0.0000000000000000e+00 0.0000000000000000e+00  -8.3717496370236302e-02 4.2545136841276466e-03 0.0000000000000000e+00 4.2545136841276466e-03 -9.2754005453218033e-02 0.0000000000000000e+00 0.0000000000000000e+00 0.0000000000000000e+00 0.0000000000000000e+00  -8.3435677053757124e-02 4.5829760474260118e-03 0.0000000000000000e+00 4.5829760474260118e-03 -9.2386314939790257e-02 0.0000000000000000e+00 0.0000000000000000e+00 0.0000000000000000e+00 0.0000000000000000e+00  -8.3136008440831993e-02 4.9602893838163768e-03 0.0000000000000000e+00 4.9602893838163768e-03 -9.1938225707342960e-02 0.0000000000000000e+00 0.0000000000000000e+00 0.0000000000000000e+00 0.0000000000000000e+00  -8.2807069570464117e-02 5.3900763009272334e-03 0.0000000000000000e+00 5.3900763009272334e-03 -9.1424472792639225e-02 0.0000000000000000e+00 0.0000000000000000e+00 0.0000000000000000e+00 0.0000000000000000e+00  -8.2432696923250157e-02 5.8703205265049508e-03 0.0000000000000000e+00 5.8703205265049508e-03 -9.0863953437516951e-02 0.0000000000000000e+00 0.0000000000000000e+00 0.0000000000000000e+00 0.0000000000000000e+00  -8.1994042788106597e-02 6.3896559267421710e-03 0.0000000000000000e+00 6.3896559267421710e-03 -9.0276534587207080e-02 0.0000000000000000e+00 0.0000000000000000e+00 0.0000000000000000e+00 0.0000000000000000e+00  -8.1472789158158143e-02 6.9256623977922201e-03 0.0000000000000000e+00 6.9256623977922201e-03 -8.9678391973112476e-02 0.0000000000000000e+00 0.0000000000000000e+00 0.0000000000000000e+00 0.0000000000000000e+00  -8.0854161773146305e-02 7.4455553272860207e-03 0.0000000000000000e+00 7.4455553272860207e-03 -8.9077481211756848e-02 0.0000000000000000e+00 0.0000000000000000e+00 0.0000000000000000e+00 0.0000000000000000e+00  -8.0128334576318946e-02 7.9086953133243078e-03 0.0000000000000000e+00 7.9086953133243078e-03 -8.8470779123515558e-02 0.0000000000000000e+00 0.0000000000000000e+00 0.0000000000000000e+00 0.0000000000000000e+00  -7.9289297683752744e-02 8.2695150561206375e-03 0.0000000000000000e+00 8.2695150561206375e-03 -8.7844310797709671e-02 0.0000000000000000e+00 0.0000000000000000e+00 0.0000000000000000e+00 0.0000000000000000e+00  -7.8331100953950433e-02 8.4790848501838760e-03 0.0000000000000000e+00 8.4790848501838760e-03 -8.7175909944731622e-02 0.0000000000000000e+00 0.0000000000000000e+00 0.0000000000000000e+00 0.0000000000000000e+00  -7.7242276807228741e-02 8.4837591569390889e-03 0.0000000000000000e+00 8.4837591569390889e-03 -8.6439518652497382e-02 0.0000000000000000e+00 0.0000000000000000e+00 0.0000000000000000e+00 0.0000000000000000e+00  -7.5999877165714325e-02 8.2200715663810382e-03 0.0000000000000000e+00 8.2200715663810382e-03 -8.5609001057058265e-02 0.0000000000000000e+00 0.0000000000000000e+00 0.0000000000000000e+00 0.0000000000000000e+00  -7.4564727970299352e-02 7.6059891290046070e-03 0.0000000000000000e+00 7.6059891290046070e-03 -8.4659166938106017e-02 0.0000000000000000e+00 0.0000000000000000e+00 0.0000000000000000e+00 0.0000000000000000e+00  -7.2879255281006985e-02 6.5293920491069843e-03 0.0000000000000000e+00 6.5293920491069843e-03 -8.3561930482285857e-02 0.0000000000000000e+00 0.0000000000000000e+00 0.0000000000000000e+00 0.0000000000000000e+00  -7.0868814500706909e-02 4.8350416266008502e-03 0.0000000000000000e+00 4.8350416266008502e-03 -8.2275970539126872e-02 0.0000000000000000e+00 0.0000000000000000e+00 0.0000000000000000e+00 0.0000000000000000e+00  -6.8447245274316545e-02 2.3109203891630656e-03 0.0000000000000000e+00 2.3109203891630656e-03 -8.0728491900850560e-02 0.0000000000000000e+00 0.0000000000000000e+00 0.0000000000000000e+00 0.0000000000000000e+00  -6.5528384904604789e-02 -1.3249329602402552e-03 0.0000000000000000e+00 -1.3249329602402552e-03 -7.8786606561710867e-02 0.0000000000000000e+00 0.0000000000000000e+00 0.0000000000000000e+00 0.0000000000000000e+00  -6.2045603030327703e-02 -6.4371255544849685e-03 0.0000000000000000e+00 -6.4371255544849685e-03 -7.6215949066366764e-02 0.0000000000000000e+00 0.0000000000000000e+00 0.0000000000000000e+00 0.0000000000000000e+00  -5.7987276514467827e-02 -1.3481609441424824e-02 0.0000000000000000e+00 -1.3481609441424824e-02 -7.2617405472042595e-02 0.0000000000000000e+00 0.0000000000000000e+00 0.0000000000000000e+00 0.0000000000000000e+00  -5.3470078287918402e-02 -2.3003647072405511e-02 0.0000000000000000e+00 -2.3003647072405511e-02 -6.7327450434395447e-02 0.0000000000000000e+00 0.0000000000000000e+00 0.0000000000000000e+00 0.0000000000000000e+00  -4.8746675884901253e-02 -3.5595121936061784e-02 0.0000000000000000e+00 -3.5595121936061784e-02 -5.9381212026581011e-02 0.0000000000000000e+00 0.0000000000000000e+00 0.0000000000000000e+00 0.0000000000000000e+00  -4.4856657677384379e-02 -5.1975218341804436e-02 0.0000000000000000e+00 -5.1975218341804436e-02 -4.6842905324101874e-02 0.0000000000000000e+00 0.0000000000000000e+00 0.0000000000000000e+00 0.0000000000000000e+00  -4.2045197531829767e-02 -7.1666988109930274e-02 0.0000000000000000e+00 -7.1666988109930274e-02 -2.8724586427453704e-02 0.0000000000000000e+00 0.0000000000000000e+00 0.0000000000000000e+00 0.0000000000000000e+00  -4.5821935129773450e-02 -9.8022291300987288e-02 0.0000000000000000e+00 -9.8022291300987288e-02 1.5634310456893337e-03 0.0000000000000000e+00 0.0000000000000000e+00 0.0000000000000000e+00 0.0000000000000000e+00  -5.4527169219710875e-02 -1.1595903080175264e-01 0.0000000000000000e+00 -1.1595903080175264e-01 3.9466282688837138e-02 0.0000000000000000e+00 0.0000000000000000e+00 0.0000000000000000e+00 0.0000000000000000e+00  -8.0678041893647551e-02 -1.6780827971794074e-01 0.0000000000000000e+00 -1.6780827971794074e-01 8.7203883727836703e-02 0.0000000000000000e+00 0.0000000000000000e+00 0.0000000000000000e+00 0.0000000000000000e+00  -1.9143575270161770e-01 -1.2874628934189608e-01 0.0000000000000000e+00 -1.2874628934189608e-01 1.6595921436512351e-01 0.0000000000000000e+00 0.0000000000000000e+00 0.0000000000000000e+00 0.0000000000000000e+00  -2.5927965325858782e-01 -1.6313957604816604e-01 0.0000000000000000e+00 -1.6313957604816604e-01 2.6570188987727056e-01 0.0000000000000000e+00 0.0000000000000000e+00 0.0000000000000000e+00 0.0000000000000000e+00  -5.5040011149505930e-01 1.3196624868654031e-01 0.0000000000000000e+00 1.3196624868654031e-01 -2.0186029499557376e-01 0.0000000000000000e+00 0.0000000000000000e+00 0.0000000000000000e+00 0.0000000000000000e+00  -3.1886947140455618e-01 -2.5473227349743825e-02 0.0000000000000000e+00 -2.5473227349743825e-02 1.4175674430943938e-01 0.0000000000000000e+00 0.0000000000000000e+00 0.0000000000000000e+00 0.0000000000000000e+00  -1.8045476664763155e-01 1.3456950518290522e-01 0.0000000000000000e+00 1.3456950518290522e-01 1.2628154745872636e-01 0.0000000000000000e+00 0.0000000000000000e+00 0.0000000000000000e+00 0.0000000000000000e+00  -8.9525447817231388e-02 1.6037551799455615e-01 0.0000000000000000e+00 1.6037551799455615e-01 7.5925348177943386e-02 0.0000000000000000e+00 0.0000000000000000e+00 0.0000000000000000e+00 0.0000000000000000e+00  -5.0458925610510304e-02 1.1157438545796000e-01 0.0000000000000000e+00 1.1157438545796000e-01 2.9161423943004087e-02 0.0000000000000000e+00 0.0000000000000000e+00 0.0000000000000000e+00 0.0000000000000000e+00  -4.4106182329920703e-02 9.0867115295664935e-02 0.0000000000000000e+00 9.0867115295664935e-02 -7.9123878876420153e-03 0.0000000000000000e+00 0.0000000000000000e+00 0.0000000000000000e+00 0.0000000000000000e+00  -4.1082399648853241e-02 6.5020738508387549e-02 0.0000000000000000e+00 6.5020738508387549e-02 -3.6342082696246926e-02 0.0000000000000000e+00 0.0000000000000000e+00 0.0000000000000000e+00 0.0000000000000000e+00  -4.4598719608430051e-02 4.5759647113937860e-02 0.0000000000000000e+00 4.5759647113937860e-02 -5.3116714064641857e-02 0.0000000000000000e+00 0.0000000000000000e+00 0.0000000000000000e+00 0.0000000000000000e+00  -4.9007839774619665e-02 3.0032526711432556e-02 0.0000000000000000e+00 3.0032526711432556e-02 -6.4406740666538592e-02 0.0000000000000000e+00 0.0000000000000000e+00 0.0000000000000000e+00 0.0000000000000000e+00  -5.4073333183523899e-02 1.8193573214159525e-02 0.0000000000000000e+00 1.8193573214159525e-02 -7.1326655498949787e-02 0.0000000000000000e+00 0.0000000000000000e+00 0.0000000000000000e+00 0.0000000000000000e+00  -5.8771731188500674e-02 9.4234949365622281e-03 0.0000000000000000e+00 9.4234949365622281e-03 -7.5817348042988023e-02 0.0000000000000000e+00 0.0000000000000000e+00 0.0000000000000000e+00 0.0000000000000000e+00  -6.2901513825808178e-02 3.0804755038176699e-03 0.0000000000000000e+00 3.0804755038176699e-03 -7.8806171575695708e-02 0.0000000000000000e+00 0.0000000000000000e+00 0.0000000000000000e+00 0.0000000000000000e+00  -6.6383529172160616e-02 -1.4092172188246955e-03 0.0000000000000000e+00 -1.4092172188246955e-03 -8.0917587998054347e-02 0.0000000000000000e+00 0.0000000000000000e+00 0.0000000000000000e+00 0.0000000000000000e+00  -6.9260265791770956e-02 -4.5102750031798412e-03 0.0000000000000000e+00 -4.5102750031798412e-03 -8.2512029940286127e-02 0.0000000000000000e+00 0.0000000000000000e+00 0.0000000000000000e+00 0.0000000000000000e+00  -7.1619388569118952e-02 -6.5855608421157190e-03 0.0000000000000000e+00 -6.5855608421157190e-03 -8.3792473934402492e-02 0.0000000000000000e+00 0.0000000000000000e+00 0.0000000000000000e+00 0.0000000000000000e+00  -7.3560675116994628e-02 -7.9094144909765043e-03 0.0000000000000000e+00 -7.9094144909765043e-03 -8.4867742658541259e-02 0.0000000000000000e+00 0.0000000000000000e+00 0.0000000000000000e+00 0.0000000000000000e+00  -7.5178218988257897e-02 -8.6837908622730640e-03 0.0000000000000000e+00 -8.6837908622730640e-03 -8.5793301646536271e-02 0.0000000000000000e+00 0.0000000000000000e+00 0.0000000000000000e+00 0.0000000000000000e+00  -7.6550716400547100e-02 -9.0534052022625613e-03 0.0000000000000000e+00 -9.0534052022625613e-03 -8.6598511691692651e-02 0.0000000000000000e+00 0.0000000000000000e+00 0.0000000000000000e+00 0.0000000000000000e+00  -7.7737298331925636e-02 -9.1205007383902414e-03 0.0000000000000000e+00 -9.1205007383902414e-03 -8.7303512451568019e-02 0.0000000000000000e+00 0.0000000000000000e+00 0.0000000000000000e+00 0.0000000000000000e+00  -7.8777233987053483e-02 -8.9583947590237412e-03 0.0000000000000000e+00 -8.9583947590237412e-03 -8.7928370179757326e-02 0.0000000000000000e+00 0.0000000000000000e+00 0.0000000000000000e+00 0.0000000000000000e+00  -7.9692813706354795e-02 -8.6231552414090251e-03 0.0000000000000000e+00 -8.6231552414090251e-03 -8.8495980405063943e-02 0.0000000000000000e+00 0.0000000000000000e+00 0.0000000000000000e+00 0.0000000000000000e+00  -8.0494551672770739e-02 -8.1623013154574105e-03 0.0000000000000000e+00 -8.1623013154574105e-03 -8.9030353114376320e-02 0.0000000000000000e+00 0.0000000000000000e+00 0.0000000000000000e+00 0.0000000000000000e+00  -8.1187420654739550e-02 -7.6197636071830980e-03 0.0000000000000000e+00 -7.6197636071830980e-03 -8.9552320268284816e-02 0.0000000000000000e+00 0.0000000000000000e+00 0.0000000000000000e+00 0.0000000000000000e+00  -8.1776571601921852e-02 -7.0370558026320975e-03 0.0000000000000000e+00 -7.0370558026320975e-03 -9.0074924675506679e-02 0.0000000000000000e+00 0.0000000000000000e+00 0.0000000000000000e+00 0.0000000000000000e+00  -8.2271146075892726e-02 -6.4515267957368323e-03 0.0000000000000000e+00 -6.4515267957368323e-03 -9.0600473387106237e-02 0.0000000000000000e+00 0.0000000000000000e+00 0.0000000000000000e+00 0.0000000000000000e+00  -8.2685409767205675e-02 -5.8932718939018035e-03 0.0000000000000000e+00 -5.8932718939018035e-03 -9.1120412874692774e-02 0.0000000000000000e+00 0.0000000000000000e+00 0.0000000000000000e+00 0.0000000000000000e+00  -8.3037319255282863e-02 -5.3824922441923452e-03 0.0000000000000000e+00 -5.3824922441923452e-03 -9.1618047444950612e-02 0.0000000000000000e+00 0.0000000000000000e+00 0.0000000000000000e+00 0.0000000000000000e+00  -8.3345467495330908e-02 -4.9287082526726011e-03 0.0000000000000000e+00 -4.9287082526726011e-03 -9.2073059797237289e-02 0.0000000000000000e+00 0.0000000000000000e+00 0.0000000000000000e+00 0.0000000000000000e+00  -8.3625830958784619e-02 -4.5323970041547569e-03 0.0000000000000000e+00 -4.5323970041547569e-03 -9.2466176162692010e-02 0.0000000000000000e+00 0.0000000000000000e+00 0.0000000000000000e+00 0.0000000000000000e+00  -8.3889681569790445e-02 -4.1886604999049155e-03 0.0000000000000000e+00 -4.1886604999049155e-03 -9.2782363013478586e-02 0.0000000000000000e+00 0.0000000000000000e+00 0.0000000000000000e+00 0.0000000000000000e+00  -8.4143500126213897e-02 -3.8918319248199339e-03 0.0000000000000000e+00 -3.8918319248199339e-03 -9.3011574098270419e-02 0.0000000000000000e+00 0.0000000000000000e+00 0.0000000000000000e+00 0.0000000000000000e+00  -8.4390907594449643e-02 -3.6396892861093265e-03 0.0000000000000000e+00 -3.6396892861093265e-03 -9.3147041048429441e-02 0.0000000000000000e+00 0.0000000000000000e+00 0.0000000000000000e+00 0.0000000000000000e+00  -8.4635887484189917e-02 -3.4364698374548456e-03 0.0000000000000000e+00 -3.4364698374548456e-03 -9.3182040035919442e-02 0.0000000000000000e+00 0.0000000000000000e+00 0.0000000000000000e+00 0.0000000000000000e+00  -8.4886500801147360e-02 -3.2941856687269486e-03 0.0000000000000000e+00 -3.2941856687269486e-03 -9.3106078688399971e-02 0.0000000000000000e+00 0.0000000000000000e+00 0.0000000000000000e+00 0.0000000000000000e+00  -8.5156346959728652e-02 -3.2334076011783495e-03 0.0000000000000000e+00 -3.2334076011783495e-03 -9.2903864248642137e-02 0.0000000000000000e+00 0.0000000000000000e+00 0.0000000000000000e+00 0.0000000000000000e+00  -8.5469334975877026e-02 -3.2847739428172686e-03 0.0000000000000000e+00 -3.2847739428172686e-03 -9.2549931008394731e-02 0.0000000000000000e+00 0.0000000000000000e+00 0.0000000000000000e+00 0.0000000000000000e+00  -8.5850760785559060e-02 -3.4816993712167544e-03 0.0000000000000000e+00 -3.4816993712167544e-03 -9.2022108201188932e-02 0.0000000000000000e+00 0.0000000000000000e+00 0.0000000000000000e+00 0.0000000000000000e+00  -8.6321872738760852e-02 -3.8872641375438327e-03 0.0000000000000000e+00 -3.8872641375438327e-03 -9.1295723453131389e-02 0.0000000000000000e+00 0.0000000000000000e+00 0.0000000000000000e+00 0.0000000000000000e+00  -8.7003553614462950e-02 -4.4946027487010633e-03 0.0000000000000000e+00 -4.4946027487010633e-03 -9.0258994361985131e-02 0.0000000000000000e+00 0.0000000000000000e+00 0.0000000000000000e+00 0.0000000000000000e+00  -8.7402588915537469e-02 -5.2089010363407171e-03 0.0000000000000000e+00 -5.2089010363407171e-03 -8.9466751864149416e-02 0.0000000000000000e+00 0.0000000000000000e+00 0.0000000000000000e+00 0.0000000000000000e+00  -8.7668284853236009e-02 -6.6888205970429167e-03 0.0000000000000000e+00 -6.6888205970429167e-03 -8.8207317052072409e-02 0.0000000000000000e+00 0.0000000000000000e+00 0.0000000000000000e+00 0.0000000000000000e+00  -9.0233651414119723e-02 -6.0163018430177710e-03 0.0000000000000000e+00 -6.0163018430177710e-03 -8.1099015721739817e-02 0.0000000000000000e+00 0.0000000000000000e+00 0.0000000000000000e+00 0.0000000000000000e+00  -1.8818855774446152e-02 1.5268186230923266e-02 0.0000000000000000e+00 1.5268186230923266e-02 -1.2543569220636702e-01 0.0000000000000000e+00 0.0000000000000000e+00 0.0000000000000000e+00 0.0000000000000000e+00  -1.4060742824792333e-01 -1.2515114143489556e-02 0.0000000000000000e+00 -1.2515114143489556e-02 -3.7644982951424003e-03 0.0000000000000000e+00 0.0000000000000000e+00 0.0000000000000000e+00 0.0000000000000000e+00  -2.7720123217595705e-01 -4.4800283015698557e-02 0.0000000000000000e+00 -4.4800283015698557e-02 -2.6352204791739708e-01 0.0000000000000000e+00 0.0000000000000000e+00 0.0000000000000000e+00 0.0000000000000000e+00  2.6574301889379839e-02 1.4995990237445805e-02 0.0000000000000000e+00 1.4995990237445805e-02 5.0627094628830274e-03 0.0000000000000000e+00 0.0000000000000000e+00 0.0000000000000000e+00 0.0000000000000000e+00  8.2239465274640700e-03 -1.0948405243276862e-03 0.0000000000000000e+00 -1.0948405243276862e-03 6.1127043615211291e-03 0.0000000000000000e+00 0.0000000000000000e+00 0.0000000000000000e+00 0.0000000000000000e+00  7.8713082302980797e-03 9.8576261174405141e-05 0.0000000000000000e+00 9.8576261174405141e-05 7.7830003233702984e-03 0.0000000000000000e+00 0.0000000000000000e+00 0.0000000000000000e+00 0.0000000000000000e+00  7.8721293527302099e-03 -7.6931577842285291e-06 0.0000000000000000e+00 -7.6931577842285291e-06 7.8465930044936752e-03 0.0000000000000000e+00 0.0000000000000000e+00 0.0000000000000000e+00 0.0000000000000000e+00  7.8544947323191359e-03 -2.8164632046367636e-05 0.0000000000000000e+00 -2.8164632046367636e-05 7.8494598420370942e-03 0.0000000000000000e+00 0.0000000000000000e+00 0.0000000000000000e+00 0.0000000000000000e+00  7.8544422273895600e-03 -5.2402263269031308e-05 0.0000000000000000e+00 -5.2402263269031308e-05 7.8550994680339579e-03 0.0000000000000000e+00 0.0000000000000000e+00 0.0000000000000000e+00 0.0000000000000000e+00  7.8687863712923259e-03 5.9359056080761764e-05 0.0000000000000000e+00 5.9359056080761764e-05 7.8691957378591842e-03 0.0000000000000000e+00 0.0000000000000000e+00 0.0000000000000000e+00 0.0000000000000000e+00  7.8726334678134238e-03 2.7592748118987881e-05 0.0000000000000000e+00 2.7592748118987881e-05 7.8649526781274029e-03 0.0000000000000000e+00 0.0000000000000000e+00 0.0000000000000000e+00 0.0000000000000000e+00  7.8643529103943691e-03 1.2531775152306499e-05 0.0000000000000000e+00 1.2531775152306499e-05 7.8353401814245348e-03 0.0000000000000000e+00 0.0000000000000000e+00 0.0000000000000000e+00 0.0000000000000000e+00  8.1357600305464982e-03 -1.3773526156366729e-04 0.0000000000000000e+00 -1.3773526156366729e-04 7.9220917705642314e-03 0.0000000000000000e+00 0.0000000000000000e+00 0.0000000000000000e+00 0.0000000000000000e+00  6.7253444166211779e-03 -4.9179485035825710e-05 0.0000000000000000e+00 -4.9179485035825710e-05 3.2416893175570920e-03 0.0000000000000000e+00 0.0000000000000000e+00 0.0000000000000000e+00 0.0000000000000000e+00  4.1159494758227021e-02 1.0888872027805791e-02 0.0000000000000000e+00 1.0888872027805791e-02 -1.9426482918492433e-02 0.0000000000000000e+00 0.0000000000000000e+00 0.0000000000000000e+00 0.0000000000000000e+00  -6.2491725068108706e-01 -4.6179179812418175e-02 0.0000000000000000e+00 -4.6179179812418175e-02 -3.7093862330804012e-01 0.0000000000000000e+00 0.0000000000000000e+00 0.0000000000000000e+00 0.0000000000000000e+00  5.9367958160761153e-02 5.6808863467074124e-02 0.0000000000000000e+00 5.6808863467074124e-02 3.5325309484760217e-02 0.0000000000000000e+00 0.0000000000000000e+00 0.0000000000000000e+00 0.0000000000000000e+00  -5.1373926080934086e-02 5.5264169481002070e-03 0.0000000000000000e+00 5.5264169481002070e-03 -1.1453420985662839e-01 0.0000000000000000e+00 0.0000000000000000e+00 0.0000000000000000e+00 0.0000000000000000e+00  -8.9333375528916015e-02 5.2007991355883017e-03 0.0000000000000000e+00 5.2007991355883017e-03 -8.8626797181623501e-02 0.0000000000000000e+00 0.0000000000000000e+00 0.0000000000000000e+00 0.0000000000000000e+00  -9.0897700136922818e-02 5.2742544492306873e-03 0.0000000000000000e+00 5.2742544492306873e-03 -8.6953164167844016e-02 0.0000000000000000e+00 0.0000000000000000e+00 0.0000000000000000e+00 0.0000000000000000e+00  -8.8882112535902363e-02 4.2164066563047057e-03 0.0000000000000000e+00 4.2164066563047057e-03 -8.8688570523249396e-02 0.0000000000000000e+00 0.0000000000000000e+00 0.0000000000000000e+00 0.0000000000000000e+00  -8.7445875000189993e-02 3.4443108920677000e-03 0.0000000000000000e+00 3.4443108920677000e-03 -9.0066258525893755e-02 0.0000000000000000e+00 0.0000000000000000e+00 0.0000000000000000e+00 0.0000000000000000e+00  -8.6335634104511658e-02 3.0166571840391002e-03 0.0000000000000000e+00 3.0166571840391002e-03 -9.1233721774755402e-02 0.0000000000000000e+00 0.0000000000000000e+00 0.0000000000000000e+00 0.0000000000000000e+00  -8.5510075143867312e-02 2.7964125472969472e-03 0.0000000000000000e+00 2.7964125472969472e-03 -9.2162293860939187e-02 0.0000000000000000e+00 0.0000000000000000e+00 0.0000000000000000e+00 0.0000000000000000e+00  -8.4919071408736516e-02 2.7261900363270753e-03 0.0000000000000000e+00 2.7261900363270753e-03 -9.2822802374030497e-02 0.0000000000000000e+00 0.0000000000000000e+00 0.0000000000000000e+00 0.0000000000000000e+00  -8.4474141525820085e-02 2.7646906945154896e-03 0.0000000000000000e+00 2.7646906945154896e-03 -9.3259482469686919e-02 0.0000000000000000e+00 0.0000000000000000e+00 0.0000000000000000e+00 0.0000000000000000e+00  -8.4113889522561866e-02 2.8800336394225858e-03 0.0000000000000000e+00 2.8800336394225858e-03 -9.3510750078365457e-02 0.0000000000000000e+00 0.0000000000000000e+00 0.0000000000000000e+00 0.0000000000000000e+00  -8.3794544239536459e-02 3.0526009439287584e-03 0.0000000000000000e+00 3.0526009439287584e-03 -9.3608790926656971e-02 0.0000000000000000e+00 0.0000000000000000e+00 0.0000000000000000e+00 0.0000000000000000e+00  -8.3486946028492756e-02 3.2697110208231763e-03 0.0000000000000000e+00 3.2697110208231763e-03 -9.3578356162910339e-02 0.0000000000000000e+00 0.0000000000000000e+00 0.0000000000000000e+00 0.0000000000000000e+00  -8.3172967779698667e-02 3.5245125686001900e-03 0.0000000000000000e+00 3.5245125686001900e-03 -9.3436822145460466e-02 0.0000000000000000e+00 0.0000000000000000e+00 0.0000000000000000e+00 0.0000000000000000e+00  -8.2841055462074556e-02 3.8146814880538863e-03 0.0000000000000000e+00 3.8146814880538863e-03 -9.3196871853255023e-02 0.0000000000000000e+00 0.0000000000000000e+00 0.0000000000000000e+00 0.0000000000000000e+00  -8.2482584407247983e-02 4.1409666433414576e-03 0.0000000000000000e+00 4.1409666433414576e-03 -9.2869021201057153e-02 0.0000000000000000e+00 0.0000000000000000e+00 0.0000000000000000e+00 0.0000000000000000e+00  -8.2088897725726695e-02 4.5050878662670924e-03 0.0000000000000000e+00 4.5050878662670924e-03 -9.2463861209718001e-02 0.0000000000000000e+00 0.0000000000000000e+00 0.0000000000000000e+00 0.0000000000000000e+00  -8.1649595802685146e-02 4.9069665797538383e-03 0.0000000000000000e+00 4.9069665797538383e-03 -9.1993112652418371e-02 0.0000000000000000e+00 0.0000000000000000e+00 0.0000000000000000e+00 0.0000000000000000e+00  -8.1152277266833717e-02 5.3417973383942264e-03 0.0000000000000000e+00 5.3417973383942264e-03 -9.1469115095275472e-02 0.0000000000000000e+00 0.0000000000000000e+00 0.0000000000000000e+00 0.0000000000000000e+00  -8.0583585993214288e-02 5.7976402938572135e-03 0.0000000000000000e+00 5.7976402938572135e-03 -9.0902824913951380e-02 0.0000000000000000e+00 0.0000000000000000e+00 0.0000000000000000e+00 0.0000000000000000e+00  -7.9931004981725312e-02 6.2541101202431247e-03 0.0000000000000000e+00 6.2541101202431247e-03 -9.0300918537561975e-02 0.0000000000000000e+00 0.0000000000000000e+00 0.0000000000000000e+00 0.0000000000000000e+00  -7.9184566194622760e-02 6.6823233602432922e-03 0.0000000000000000e+00 6.6823233602432922e-03 -8.9662927109219082e-02 0.0000000000000000e+00 0.0000000000000000e+00 0.0000000000000000e+00 0.0000000000000000e+00  -7.8337652265181509e-02 7.0457210509944452e-03 0.0000000000000000e+00 7.0457210509944452e-03 -8.8979314249899716e-02 0.0000000000000000e+00 0.0000000000000000e+00 0.0000000000000000e+00 0.0000000000000000e+00  -7.7386371515531377e-02 7.3009142743125019e-03 0.0000000000000000e+00 7.3009142743125019e-03 -8.8231026025737194e-02 0.0000000000000000e+00 0.0000000000000000e+00 0.0000000000000000e+00 0.0000000000000000e+00  -7.6327502480831796e-02 7.3974938626577861e-03 0.0000000000000000e+00 7.3974938626577861e-03 -8.7390402988997640e-02 0.0000000000000000e+00 0.0000000000000000e+00 0.0000000000000000e+00 0.0000000000000000e+00  -7.5155559562120500e-02 7.2758869555900555e-03 0.0000000000000000e+00 7.2758869555900555e-03 -8.6422654283344461e-02 0.0000000000000000e+00 0.0000000000000000e+00 0.0000000000000000e+00 0.0000000000000000e+00  -7.3859955876494784e-02 6.8627879395196439e-03 0.0000000000000000e+00 6.8627879395196439e-03 -8.5286564861221936e-02 0.0000000000000000e+00 0.0000000000000000e+00 0.0000000000000000e+00 0.0000000000000000e+00  -7.2423437622974471e-02 6.0642844191052111e-03 0.0000000000000000e+00 6.0642844191052111e-03 -8.3932862901799909e-02 0.0000000000000000e+00 0.0000000000000000e+00 0.0000000000000000e+00 0.0000000000000000e+00  -7.0822966231508938e-02 4.7573645832005131e-03 0.0000000000000000e+00 4.7573645832005131e-03 -8.2298696097778012e-02 0.0000000000000000e+00 0.0000000000000000e+00 0.0000000000000000e+00 0.0000000000000000e+00  -6.9034197346582407e-02 2.7808764264577808e-03 0.0000000000000000e+00 2.7808764264577808e-03 -8.0296789690860404e-02 0.0000000000000000e+00 0.0000000000000000e+00 0.0000000000000000e+00 0.0000000000000000e+00  -6.7040946479524896e-02 -7.2640204702105346e-05 0.0000000000000000e+00 -7.2640204702105373e-05 -7.7797795590917540e-02 0.0000000000000000e+00 0.0000000000000000e+00 0.0000000000000000e+00 0.0000000000000000e+00  -6.4851665334994701e-02 -4.0625097904308932e-03 0.0000000000000000e+00 -4.0625097904308932e-03 -7.4604095480131416e-02 0.0000000000000000e+00 0.0000000000000000e+00 0.0000000000000000e+00 0.0000000000000000e+00  -6.2526360832450639e-02 -9.4997030520819637e-03 0.0000000000000000e+00 -9.4997030520819637e-03 -7.0412494152760047e-02 0.0000000000000000e+00 0.0000000000000000e+00 0.0000000000000000e+00 0.0000000000000000e+00  -6.0221288219526110e-02 -1.6735813729344778e-02 0.0000000000000000e+00 -1.6735813729344778e-02 -6.4761594646422269e-02 0.0000000000000000e+00 0.0000000000000000e+00 0.0000000000000000e+00 0.0000000000000000e+00  -5.8245075841605154e-02 -2.6127022474407114e-02 0.0000000000000000e+00 -2.6127022474407114e-02 -5.6974622246223572e-02 0.0000000000000000e+00 0.0000000000000000e+00 0.0000000000000000e+00 0.0000000000000000e+00  -5.7208795723926079e-02 -3.7981943460233418e-02 0.0000000000000000e+00 -3.7981943460233418e-02 -4.6029544885028126e-02 0.0000000000000000e+00 0.0000000000000000e+00 0.0000000000000000e+00 0.0000000000000000e+00  -5.7972581579018939e-02 -5.2286747846880498e-02 0.0000000000000000e+00 -5.2286747846880498e-02 -3.0692344151704985e-02 0.0000000000000000e+00 0.0000000000000000e+00 0.0000000000000000e+00 0.0000000000000000e+00  -6.2400377413670383e-02 -6.9052435946238444e-02 0.0000000000000000e+00 -6.9052435946238444e-02 -8.8610465048054952e-03 0.0000000000000000e+00 0.0000000000000000e+00 0.0000000000000000e+00 0.0000000000000000e+00  -7.2226425803499958e-02 -8.5452894525937614e-02 0.0000000000000000e+00 -8.5452894525937614e-02 2.0723453967679571e-02 0.0000000000000000e+00 0.0000000000000000e+00 0.0000000000000000e+00 0.0000000000000000e+00  -9.0997910734392534e-02 -1.0370842987466133e-01 0.0000000000000000e+00 -1.0370842987466133e-01 5.9953552307383938e-02 0.0000000000000000e+00 0.0000000000000000e+00 0.0000000000000000e+00 0.0000000000000000e+00  -1.2857191841630580e-01 -1.0396563098942820e-01 0.0000000000000000e+00 -1.0396563098942820e-01 1.1401994024124515e-01 0.0000000000000000e+00 0.0000000000000000e+00 0.0000000000000000e+00 0.0000000000000000e+00  -1.5847835487935424e-01 -1.0379569950522483e-01 0.0000000000000000e+00 -1.0379569950522483e-01 1.5165973049818626e-01 0.0000000000000000e+00 0.0000000000000000e+00 0.0000000000000000e+00 0.0000000000000000e+00  -1.7582614324606077e-01 9.1482431672902324e-03 0.0000000000000000e+00 9.1482431672902324e-03 2.2552127277470313e-01 0.0000000000000000e+00 0.0000000000000000e+00 0.0000000000000000e+00 0.0000000000000000e+00  -3.7419950193370105e-01 6.1240787176001232e-02 0.0000000000000000e+00 6.1240787176001232e-02 3.5749981346886567e-01 0.0000000000000000e+00 0.0000000000000000e+00 0.0000000000000000e+00 0.0000000000000000e+00  -2.5394233627288543e-01 -4.5800425011696788e-02 0.0000000000000000e+00 -4.5800425011696788e-02 3.1769613375335581e-01 0.0000000000000000e+00 0.0000000000000000e+00 0.0000000000000000e+00 0.0000000000000000e+00  -8.3766888035023218e-02 8.1392158779281354e-02 0.0000000000000000e+00 8.1392158779281354e-02 1.1176878792945918e-01 0.0000000000000000e+00 0.0000000000000000e+00 0.0000000000000000e+00 0.0000000000000000e+00  -1.2047811392806101e-01 9.7391529005700361e-02 0.0000000000000000e+00 9.7391529005700361e-02 9.9587169645671200e-02 0.0000000000000000e+00 0.0000000000000000e+00 0.0000000000000000e+00 0.0000000000000000e+00  -8.7749508769077181e-02 9.6776626902028817e-02 0.0000000000000000e+00 9.6776626902028817e-02 4.9931432735506709e-02 0.0000000000000000e+00 0.0000000000000000e+00 0.0000000000000000e+00 0.0000000000000000e+00  -6.8620752655037628e-02 7.9573319933950198e-02 0.0000000000000000e+00 7.9573319933950198e-02 1.1620324008523104e-02 0.0000000000000000e+00 0.0000000000000000e+00 0.0000000000000000e+00 0.0000000000000000e+00  -5.9751082045482025e-02 6.3137681222277406e-02 0.0000000000000000e+00 6.3137681222277406e-02 -1.6868236368929229e-02 0.0000000000000000e+00 0.0000000000000000e+00 0.0000000000000000e+00 0.0000000000000000e+00  -5.6151940028978727e-02 4.6748860599998575e-02 0.0000000000000000e+00 4.6748860599998575e-02 -3.7455826831111746e-02 0.0000000000000000e+00 0.0000000000000000e+00 0.0000000000000000e+00 0.0000000000000000e+00  -5.6074191382261475e-02 3.2930896638353371e-02 0.0000000000000000e+00 3.2930896638353371e-02 -5.1687874820800790e-02 0.0000000000000000e+00 0.0000000000000000e+00 0.0000000000000000e+00 0.0000000000000000e+00  -5.7638719332885960e-02 2.1660702047249077e-02 0.0000000000000000e+00 2.1660702047249077e-02 -6.1661503317274727e-02 0.0000000000000000e+00 0.0000000000000000e+00 0.0000000000000000e+00 0.0000000000000000e+00  -5.9995261068127678e-02 1.2887709467223550e-02 0.0000000000000000e+00 1.2887709467223550e-02 -6.8637259410102194e-02 0.0000000000000000e+00 0.0000000000000000e+00 0.0000000000000000e+00 0.0000000000000000e+00  -6.2558875675722464e-02 6.2540540339349115e-03 0.0000000000000000e+00 6.2540540339349115e-03 -7.3628163128011639e-02 0.0000000000000000e+00 0.0000000000000000e+00 0.0000000000000000e+00 0.0000000000000000e+00  -6.5051054920053156e-02 1.3727817785478755e-03 0.0000000000000000e+00 1.3727817785478755e-03 -7.7289583092548728e-02 0.0000000000000000e+00 0.0000000000000000e+00 0.0000000000000000e+00 0.0000000000000000e+00  -6.7341683352979867e-02 -2.1239586683825156e-03 0.0000000000000000e+00 -2.1239586683825156e-03 -8.0058468229042987e-02 0.0000000000000000e+00 0.0000000000000000e+00 0.0000000000000000e+00 0.0000000000000000e+00  -6.9391680510524203e-02 -4.5524050414483758e-03 0.0000000000000000e+00 -4.5524050414483758e-03 -8.2214928045875463e-02 0.0000000000000000e+00 0.0000000000000000e+00 0.0000000000000000e+00 0.0000000000000000e+00  -7.1207998585715304e-02 -6.1702574242009905e-03 0.0000000000000000e+00 -6.1702574242009905e-03 -8.3937184193637340e-02 0.0000000000000000e+00 0.0000000000000000e+00 0.0000000000000000e+00 0.0000000000000000e+00  -7.2817593951751289e-02 -7.1794373196004298e-03 0.0000000000000000e+00 -7.1794373196004298e-03 -8.5339284841904214e-02 0.0000000000000000e+00 0.0000000000000000e+00 0.0000000000000000e+00 0.0000000000000000e+00  -7.4251981548800083e-02 -7.7337664340338137e-03 0.0000000000000000e+00 -7.7337664340338137e-03 -8.6496975427033523e-02 0.0000000000000000e+00 0.0000000000000000e+00 0.0000000000000000e+00 0.0000000000000000e+00  -7.5538767698642845e-02 -7.9484834559959555e-03 0.0000000000000000e+00 -7.9484834559959555e-03 -8.7464677939509211e-02 0.0000000000000000e+00 0.0000000000000000e+00 0.0000000000000000e+00 0.0000000000000000e+00  -7.6697992931643560e-02 -7.9100731991761878e-03 0.0000000000000000e+00 -7.9100731991761878e-03 -8.8285612554069470e-02 0.0000000000000000e+00 0.0000000000000000e+00 0.0000000000000000e+00 0.0000000000000000e+00  -7.7741877741310902e-02 -7.6851588769635999e-03 0.0000000000000000e+00 -7.6851588769635999e-03 -8.8996675301521208e-02 0.0000000000000000e+00 0.0000000000000000e+00 0.0000000000000000e+00 0.0000000000000000e+00  -7.8676837424266940e-02 -7.3275263682115212e-03 0.0000000000000000e+00 -7.3275263682115212e-03 -8.9629549506792472e-02 0.0000000000000000e+00 0.0000000000000000e+00 0.0000000000000000e+00 0.0000000000000000e+00  -7.9506622660438522e-02 -6.8826948514188425e-03 0.0000000000000000e+00 -6.8826948514188425e-03 -9.0209607432702579e-02 0.0000000000000000e+00 0.0000000000000000e+00 0.0000000000000000e+00 0.0000000000000000e+00  -8.0235446057952159e-02 -6.3899824176934863e-03 0.0000000000000000e+00 -6.3899824176934863e-03 -9.0754160301534034e-02 0.0000000000000000e+00 0.0000000000000000e+00 0.0000000000000000e+00 0.0000000000000000e+00  -8.0870149398879793e-02 -5.8825845104736050e-03 0.0000000000000000e+00 -5.8825845104736050e-03 -9.1271363465977820e-02 0.0000000000000000e+00 0.0000000000000000e+00 0.0000000000000000e+00 0.0000000000000000e+00  -8.1420885338660487e-02 -5.3866108982494835e-03 0.0000000000000000e+00 -5.3866108982494835e-03 -9.1760553571793857e-02 0.0000000000000000e+00 0.0000000000000000e+00 0.0000000000000000e+00 0.0000000000000000e+00  -8.1900337681489438e-02 -4.9201563292525603e-03 0.0000000000000000e+00 -4.9201563292525603e-03 -9.2214106384080771e-02 0.0000000000000000e+00 0.0000000000000000e+00 0.0000000000000000e+00 0.0000000000000000e+00  -8.2322014674069480e-02 -4.4932649075253173e-03 0.0000000000000000e+00 -4.4932649075253173e-03 -9.2620267726936351e-02 0.0000000000000000e+00 0.0000000000000000e+00 0.0000000000000000e+00 0.0000000000000000e+00  -8.2698451185524893e-02 -4.1091728852039374e-03 0.0000000000000000e+00 -4.1091728852039374e-03 -9.2966031245574940e-02 0.0000000000000000e+00 0.0000000000000000e+00 0.0000000000000000e+00 0.0000000000000000e+00  -8.3040158724885807e-02 -3.7666656811843882e-03 0.0000000000000000e+00 -3.7666656811843882e-03 -9.3239126395111199e-02 0.0000000000000000e+00 0.0000000000000000e+00 0.0000000000000000e+00 0.0000000000000000e+00  -8.3355887534755327e-02 -3.4629696559303801e-03 0.0000000000000000e+00 -3.4629696559303801e-03 -9.3428513802541580e-02 0.0000000000000000e+00 0.0000000000000000e+00 0.0000000000000000e+00 0.0000000000000000e+00  -8.3654349652147006e-02 -3.1964939790602108e-03 0.0000000000000000e+00 -3.1964939790602108e-03 -9.3523309691451714e-02 0.0000000000000000e+00 0.0000000000000000e+00 0.0000000000000000e+00 0.0000000000000000e+00  -8.3947204890075081e-02 -2.9689092646533540e-03 0.0000000000000000e+00 -2.9689092646533540e-03 -9.3510516280309347e-02 0.0000000000000000e+00 0.0000000000000000e+00 0.0000000000000000e+00 0.0000000000000000e+00  -8.4252741934461875e-02 -2.7865757878422727e-03 0.0000000000000000e+00 -2.7865757878422727e-03 -9.3372463672873302e-02 0.0000000000000000e+00 0.0000000000000000e+00 0.0000000000000000e+00 0.0000000000000000e+00  -8.4600385108805201e-02 -2.6618127525058701e-03 0.0000000000000000e+00 -2.6618127525058701e-03 -9.3084102476661726e-02 0.0000000000000000e+00 0.0000000000000000e+00 0.0000000000000000e+00 0.0000000000000000e+00  -8.5034318442733639e-02 -2.6139562608731401e-03 0.0000000000000000e+00 -2.6139562608731401e-03 -9.2612941994870454e-02 0.0000000000000000e+00 0.0000000000000000e+00 0.0000000000000000e+00 0.0000000000000000e+00  -8.5616525169847982e-02 -2.6746456966520440e-03 0.0000000000000000e+00 -2.6746456966520440e-03 -9.1920313599842679e-02 0.0000000000000000e+00 0.0000000000000000e+00 0.0000000000000000e+00 0.0000000000000000e+00  -8.6436225859450405e-02 -2.8849384587713227e-03 0.0000000000000000e+00 -2.8849384587713222e-03 -9.0961928368106057e-02 0.0000000000000000e+00 0.0000000000000000e+00 0.0000000000000000e+00 0.0000000000000000e+00  -8.7544219324643055e-02 -3.3021103536643110e-03 0.0000000000000000e+00 -3.3021103536643110e-03 -8.9767512029714863e-02 0.0000000000000000e+00 0.0000000000000000e+00 0.0000000000000000e+00 0.0000000000000000e+00  -8.8982880367782846e-02 -4.0634813945695245e-03 0.0000000000000000e+00 -4.0634813945695245e-03 -8.8366675879137074e-02 0.0000000000000000e+00 0.0000000000000000e+00 0.0000000000000000e+00 0.0000000000000000e+00  -9.1004318532571807e-02 -5.1104474608966305e-03 0.0000000000000000e+00 -5.1104474608966305e-03 -8.6617381158163906e-02 0.0000000000000000e+00 0.0000000000000000e+00 0.0000000000000000e+00 0.0000000000000000e+00  -8.9440765505278505e-02 -5.0374084303634308e-03 0.0000000000000000e+00 -5.0374084303634308e-03 -8.8298802588395023e-02 0.0000000000000000e+00 0.0000000000000000e+00 0.0000000000000000e+00 0.0000000000000000e+00  -5.1591985158051037e-02 -5.4125108294323654e-03 0.0000000000000000e+00 -5.4125108294323654e-03 -1.1413740080223868e-01 0.0000000000000000e+00 0.0000000000000000e+00 0.0000000000000000e+00 0.0000000000000000e+00  5.9187558098425505e-02 -5.6615940741602588e-02 0.0000000000000000e+00 -5.6615940741602588e-02 3.5498366582564729e-02 0.0000000000000000e+00 0.0000000000000000e+00 0.0000000000000000e+00 0.0000000000000000e+00  -6.2560771577937035e-01 4.6515430478418426e-02 0.0000000000000000e+00 4.6515430478418426e-02 -3.7107129362469449e-01 0.0000000000000000e+00 0.0000000000000000e+00 0.0000000000000000e+00 0.0000000000000000e+00  4.0927427488502532e-02 -1.0944294115218038e-02 0.0000000000000000e+00 -1.0944294115218038e-02 -1.9724195233472720e-02 0.0000000000000000e+00 0.0000000000000000e+00 0.0000000000000000e+00 0.0000000000000000e+00  6.6889789976285934e-03 7.8243885398262292e-05 0.0000000000000000e+00 7.8243885398262292e-05 3.0773611871542585e-03 0.0000000000000000e+00 0.0000000000000000e+00 0.0000000000000000e+00 0.0000000000000000e+00  8.1761267277165178e-03 1.3448491233993925e-04 0.0000000000000000e+00 1.3448491233993925e-04 7.9679004246884233e-03 0.0000000000000000e+00 0.0000000000000000e+00 0.0000000000000000e+00 0.0000000000000000e+00  7.8784085264580334e-03 -1.6501714072204412e-05 0.0000000000000000e+00 -1.6501714072204412e-05 7.8442581227883938e-03 0.0000000000000000e+00 0.0000000000000000e+00 0.0000000000000000e+00 0.0000000000000000e+00  7.8846038770475982e-03 -2.4842530898737932e-05 0.0000000000000000e+00 -2.4842530898737932e-05 7.8769872869489631e-03 0.0000000000000000e+00 0.0000000000000000e+00 0.0000000000000000e+00 0.0000000000000000e+00  7.8809679239550574e-03 -5.2593591312737513e-05 0.0000000000000000e+00 -5.2593591312737513e-05 7.8812617546554272e-03 0.0000000000000000e+00 0.0000000000000000e+00 0.0000000000000000e+00 0.0000000000000000e+00  7.9019069653951095e-03 5.6319696221091819e-05 0.0000000000000000e+00 5.6319696221091819e-05 7.9020485259314790e-03 0.0000000000000000e+00 0.0000000000000000e+00 0.0000000000000000e+00 0.0000000000000000e+00  7.9043806904792683e-03 2.8739760145086470e-05 0.0000000000000000e+00 2.8739760145086470e-05 7.8908296211665854e-03 0.0000000000000000e+00 0.0000000000000000e+00 0.0000000000000000e+00 0.0000000000000000e+00  7.9167036787844026e-03 -2.2364806711313545e-05 0.0000000000000000e+00 -2.2364806711313545e-05 7.8802773413676197e-03 0.0000000000000000e+00 0.0000000000000000e+00 0.0000000000000000e+00 0.0000000000000000e+00  8.1232698354952951e-03 1.1990364864298834e-04 0.0000000000000000e+00 1.1990364864298834e-04 7.7548748242372463e-03 0.0000000000000000e+00 0.0000000000000000e+00 0.0000000000000000e+00 0.0000000000000000e+00  9.6510571871999198e-03 -3.5437483680387473e-03 0.0000000000000000e+00 -3.5437483680387473e-03 2.7660137307875723e-03 0.0000000000000000e+00 0.0000000000000000e+00 0.0000000000000000e+00 0.0000000000000000e+00  -3.1956628136069712e-02 4.6705191407402154e-02 0.0000000000000000e+00 4.6705191407402154e-02 -1.1635339049500741e-01 0.0000000000000000e+00 0.0000000000000000e+00 0.0000000000000000e+00 0.0000000000000000e+00  -6.4500845159848286e-01 -5.8425684905207727e-02 0.0000000000000000e+00 -5.8425684905207727e-02 -2.9506403411488241e-01 0.0000000000000000e+00 0.0000000000000000e+00 0.0000000000000000e+00 0.0000000000000000e+00  -4.7944996084238641e-03 1.8975747211305311e-02 0.0000000000000000e+00 1.8975747211305311e-02 -2.0621782484831607e-02 0.0000000000000000e+00 0.0000000000000000e+00 0.0000000000000000e+00 0.0000000000000000e+00  -9.2960139205503001e-02 1.3111115933016082e-02 0.0000000000000000e+00 1.3111115933016082e-02 -8.3438156524398607e-02 0.0000000000000000e+00 0.0000000000000000e+00 0.0000000000000000e+00 0.0000000000000000e+00  -9.5649520771306007e-02 4.7433987120525422e-03 0.0000000000000000e+00 4.7433987120525422e-03 -8.5488013706874033e-02 0.0000000000000000e+00 0.0000000000000000e+00 0.0000000000000000e+00 0.0000000000000000e+00  -9.3184112989991935e-02 2.5079232671113920e-03 0.0000000000000000e+00 2.5079232671113920e-03 -8.6028692377087532e-02 0.0000000000000000e+00 0.0000000000000000e+00 0.0000000000000000e+00 0.0000000000000000e+00  -8.9931805526691291e-02 1.8004834406872426e-03 0.0000000000000000e+00 1.8004834406872426e-03 -8.7975253530470601e-02 0.0000000000000000e+00 0.0000000000000000e+00 0.0000000000000000e+00 0.0000000000000000e+00  -8.7619201556229140e-02 1.6069321550648281e-03 0.0000000000000000e+00 1.6069321550648281e-03 -8.9778932172488765e-02 0.0000000000000000e+00 0.0000000000000000e+00 0.0000000000000000e+00 0.0000000000000000e+00  -8.6077213442650555e-02 1.6324781841038471e-03 0.0000000000000000e+00 1.6324781841038471e-03 -9.1199764206213396e-02 0.0000000000000000e+00 0.0000000000000000e+00 0.0000000000000000e+00 0.0000000000000000e+00  -8.5047658298085055e-02 1.7541707226621046e-03 0.0000000000000000e+00 1.7541707226621046e-03 -9.2260101232803288e-02 0.0000000000000000e+00 0.0000000000000000e+00 0.0000000000000000e+00 0.0000000000000000e+00  -8.4345731852896927e-02 1.9171404326738712e-03 0.0000000000000000e+00 1.9171404326738712e-03 -9.3012364046093421e-02 0.0000000000000000e+00 0.0000000000000000e+00 0.0000000000000000e+00 0.0000000000000000e+00  -8.3841741621978272e-02 2.1033899881997740e-03 0.0000000000000000e+00 2.1033899881997740e-03 -9.3510930524976360e-02 0.0000000000000000e+00 0.0000000000000000e+00 0.0000000000000000e+00 0.0000000000000000e+00  -8.3444752583384907e-02 2.3077247998988192e-03 0.0000000000000000e+00 2.3077247998988192e-03 -9.3806841390052784e-02 0.0000000000000000e+00 0.0000000000000000e+00 0.0000000000000000e+00 0.0000000000000000e+00  -8.3095446431253578e-02 2.5293734069891283e-03 0.0000000000000000e+00 2.5293734069891283e-03 -9.3939594053319378e-02 0.0000000000000000e+00 0.0000000000000000e+00 0.0000000000000000e+00 0.0000000000000000e+00  -8.2755865949876439e-02 2.7695055881393556e-03 0.0000000000000000e+00 2.7695055881393556e-03 -9.3938331572570810e-02 0.0000000000000000e+00 0.0000000000000000e+00 0.0000000000000000e+00 0.0000000000000000e+00  -8.2402129788574627e-02 3.0300699361488484e-03 0.0000000000000000e+00 3.0300699361488484e-03 -9.3824017356409217e-02 0.0000000000000000e+00 0.0000000000000000e+00 0.0000000000000000e+00 0.0000000000000000e+00  -8.2018963969986855e-02 3.3134947895809329e-03 0.0000000000000000e+00 3.3134947895809329e-03 -9.3611836125216480e-02 0.0000000000000000e+00 0.0000000000000000e+00 0.0000000000000000e+00 0.0000000000000000e+00  -8.1595606063955536e-02 3.6221587962536926e-03 0.0000000000000000e+00 3.6221587962536926e-03 -9.3313475971234267e-02 0.0000000000000000e+00 0.0000000000000000e+00 0.0000000000000000e+00 0.0000000000000000e+00  -8.1123012932177885e-02 3.9573529281115068e-03 0.0000000000000000e+00 3.9573529281115068e-03 -9.2938739512261379e-02 0.0000000000000000e+00 0.0000000000000000e+00 0.0000000000000000e+00 0.0000000000000000e+00  -8.0592283859031236e-02 4.3177534686679991e-03 0.0000000000000000e+00 4.3177534686679991e-03 -9.2496228080286610e-02 0.0000000000000000e+00 0.0000000000000000e+00 0.0000000000000000e+00 0.0000000000000000e+00  -7.9994249075161381e-02 4.6976919321137789e-03 0.0000000000000000e+00 4.6976919321137789e-03 -9.1992935354324887e-02 0.0000000000000000e+00 0.0000000000000000e+00 0.0000000000000000e+00 0.0000000000000000e+00  -7.9320009720149964e-02 5.0856234783254193e-03 0.0000000000000000e+00 5.0856234783254193e-03 -9.1432863946169979e-02 0.0000000000000000e+00 0.0000000000000000e+00 0.0000000000000000e+00 0.0000000000000000e+00  -7.8562031477526814e-02 5.4631087966607239e-03 0.0000000000000000e+00 5.4631087966607239e-03 -9.0815040135963934e-02 0.0000000000000000e+00 0.0000000000000000e+00 0.0000000000000000e+00 0.0000000000000000e+00  -7.7715278970089993e-02 5.8043808556490686e-03 0.0000000000000000e+00 5.8043808556490686e-03 -9.0131460514574380e-02 0.0000000000000000e+00 0.0000000000000000e+00 0.0000000000000000e+00 0.0000000000000000e+00  -7.6777913415091326e-02 6.0762525901768031e-03 0.0000000000000000e+00 6.0762525901768031e-03 -8.9365470437199029e-02 0.0000000000000000e+00 0.0000000000000000e+00 0.0000000000000000e+00 0.0000000000000000e+00  -7.5751280529416640e-02 6.2378584326543054e-03 0.0000000000000000e+00 6.2378584326543054e-03 -8.8490832858319574e-02 0.0000000000000000e+00 0.0000000000000000e+00 0.0000000000000000e+00 0.0000000000000000e+00  -7.4639240806289628e-02 6.2396183611933102e-03 0.0000000000000000e+00 6.2396183611933102e-03 -8.7471359797133857e-02 0.0000000000000000e+00 0.0000000000000000e+00 0.0000000000000000e+00 0.0000000000000000e+00  -7.3447249279827306e-02 6.0209214050518534e-03 0.0000000000000000e+00 6.0209214050518534e-03 -8.6260561008210959e-02 0.0000000000000000e+00 0.0000000000000000e+00 0.0000000000000000e+00 0.0000000000000000e+00  -7.2181884748700756e-02 5.5063298284121825e-03 0.0000000000000000e+00 5.5063298284121825e-03 -8.4800432787408189e-02 0.0000000000000000e+00 0.0000000000000000e+00 0.0000000000000000e+00 0.0000000000000000e+00  -7.0851709601721533e-02 4.6005363307082183e-03 0.0000000000000000e+00 4.6005363307082183e-03 -8.3018336021244532e-02 0.0000000000000000e+00 0.0000000000000000e+00 0.0000000000000000e+00 0.0000000000000000e+00  -6.9470432899816317e-02 3.1827811480892058e-03 0.0000000000000000e+00 3.1827811480892058e-03 -8.0820893288622117e-02 0.0000000000000000e+00 0.0000000000000000e+00 0.0000000000000000e+00 0.0000000000000000e+00  -6.8063445582443302e-02 1.1019326052001755e-03 0.0000000000000000e+00 1.1019326052001755e-03 -7.8083896480320353e-02 0.0000000000000000e+00 0.0000000000000000e+00 0.0000000000000000e+00 0.0000000000000000e+00  -6.6679018379170799e-02 -1.8260016997476783e-03 0.0000000000000000e+00 -1.8260016997476783e-03 -7.4637287392129867e-02 0.0000000000000000e+00 0.0000000000000000e+00 0.0000000000000000e+00 0.0000000000000000e+00  -6.5405878470360404e-02 -5.8152547036342244e-03 0.0000000000000000e+00 -5.8152547036342244e-03 -7.0244346311953282e-02 0.0000000000000000e+00 0.0000000000000000e+00 0.0000000000000000e+00 0.0000000000000000e+00  -6.4399761128357880e-02 -1.1098509645387836e-02 0.0000000000000000e+00 -1.1098509645387836e-02 -6.4574339972023914e-02 0.0000000000000000e+00 0.0000000000000000e+00 0.0000000000000000e+00 0.0000000000000000e+00  -6.3920253816324865e-02 -1.7898648869561756e-02 0.0000000000000000e+00 -1.7898648869561756e-02 -5.7170610787460115e-02 0.0000000000000000e+00 0.0000000000000000e+00 0.0000000000000000e+00 0.0000000000000000e+00  -6.4387678963824677e-02 -2.6376798769075123e-02 0.0000000000000000e+00 -2.6376798769075123e-02 -4.7411103846151402e-02 0.0000000000000000e+00 0.0000000000000000e+00 0.0000000000000000e+00 0.0000000000000000e+00  -6.6429165260325634e-02 -3.6521078580067742e-02 0.0000000000000000e+00 -3.6521078580067742e-02 -3.4503721791832011e-02 0.0000000000000000e+00 0.0000000000000000e+00 0.0000000000000000e+00 0.0000000000000000e+00  -7.1003432699104529e-02 -4.8049259319317451e-02 0.0000000000000000e+00 -4.8049259319317451e-02 -1.7440569624858057e-02 0.0000000000000000e+00 0.0000000000000000e+00 0.0000000000000000e+00 0.0000000000000000e+00  -7.9314146467054730e-02 -5.9902082413418142e-02 0.0000000000000000e+00 -5.9902082413418142e-02 4.7458250969143788e-03 0.0000000000000000e+00 0.0000000000000000e+00 0.0000000000000000e+00 0.0000000000000000e+00  -9.2924197641359729e-02 -7.0794682761699729e-02 0.0000000000000000e+00 -7.0794682761699729e-02 3.2866600679324433e-02 0.0000000000000000e+00 0.0000000000000000e+00 0.0000000000000000e+00 0.0000000000000000e+00  -1.1392981831005757e-01 -7.5914438339589843e-02 0.0000000000000000e+00 -7.5914438339589843e-02 6.7263665523899674e-02 0.0000000000000000e+00 0.0000000000000000e+00 0.0000000000000000e+00 0.0000000000000000e+00  -1.3974846955887399e-01 -7.3803280035662361e-02 0.0000000000000000e+00 -7.3803280035662361e-02 1.0232620135900806e-01 0.0000000000000000e+00 0.0000000000000000e+00 0.0000000000000000e+00 0.0000000000000000e+00  -1.6991383362828752e-01 -4.9252592429639752e-02 0.0000000000000000e+00 -4.9252592429639752e-02 1.3611745429379365e-01 0.0000000000000000e+00 0.0000000000000000e+00 0.0000000000000000e+00 0.0000000000000000e+00  -1.1978255420982481e-01 -1.6317806127936874e-02 0.0000000000000000e+00 -1.6317806127936874e-02 1.4946334785600493e-01 0.0000000000000000e+00 0.0000000000000000e+00 0.0000000000000000e+00 0.0000000000000000e+00  -2.9580732919781599e-01 1.2936867905822701e-02 0.0000000000000000e+00 1.2936867905822701e-02 1.2175816022188993e-01 0.0000000000000000e+00 0.0000000000000000e+00 0.0000000000000000e+00 0.0000000000000000e+00  -2.0858472028886094e-01 2.3722233351541881e-02 0.0000000000000000e+00 2.3722233351541881e-02 1.6988375051895935e-01 0.0000000000000000e+00 0.0000000000000000e+00 0.0000000000000000e+00 0.0000000000000000e+00  -9.2601208181504510e-02 4.8067863243061212e-02 0.0000000000000000e+00 4.8067863243061212e-02 1.2045269364378472e-01 0.0000000000000000e+00 0.0000000000000000e+00 0.0000000000000000e+00 0.0000000000000000e+00  -1.2442315710053313e-01 6.8508845143295471e-02 0.0000000000000000e+00 6.8508845143295471e-02 8.6075425249270185e-02 0.0000000000000000e+00 0.0000000000000000e+00 0.0000000000000000e+00 0.0000000000000000e+00  -1.0658974214530720e-01 7.1016429604389614e-02 0.0000000000000000e+00 7.1016429604389614e-02 5.6364298744956118e-02 0.0000000000000000e+00 0.0000000000000000e+00 0.0000000000000000e+00 0.0000000000000000e+00  -8.7585415171348172e-02 6.5755282424617034e-02 0.0000000000000000e+00 6.5755282424617034e-02 2.3545882786656577e-02 0.0000000000000000e+00 0.0000000000000000e+00 0.0000000000000000e+00 0.0000000000000000e+00  -7.5126015369146926e-02 5.5012624755072619e-02 0.0000000000000000e+00 5.5012624755072619e-02 -3.4402187516314195e-03 0.0000000000000000e+00 0.0000000000000000e+00 0.0000000000000000e+00 0.0000000000000000e+00  -6.7824659572892604e-02 4.3336642852828913e-02 0.0000000000000000e+00 4.3336642852828913e-02 -2.4570846651610835e-02 0.0000000000000000e+00 0.0000000000000000e+00 0.0000000000000000e+00 0.0000000000000000e+00  -6.4081399392672753e-02 3.2142745072750278e-02 0.0000000000000000e+00 3.2142745072750278e-02 -4.0633691878484139e-02 0.0000000000000000e+00 0.0000000000000000e+00 0.0000000000000000e+00 0.0000000000000000e+00  -6.2711950786442469e-02 2.2428300896302624e-02 0.0000000000000000e+00 2.2428300896302624e-02 -5.2638440697311169e-02 0.0000000000000000e+00 0.0000000000000000e+00 0.0000000000000000e+00 0.0000000000000000e+00  -6.2774105165433233e-02 1.4432996897615522e-02 0.0000000000000000e+00 1.4432996897615522e-02 -6.1604100450317965e-02 0.0000000000000000e+00 0.0000000000000000e+00 0.0000000000000000e+00 0.0000000000000000e+00  -6.3660272783177319e-02 8.1258522891386742e-03 0.0000000000000000e+00 8.1258522891386742e-03 -6.8327119285379517e-02 0.0000000000000000e+00 0.0000000000000000e+00 0.0000000000000000e+00 0.0000000000000000e+00  -6.4972108123568170e-02 3.3144498245334434e-03 0.0000000000000000e+00 3.3144498245334434e-03 -7.3422286918141552e-02 0.0000000000000000e+00 0.0000000000000000e+00 0.0000000000000000e+00 0.0000000000000000e+00  -6.6471151081382532e-02 -2.4356059205250978e-04 0.0000000000000000e+00 -2.4356059205250978e-04 -7.7333524818085281e-02 0.0000000000000000e+00 0.0000000000000000e+00 0.0000000000000000e+00 0.0000000000000000e+00  -6.8020072437407000e-02 -2.7906272180670045e-03 0.0000000000000000e+00 -2.7906272180670045e-03 -8.0377094753266376e-02 0.0000000000000000e+00 0.0000000000000000e+00 0.0000000000000000e+00 0.0000000000000000e+00  -6.9545222882583788e-02 -4.5436997522817118e-03 0.0000000000000000e+00 -4.5436997522817118e-03 -8.2775817770801133e-02 0.0000000000000000e+00 0.0000000000000000e+00 0.0000000000000000e+00 0.0000000000000000e+00  -7.1010121436879514e-02 -5.6849449287620498e-03 0.0000000000000000e+00 -5.6849449287620498e-03 -8.4687578575480982e-02 0.0000000000000000e+00 0.0000000000000000e+00 0.0000000000000000e+00 0.0000000000000000e+00  -7.2398308636094449e-02 -6.3610765571662491e-03 0.0000000000000000e+00 -6.3610765571662491e-03 -8.6226491143050699e-02 0.0000000000000000e+00 0.0000000000000000e+00 0.0000000000000000e+00 0.0000000000000000e+00  -7.3702693188667470e-02 -6.6872364080049502e-03 0.0000000000000000e+00 -6.6872364080049502e-03 -8.7477846224534583e-02 0.0000000000000000e+00 0.0000000000000000e+00 0.0000000000000000e+00 0.0000000000000000e+00  -7.4919553325642652e-02 -6.7528232230310457e-03 0.0000000000000000e+00 -6.7528232230310457e-03 -8.8507929850052292e-02 0.0000000000000000e+00 0.0000000000000000e+00 0.0000000000000000e+00 0.0000000000000000e+00  -7.6045836969443600e-02 -6.6276183244569579e-03 0.0000000000000000e+00 -6.6276183244569579e-03 -8.9369793406361017e-02 0.0000000000000000e+00 0.0000000000000000e+00 0.0000000000000000e+00 0.0000000000000000e+00  -7.7078672267374471e-02 -6.3671117849593431e-03 0.0000000000000000e+00 -6.3671117849593431e-03 -9.0106058333841985e-02 0.0000000000000000e+00 0.0000000000000000e+00 0.0000000000000000e+00 0.0000000000000000e+00  -7.8016117887140246e-02 -6.0164107834160506e-03 0.0000000000000000e+00 -6.0164107834160506e-03 -9.0749859413416178e-02 0.0000000000000000e+00 0.0000000000000000e+00 0.0000000000000000e+00 0.0000000000000000e+00  -7.8858284421691113e-02 -5.6125644054231755e-03 0.0000000000000000e+00 -5.6125644054231755e-03 -9.1324986937918101e-02 0.0000000000000000e+00 0.0000000000000000e+00 0.0000000000000000e+00 0.0000000000000000e+00  -7.9608142655477956e-02 -5.1855509114214536e-03 0.0000000000000000e+00 -5.1855509114214536e-03 -9.1846101527053248e-02 0.0000000000000000e+00 0.0000000000000000e+00 0.0000000000000000e+00 0.0000000000000000e+00  -8.0271627146323341e-02 -4.7584622641407611e-03 0.0000000000000000e+00 -4.7584622641407611e-03 -9.2319557787907569e-02 0.0000000000000000e+00 0.0000000000000000e+00 0.0000000000000000e+00 0.0000000000000000e+00  -8.0856996944434961e-02 -4.3475171546122123e-03 0.0000000000000000e+00 -4.3475171546122123e-03 -9.2744953334493618e-02 0.0000000000000000e+00 0.0000000000000000e+00 0.0000000000000000e+00 0.0000000000000000e+00  -8.1373738214944646e-02 -3.9624207630129336e-03 0.0000000000000000e+00 -3.9624207630129336e-03 -9.3117133551275447e-02 0.0000000000000000e+00 0.0000000000000000e+00 0.0000000000000000e+00 0.0000000000000000e+00  -8.1831495635152643e-02 -3.6073200510910600e-03 0.0000000000000000e+00 -3.6073200510910600e-03 -9.3428142637839329e-02 0.0000000000000000e+00 0.0000000000000000e+00 0.0000000000000000e+00 0.0000000000000000e+00  -8.2239552519108805e-02 -3.2822838837914042e-03 0.0000000000000000e+00 -3.2822838837914042e-03 -9.3668579769797700e-02 0.0000000000000000e+00 0.0000000000000000e+00 0.0000000000000000e+00 0.0000000000000000e+00  -8.2607262496269429e-02 -2.9849911814824443e-03 0.0000000000000000e+00 -2.9849911814824443e-03 -9.3827980070773656e-02 0.0000000000000000e+00 0.0000000000000000e+00 0.0000000000000000e+00 0.0000000000000000e+00  -8.2945650225948714e-02 -2.7122223465140794e-03 0.0000000000000000e+00 -2.7122223465140794e-03 -9.3894103978311411e-02 0.0000000000000000e+00 0.0000000000000000e+00 0.0000000000000000e+00 0.0000000000000000e+00  -8.3270233504592076e-02 -2.4608640023947681e-03 0.0000000000000000e+00 -2.4608640023947681e-03 -9.3851297995935376e-02 0.0000000000000000e+00 0.0000000000000000e+00 0.0000000000000000e+00 0.0000000000000000e+00  -8.3605155623408076e-02 -2.2284037122747265e-03 0.0000000000000000e+00 -2.2284037122747265e-03 -9.3678185314616552e-02 0.0000000000000000e+00 0.0000000000000000e+00 0.0000000000000000e+00 0.0000000000000000e+00  -8.3988695652989054e-02 -2.0131902585178332e-03 0.0000000000000000e+00 -2.0131902585178332e-03 -9.3345244991194343e-02 0.0000000000000000e+00 0.0000000000000000e+00 0.0000000000000000e+00 0.0000000000000000e+00  -8.4480596200454561e-02 -1.8155577241404618e-03 0.0000000000000000e+00 -1.8155577241404618e-03 -9.2812637098410367e-02 0.0000000000000000e+00 0.0000000000000000e+00 0.0000000000000000e+00 0.0000000000000000e+00  -8.5172357472402163e-02 -1.6402804874346992e-03 0.0000000000000000e+00 -1.6402804874346992e-03 -9.2029047719678875e-02 0.0000000000000000e+00 0.0000000000000000e+00 0.0000000000000000e+00 0.0000000000000000e+00  -8.6194398405139289e-02 -1.5049791958468577e-03 0.0000000000000000e+00 -1.5049791958468581e-03 -9.0939996121047972e-02 0.0000000000000000e+00 0.0000000000000000e+00 0.0000000000000000e+00 0.0000000000000000e+00  -8.7732487404018539e-02 -1.4643204516248582e-03 0.0000000000000000e+00 -1.4643204516248578e-03 -8.9493230240689503e-02 0.0000000000000000e+00 0.0000000000000000e+00 0.0000000000000000e+00 0.0000000000000000e+00  -9.0045990169433793e-02 -1.6414517343889615e-03 0.0000000000000000e+00 -1.6414517343889615e-03 -8.7667217825340732e-02 0.0000000000000000e+00 0.0000000000000000e+00 0.0000000000000000e+00 0.0000000000000000e+00  -9.3305076968937972e-02 -2.3328623995529101e-03 0.0000000000000000e+00 -2.3328623995529101e-03 -8.5704185661504978e-02 0.0000000000000000e+00 0.0000000000000000e+00 0.0000000000000000e+00 0.0000000000000000e+00  -9.5795070536344201e-02 -4.5571778024382434e-03 0.0000000000000000e+00 -4.5571778024382434e-03 -8.5147155777889075e-02 0.0000000000000000e+00 0.0000000000000000e+00 0.0000000000000000e+00 0.0000000000000000e+00  -9.3172743432393595e-02 -1.2906386109689036e-02 0.0000000000000000e+00 -1.2906386109689036e-02 -8.3082488429614881e-02 0.0000000000000000e+00 0.0000000000000000e+00 0.0000000000000000e+00 0.0000000000000000e+00  -5.1831841429861155e-03 -1.8692677240139340e-02 0.0000000000000000e+00 -1.8692677240139340e-02 -2.0500431607032805e-02 0.0000000000000000e+00 0.0000000000000000e+00 0.0000000000000000e+00 0.0000000000000000e+00  -6.4480086440109252e-01 5.8598715203473831e-02 0.0000000000000000e+00 5.8598715203473831e-02 -2.9488046523049311e-01 0.0000000000000000e+00 0.0000000000000000e+00 0.0000000000000000e+00 0.0000000000000000e+00  -3.2303633032982795e-02 -4.6641341702570893e-02 0.0000000000000000e+00 -4.6641341702570893e-02 -1.1663793986446805e-01 0.0000000000000000e+00 0.0000000000000000e+00 0.0000000000000000e+00 0.0000000000000000e+00  9.6782773060537838e-03 3.5526688444822404e-03 0.0000000000000000e+00 3.5526688444822404e-03 2.6218354752186156e-03 0.0000000000000000e+00 0.0000000000000000e+00 0.0000000000000000e+00 0.0000000000000000e+00  8.1445421616765292e-03 -1.2427542527716754e-04 0.0000000000000000e+00 -1.2427542527716757e-04 7.7946425570564783e-03 0.0000000000000000e+00 0.0000000000000000e+00 0.0000000000000000e+00 0.0000000000000000e+00  7.9289260535268455e-03 2.1437752353631887e-05 0.0000000000000000e+00 2.1437752353631887e-05 7.8884923160313092e-03 0.0000000000000000e+00 0.0000000000000000e+00 0.0000000000000000e+00 0.0000000000000000e+00  7.9152856528152196e-03 -2.5732056754359079e-05 0.0000000000000000e+00 -2.5732056754359079e-05 7.8974165745757056e-03 0.0000000000000000e+00 0.0000000000000000e+00 0.0000000000000000e+00 0.0000000000000000e+00  7.9120193707433138e-03 -4.8390950217111906e-05 0.0000000000000000e+00 -4.8390950217111906e-05 7.9116178167170075e-03 0.0000000000000000e+00 0.0000000000000000e+00 0.0000000000000000e+00 0.0000000000000000e+00  7.9356567363471301e-03 5.2350027633455025e-05 0.0000000000000000e+00 5.2350027633455025e-05 7.9347739964893294e-03 0.0000000000000000e+00 0.0000000000000000e+00 0.0000000000000000e+00 0.0000000000000000e+00  7.9418756700943283e-03 2.2142755502506041e-05 0.0000000000000000e+00 2.2142755502506041e-05 7.9188866430359162e-03 0.0000000000000000e+00 0.0000000000000000e+00 0.0000000000000000e+00 0.0000000000000000e+00  7.9611754167195712e-03 -3.6912168157717004e-06 0.0000000000000000e+00 -3.6912168157717004e-06 7.9086357189988334e-03 0.0000000000000000e+00 0.0000000000000000e+00 0.0000000000000000e+00 0.0000000000000000e+00  8.1637296863547992e-03 -4.5328248456482544e-05 0.0000000000000000e+00 -4.5328248456482544e-05 7.6835520941254355e-03 0.0000000000000000e+00 0.0000000000000000e+00 0.0000000000000000e+00 0.0000000000000000e+00  1.3159031388811759e-02 -2.5254026370384887e-03 0.0000000000000000e+00 -2.5254026370384887e-03 1.1216919180186814e-03 0.0000000000000000e+00 0.0000000000000000e+00 0.0000000000000000e+00 0.0000000000000000e+00  -1.6572057563779088e-01 3.5233695215062477e-02 0.0000000000000000e+00 3.5233695215062477e-02 -2.3826940378644776e-01 0.0000000000000000e+00 0.0000000000000000e+00 0.0000000000000000e+00 0.0000000000000000e+00  -4.0051327382887048e-01 -2.5512840347956950e-02 0.0000000000000000e+00 -2.5512840347956950e-02 -1.3874365254020571e-01 0.0000000000000000e+00 0.0000000000000000e+00 0.0000000000000000e+00 0.0000000000000000e+00  -4.2184591026883302e-02 -2.4021394322761232e-02 0.0000000000000000e+00 -2.4021394322761232e-02 -8.0830778347577570e-02 0.0000000000000000e+00 0.0000000000000000e+00 0.0000000000000000e+00 0.0000000000000000e+00  -1.0989821583877959e-01 -6.0466301639454691e-03 0.0000000000000000e+00 -6.0466301639454691e-03 -7.8168549575057797e-02 0.0000000000000000e+00 0.0000000000000000e+00 0.0000000000000000e+00 0.0000000000000000e+00  -1.0062895061827860e-01 -3.3823772433383904e-03 0.0000000000000000e+00 -3.3823772433383904e-03 -8.2223181111077126e-02 0.0000000000000000e+00 0.0000000000000000e+00 0.0000000000000000e+00 0.0000000000000000e+00  -9.3448973973441596e-02 -2.5405212693751793e-03 0.0000000000000000e+00 -2.5405212693751793e-03 -8.5775788058435845e-02 0.0000000000000000e+00 0.0000000000000000e+00 0.0000000000000000e+00 0.0000000000000000e+00  -8.9298655402218680e-02 -1.5355360330522774e-03 0.0000000000000000e+00 -1.5355360330522774e-03 -8.8271813785453027e-02 0.0000000000000000e+00 0.0000000000000000e+00 0.0000000000000000e+00 0.0000000000000000e+00  -8.6754809202627153e-02 -6.3539313039638406e-04 0.0000000000000000e+00 -6.3539313039638406e-04 -9.0204053193873313e-02 0.0000000000000000e+00 0.0000000000000000e+00 0.0000000000000000e+00 0.0000000000000000e+00  -8.5200024944715860e-02 9.1865179315703849e-05 0.0000000000000000e+00 9.1865179315703849e-05 -9.1634414054912197e-02 0.0000000000000000e+00 0.0000000000000000e+00 0.0000000000000000e+00 0.0000000000000000e+00  -8.4225711858206445e-02 6.5357735362276109e-04 0.0000000000000000e+00 6.5357735362276109e-04 -9.2665957489872899e-02 0.0000000000000000e+00 0.0000000000000000e+00 0.0000000000000000e+00 0.0000000000000000e+00  -8.3586056939535996e-02 1.0876800554317377e-03 0.0000000000000000e+00 1.0876800554317377e-03 -9.3386030935289244e-02 0.0000000000000000e+00 0.0000000000000000e+00 0.0000000000000000e+00 0.0000000000000000e+00  -8.3129061115961897e-02 1.4344184675252742e-03 0.0000000000000000e+00 1.4344184675252742e-03 -9.3863284618709797e-02 0.0000000000000000e+00 0.0000000000000000e+00 0.0000000000000000e+00 0.0000000000000000e+00  -8.2760309368625273e-02 1.7275594948677221e-03 0.0000000000000000e+00 1.7275594948677221e-03 -9.4148929355903299e-02 0.0000000000000000e+00 0.0000000000000000e+00 0.0000000000000000e+00 0.0000000000000000e+00  -8.2420913803698981e-02 1.9921463297513133e-03 0.0000000000000000e+00 1.9921463297513133e-03 -9.4280619376698557e-02 0.0000000000000000e+00 0.0000000000000000e+00 0.0000000000000000e+00 0.0000000000000000e+00  -8.2074468544034190e-02 2.2456815862511481e-03 0.0000000000000000e+00 2.2456815862511481e-03 -9.4285393281442809e-02 0.0000000000000000e+00 0.0000000000000000e+00 0.0000000000000000e+00 0.0000000000000000e+00  -8.1698402531454328e-02 2.5001235677240196e-03 0.0000000000000000e+00 2.5001235677240196e-03 -9.4182601595109730e-02 0.0000000000000000e+00 0.0000000000000000e+00 0.0000000000000000e+00 0.0000000000000000e+00  -8.1278354040716469e-02 2.7635017847664812e-03 0.0000000000000000e+00 2.7635017847664812e-03 -9.3986219921850855e-02 0.0000000000000000e+00 0.0000000000000000e+00 0.0000000000000000e+00 0.0000000000000000e+00  -8.0804470636820849e-02 3.0408396789085058e-03 0.0000000000000000e+00 3.0408396789085058e-03 -9.3706535564897733e-02 0.0000000000000000e+00 0.0000000000000000e+00 0.0000000000000000e+00 0.0000000000000000e+00  -8.0269085035231988e-02 3.3343049104377601e-03 0.0000000000000000e+00 3.3343049104377601e-03 -9.3351166263098181e-02 0.0000000000000000e+00 0.0000000000000000e+00 0.0000000000000000e+00 0.0000000000000000e+00  -7.9665499172351342e-02 3.6427402176118341e-03 0.0000000000000000e+00 3.6427402176118341e-03 -9.2925326219395643e-02 0.0000000000000000e+00 0.0000000000000000e+00 0.0000000000000000e+00 0.0000000000000000e+00  -7.8987689313307560e-02 3.9608392187925568e-03 0.0000000000000000e+00 3.9608392187925568e-03 -9.2431327788369544e-02 0.0000000000000000e+00 0.0000000000000000e+00 0.0000000000000000e+00 0.0000000000000000e+00  -7.8230726443749538e-02 4.2782542546318993e-03 0.0000000000000000e+00 4.2782542546318993e-03 -9.1867419307597065e-02 0.0000000000000000e+00 0.0000000000000000e+00 0.0000000000000000e+00 0.0000000000000000e+00  -7.7391639033031284e-02 4.5788456135974235e-03 0.0000000000000000e+00 4.5788456135974235e-03 -9.1226188797183722e-02 0.0000000000000000e+00 0.0000000000000000e+00 0.0000000000000000e+00 0.0000000000000000e+00  -7.6470409715121354e-02 4.8401220090826223e-03 0.0000000000000000e+00 4.8401220090826223e-03 -9.0492832984255436e-02 0.0000000000000000e+00 0.0000000000000000e+00 0.0000000000000000e+00 0.0000000000000000e+00  -7.5470842209548403e-02 5.0327345671334345e-03 0.0000000000000000e+00 5.0327345671334345e-03 -8.9643555205340689e-02 0.0000000000000000e+00 0.0000000000000000e+00 0.0000000000000000e+00 0.0000000000000000e+00  -7.4401173369931961e-02 5.1197395658619015e-03 0.0000000000000000e+00 5.1197395658619015e-03 -8.8644205349652783e-02 0.0000000000000000e+00 0.0000000000000000e+00 0.0000000000000000e+00 0.0000000000000000e+00  -7.3274512275188164e-02 5.0553014253991776e-03 0.0000000000000000e+00 5.0553014253991776e-03 -8.7449045681148294e-02 0.0000000000000000e+00 0.0000000000000000e+00 0.0000000000000000e+00 0.0000000000000000e+00  -7.2109413279779155e-02 4.7826019355230653e-03 0.0000000000000000e+00 4.7826019355230653e-03 -8.5999283530340517e-02 0.0000000000000000e+00 0.0000000000000000e+00 0.0000000000000000e+00 0.0000000000000000e+00  -7.0931080668885094e-02 4.2309542960459788e-03 0.0000000000000000e+00 4.2309542960459788e-03 -8.4220824997534388e-02 0.0000000000000000e+00 0.0000000000000000e+00 0.0000000000000000e+00 0.0000000000000000e+00  -6.9773828660873116e-02 3.3124652295928336e-03 0.0000000000000000e+00 3.3124652295928336e-03 -8.2020620895855226e-02 0.0000000000000000e+00 0.0000000000000000e+00 0.0000000000000000e+00 0.0000000000000000e+00  -6.8685486603183424e-02 1.9190199406424766e-03 0.0000000000000000e+00 1.9190199406424766e-03 -7.9281010768426655e-02 0.0000000000000000e+00 0.0000000000000000e+00 0.0000000000000000e+00 0.0000000000000000e+00  -6.7734478790780164e-02 -7.9115269121758330e-05 0.0000000000000000e+00 -7.9115269121758330e-05 -7.5851614038294546e-02 0.0000000000000000e+00 0.0000000000000000e+00 0.0000000000000000e+00 0.0000000000000000e+00  -6.7020348530178728e-02 -2.8311016879710030e-03 0.0000000000000000e+00 -2.8311016879710030e-03 -7.1538578720872603e-02 0.0000000000000000e+00 0.0000000000000000e+00 0.0000000000000000e+00 0.0000000000000000e+00  -6.6688547229124248e-02 -6.4968569158909426e-03 0.0000000000000000e+00 -6.4968569158909426e-03 -6.6091445331769444e-02 0.0000000000000000e+00 0.0000000000000000e+00 0.0000000000000000e+00 0.0000000000000000e+00  -6.6949949896870836e-02 -1.1227586682912610e-02 0.0000000000000000e+00 -1.1227586682912610e-02 -5.9189006348314505e-02 0.0000000000000000e+00 0.0000000000000000e+00 0.0000000000000000e+00 0.0000000000000000e+00  -6.8105618021957109e-02 -1.7129883362223042e-02 0.0000000000000000e+00 -1.7129883362223042e-02 -5.0426767430595480e-02 0.0000000000000000e+00 0.0000000000000000e+00 0.0000000000000000e+00 0.0000000000000000e+00  -7.0571411320673183e-02 -2.4203285615771279e-02 0.0000000000000000e+00 -2.4203285615771279e-02 -3.9316237344626775e-02 0.0000000000000000e+00 0.0000000000000000e+00 0.0000000000000000e+00 0.0000000000000000e+00  -7.4903894209137484e-02 -3.2251783965552790e-02 0.0000000000000000e+00 -3.2251783965552790e-02 -2.5301558540919249e-02 0.0000000000000000e+00 0.0000000000000000e+00 0.0000000000000000e+00 0.0000000000000000e+00  -8.1784035394390178e-02 -4.0721587118310629e-02 0.0000000000000000e+00 -4.0721587118310629e-02 -7.8477160820943376e-03 0.0000000000000000e+00 0.0000000000000000e+00 0.0000000000000000e+00 0.0000000000000000e+00  -9.1965530724976263e-02 -4.8618786842693010e-02 0.0000000000000000e+00 -4.8618786842693010e-02 1.3402271176063515e-02 0.0000000000000000e+00 0.0000000000000000e+00 0.0000000000000000e+00 0.0000000000000000e+00  -1.0611596792890604e-01 -5.4036609562943448e-02 0.0000000000000000e+00 -5.4036609562943448e-02 3.8316436850394861e-02 0.0000000000000000e+00 0.0000000000000000e+00 0.0000000000000000e+00 0.0000000000000000e+00  -1.2394579785647479e-01 -5.4890742322062154e-02 0.0000000000000000e+00 -5.4890742322062154e-02 6.5263614832983041e-02 0.0000000000000000e+00 0.0000000000000000e+00 0.0000000000000000e+00 0.0000000000000000e+00  -1.4460057199454096e-01 -4.7337557303996990e-02 0.0000000000000000e+00 -4.7337557303996990e-02 9.1646565407716041e-02 0.0000000000000000e+00 0.0000000000000000e+00 0.0000000000000000e+00 0.0000000000000000e+00  -1.5684275088355545e-01 -3.1743488696204053e-02 0.0000000000000000e+00 -3.1743488696204053e-02 1.0739665300381961e-01 0.0000000000000000e+00 0.0000000000000000e+00 0.0000000000000000e+00 0.0000000000000000e+00  -1.0361981634067235e-01 -9.0152189129894863e-03 0.0000000000000000e+00 -9.0152189129894863e-03 1.1366948209904196e-01 0.0000000000000000e+00 0.0000000000000000e+00 0.0000000000000000e+00 0.0000000000000000e+00  -2.4794496256316712e-01 5.9645061278616462e-03 0.0000000000000000e+00 5.9645061278616462e-03 1.0583990557871507e-01 0.0000000000000000e+00 0.0000000000000000e+00 0.0000000000000000e+00 0.0000000000000000e+00  -2.1050114602660888e-01 1.7475931274057978e-02 0.0000000000000000e+00 1.7475931274057978e-02 1.3944180536251558e-01 0.0000000000000000e+00 0.0000000000000000e+00 0.0000000000000000e+00 0.0000000000000000e+00  -8.0269803689887037e-02 3.5758402740947826e-02 0.0000000000000000e+00 3.5758402740947826e-02 9.4411757147048955e-02 0.0000000000000000e+00 0.0000000000000000e+00 0.0000000000000000e+00 0.0000000000000000e+00  -1.2860423675276397e-01 4.6788835946557576e-02 0.0000000000000000e+00 4.6788835946557576e-02 7.8914938050427333e-02 0.0000000000000000e+00 0.0000000000000000e+00 0.0000000000000000e+00 0.0000000000000000e+00  -1.1503521171308435e-01 5.2243970490694389e-02 0.0000000000000000e+00 5.2243970490694389e-02 5.4956980157065391e-02 0.0000000000000000e+00 0.0000000000000000e+00 0.0000000000000000e+00 0.0000000000000000e+00  -9.9343321914644525e-02 5.0627340106282302e-02 0.0000000000000000e+00 5.0627340106282302e-02 2.9173715905086921e-02 0.0000000000000000e+00 0.0000000000000000e+00 0.0000000000000000e+00 0.0000000000000000e+00  -8.6611320075784967e-02 4.4892708674554867e-02 0.0000000000000000e+00 4.4892708674554867e-02 5.1990038625688642e-03 0.0000000000000000e+00 0.0000000000000000e+00 0.0000000000000000e+00 0.0000000000000000e+00  -7.7532523865733546e-02 3.6977421506193493e-02 0.0000000000000000e+00 3.6977421506193493e-02 -1.5157174466518125e-02 0.0000000000000000e+00 0.0000000000000000e+00 0.0000000000000000e+00 0.0000000000000000e+00  -7.1570619196452648e-02 2.8664846563914003e-02 0.0000000000000000e+00 2.8664846563914003e-02 -3.1746934312062429e-02 0.0000000000000000e+00 0.0000000000000000e+00 0.0000000000000000e+00 0.0000000000000000e+00  -6.8004354357035293e-02 2.0897895835686492e-02 0.0000000000000000e+00 2.0897895835686492e-02 -4.4941475384212282e-02 0.0000000000000000e+00 0.0000000000000000e+00 0.0000000000000000e+00 0.0000000000000000e+00  -6.6172118650252673e-02 1.4176602857728673e-02 0.0000000000000000e+00 1.4176602857728673e-02 -5.5296680768003675e-02 0.0000000000000000e+00 0.0000000000000000e+00 0.0000000000000000e+00 0.0000000000000000e+00  -6.5532650769573667e-02 8.6556906877544287e-03 0.0000000000000000e+00 8.6556906877544287e-03 -6.3380162834997866e-02 0.0000000000000000e+00 0.0000000000000000e+00 0.0000000000000000e+00 0.0000000000000000e+00  -6.5685362564360875e-02 4.3044976084875095e-03 0.0000000000000000e+00 4.3044976084875095e-03 -6.9684423905723644e-02 0.0000000000000000e+00 0.0000000000000000e+00 0.0000000000000000e+00 0.0000000000000000e+00  -6.6344713939464020e-02 9.9568273292882582e-04 0.0000000000000000e+00 9.9568273292882582e-04 -7.4611377844817431e-02 0.0000000000000000e+00 0.0000000000000000e+00 0.0000000000000000e+00 0.0000000000000000e+00  -6.7314657370060108e-02 -1.4339771635343218e-03 0.0000000000000000e+00 -1.4339771635343218e-03 -7.8475763293805331e-02 0.0000000000000000e+00 0.0000000000000000e+00 0.0000000000000000e+00 0.0000000000000000e+00  -6.8463110740936708e-02 -3.1497820714911605e-03 0.0000000000000000e+00 -3.1497820714911605e-03 -8.1519796349621823e-02 0.0000000000000000e+00 0.0000000000000000e+00 0.0000000000000000e+00 0.0000000000000000e+00  -6.9702052992388255e-02 -4.3016743185140737e-03 0.0000000000000000e+00 -4.3016743185140737e-03 -8.3928751764675930e-02 0.0000000000000000e+00 0.0000000000000000e+00 0.0000000000000000e+00 0.0000000000000000e+00  -7.0972661961161601e-02 -5.0172758855683104e-03 0.0000000000000000e+00 -5.0172758855683104e-03 -8.5844931122353557e-02 0.0000000000000000e+00 0.0000000000000000e+00 0.0000000000000000e+00 0.0000000000000000e+00  -7.2234923234424459e-02 -5.4009916240958956e-03 0.0000000000000000e+00 -5.4009916240958956e-03 -8.7378806305167575e-02 0.0000000000000000e+00 0.0000000000000000e+00 0.0000000000000000e+00 0.0000000000000000e+00  -7.3460783263477797e-02 -5.5363138844809453e-03 0.0000000000000000e+00 -5.5363138844809435e-03 -8.8617244866251138e-02 0.0000000000000000e+00 0.0000000000000000e+00 0.0000000000000000e+00 0.0000000000000000e+00  -7.4630007062700135e-02 -5.4894254403126137e-03 0.0000000000000000e+00 -5.4894254403126197e-03 -8.9629128807938219e-02 0.0000000000000000e+00 0.0000000000000000e+00 0.0000000000000000e+00 0.0000000000000000e+00  -7.5727969180029456e-02 -5.3128844736646469e-03 0.0000000000000000e+00 -5.3128844736646461e-03 -9.0468899928275240e-02 0.0000000000000000e+00 0.0000000000000000e+00 0.0000000000000000e+00 0.0000000000000000e+00  -7.6744667760998933e-02 -5.0486882390186573e-03 0.0000000000000000e+00 -5.0486882390186573e-03 -9.1178675479457114e-02 0.0000000000000000e+00 0.0000000000000000e+00 0.0000000000000000e+00 0.0000000000000000e+00  -7.7674331080471434e-02 -4.7304302374710904e-03 0.0000000000000000e+00 -4.7304302374710904e-03 -9.1789589846135486e-02 0.0000000000000000e+00 0.0000000000000000e+00 0.0000000000000000e+00 0.0000000000000000e+00  -7.8515119798877625e-02 -4.3845961363764788e-03 0.0000000000000000e+00 -4.3845961363764788e-03 -9.2322920340147427e-02 0.0000000000000000e+00 0.0000000000000000e+00 0.0000000000000000e+00 0.0000000000000000e+00  -7.9268622883752582e-02 -4.0312635158130192e-03 0.0000000000000000e+00 -4.0312635158130192e-03 -9.2791359519929020e-02 0.0000000000000000e+00 0.0000000000000000e+00 0.0000000000000000e+00 0.0000000000000000e+00  -7.9939071765500261e-02 -3.6845545925698097e-03 0.0000000000000000e+00 -3.6845545925698097e-03 -9.3200548696203811e-02 0.0000000000000000e+00 0.0000000000000000e+00 0.0000000000000000e+00 0.0000000000000000e+00  -8.0532404562589061e-02 -3.3531392617259445e-03 0.0000000000000000e+00 -3.3531392617259445e-03 -9.3550755651302289e-02 0.0000000000000000e+00 0.0000000000000000e+00 0.0000000000000000e+00 0.0000000000000000e+00  -8.1055450208896651e-02 -3.0409328147585173e-03 0.0000000000000000e+00 -3.0409328147585173e-03 -9.3838428575505839e-02 0.0000000000000000e+00 0.0000000000000000e+00 0.0000000000000000e+00 0.0000000000000000e+00  -8.1515546110745241e-02 -2.7479409079370748e-03 0.0000000000000000e+00 -2.7479409079370748e-03 -9.4057322719190414e-02 0.0000000000000000e+00 0.0000000000000000e+00 0.0000000000000000e+00 0.0000000000000000e+00  -8.1920866311020218e-02 -2.4710421458331829e-03 0.0000000000000000e+00 -2.4710421458331829e-03 -9.4198966967483241e-02 0.0000000000000000e+00 0.0000000000000000e+00 0.0000000000000000e+00 0.0000000000000000e+00  -8.2281668914068282e-02 -2.2044192363814942e-03 0.0000000000000000e+00 -2.2044192363814942e-03 -9.4252368069945427e-02 0.0000000000000000e+00 0.0000000000000000e+00 0.0000000000000000e+00 0.0000000000000000e+00  -8.2612651895873343e-02 -1.9393716433015542e-03 0.0000000000000000e+00 -1.9393716433015542e-03 -9.4202963901007061e-02 0.0000000000000000e+00 0.0000000000000000e+00 0.0000000000000000e+00 0.0000000000000000e+00  -8.2936686006606253e-02 -1.6633541812615287e-03 0.0000000000000000e+00 -1.6633541812615287e-03 -9.4030912154340049e-02 0.0000000000000000e+00 0.0000000000000000e+00 0.0000000000000000e+00 0.0000000000000000e+00  -8.3290474379196636e-02 -1.3583205891772407e-03 0.0000000000000000e+00 -1.3583205891772407e-03 -9.3708759212928941e-02 0.0000000000000000e+00 0.0000000000000000e+00 0.0000000000000000e+00 0.0000000000000000e+00  -8.3733236160214608e-02 -9.9868737130762186e-04 0.0000000000000000e+00 -9.9868737130762186e-04 -9.3198506077338664e-02 0.0000000000000000e+00 0.0000000000000000e+00 0.0000000000000000e+00 0.0000000000000000e+00  -8.4359792643004194e-02 -5.5012382026362538e-04 0.0000000000000000e+00 -5.5012382026362538e-04 -9.2448677286621511e-02 0.0000000000000000e+00 0.0000000000000000e+00 0.0000000000000000e+00 0.0000000000000000e+00  -8.5322689582534181e-02 2.8194681750203296e-05 0.0000000000000000e+00 2.8194681750203316e-05 -9.1390461132015308e-02 0.0000000000000000e+00 0.0000000000000000e+00 0.0000000000000000e+00 0.0000000000000000e+00  -8.6868534306290240e-02 7.7473211181685318e-04 0.0000000000000000e+00 7.7473211181685296e-04 -8.9936502160914394e-02 0.0000000000000000e+00 0.0000000000000000e+00 0.0000000000000000e+00 0.0000000000000000e+00  -8.9407110037481349e-02 1.6971163416582670e-03 0.0000000000000000e+00 1.6971163416582670e-03 -8.7983988721322598e-02 0.0000000000000000e+00 0.0000000000000000e+00 0.0000000000000000e+00 0.0000000000000000e+00  -9.3558350786602018e-02 2.7271967581232195e-03 0.0000000000000000e+00 2.7271967581232195e-03 -8.5471351899500975e-02 0.0000000000000000e+00 0.0000000000000000e+00 0.0000000000000000e+00 0.0000000000000000e+00  -1.0074979496196852e-01 3.5979745230411342e-03 0.0000000000000000e+00 3.5979745230411342e-03 -8.1907993410693061e-02 0.0000000000000000e+00 0.0000000000000000e+00 0.0000000000000000e+00 0.0000000000000000e+00  -1.1002499461270092e-01 6.2978214005275758e-03 0.0000000000000000e+00 6.2978214005275758e-03 -7.7878490947167103e-02 0.0000000000000000e+00 0.0000000000000000e+00 0.0000000000000000e+00 0.0000000000000000e+00  -4.2330268391970134e-02 2.4261287618526042e-02 0.0000000000000000e+00 2.4261287618526042e-02 -8.0594479537965891e-02 0.0000000000000000e+00 0.0000000000000000e+00 0.0000000000000000e+00 0.0000000000000000e+00  -4.0058237754941645e-01 2.5733448041869163e-02 0.0000000000000000e+00 2.5733448041869163e-02 -1.3871990582218491e-01 0.0000000000000000e+00 0.0000000000000000e+00 0.0000000000000000e+00 0.0000000000000000e+00  -1.6588244398248581e-01 -3.5107701290368533e-02 0.0000000000000000e+00 -3.5107701290368533e-02 -2.3836075276273913e-01 0.0000000000000000e+00 0.0000000000000000e+00 0.0000000000000000e+00 0.0000000000000000e+00  1.3172182345162381e-02 2.5020559373817972e-03 0.0000000000000000e+00 2.5020559373817967e-03 1.0224828242563634e-03 0.0000000000000000e+00 0.0000000000000000e+00 0.0000000000000000e+00 0.0000000000000000e+00  8.1591795970511784e-03 4.0843025693467287e-05 0.0000000000000000e+00 4.0843025693467328e-05 7.6869467468944344e-03 0.0000000000000000e+00 0.0000000000000000e+00 0.0000000000000000e+00 0.0000000000000000e+00  7.9698547163140135e-03 1.5183406181529279e-06 0.0000000000000000e+00 1.5183406181529249e-06 7.9167723186443131e-03 0.0000000000000000e+00 0.0000000000000000e+00 0.0000000000000000e+00 0.0000000000000000e+00  7.9478843867411986e-03 -1.7562721397995860e-05 0.0000000000000000e+00 -1.7562721397995860e-05 7.9197150841323182e-03 0.0000000000000000e+00 0.0000000000000000e+00 0.0000000000000000e+00 0.0000000000000000e+00  7.9403183972002571e-03 -4.2142282734781311e-05 0.0000000000000000e+00 -4.2142282734781311e-05 7.9389451578492070e-03 0.0000000000000000e+00 0.0000000000000000e+00 0.0000000000000000e+00 0.0000000000000000e+00  7.9673544179834580e-03 4.3465130663843899e-05 0.0000000000000000e+00 4.3465130663843899e-05 7.9652833869333604e-03 0.0000000000000000e+00 0.0000000000000000e+00 0.0000000000000000e+00 0.0000000000000000e+00  7.9772059014966822e-03 1.8128854996385750e-05 0.0000000000000000e+00 1.8128854996385750e-05 7.9437633890282779e-03 0.0000000000000000e+00 0.0000000000000000e+00 0.0000000000000000e+00 0.0000000000000000e+00  8.0016917268954865e-03 -4.3504556203394777e-06 0.0000000000000000e+00 -4.3504556203394777e-06 7.9412057609894952e-03 0.0000000000000000e+00 0.0000000000000000e+00 0.0000000000000000e+00 0.0000000000000000e+00  8.3468775639062055e-03 -1.0046648482909881e-04 0.0000000000000000e+00 -1.0046648482909881e-04 7.5776984557039450e-03 0.0000000000000000e+00 0.0000000000000000e+00 0.0000000000000000e+00 0.0000000000000000e+00  1.3564623438053864e-02 -8.5838713030615102e-04 0.0000000000000000e+00 -8.5838713030615102e-04 -1.3603488543963995e-03 0.0000000000000000e+00 0.0000000000000000e+00 0.0000000000000000e+00 0.0000000000000000e+00  -2.9200898478891713e-01 1.2949010943404582e-02 0.0000000000000000e+00 1.2949010943404582e-02 -3.3298582142642530e-01 0.0000000000000000e+00 0.0000000000000000e+00 0.0000000000000000e+00 0.0000000000000000e+00  -1.8240221327918490e-01 -7.3255443304781773e-06 0.0000000000000000e+00 -7.3255443304781773e-06 -1.0074332159990807e-02 0.0000000000000000e+00 0.0000000000000000e+00 0.0000000000000000e+00 0.0000000000000000e+00  -1.8312898659286331e-02 -3.6736787061004098e-02 0.0000000000000000e+00 -3.6736787061004098e-02 -1.1242036988271939e-01 0.0000000000000000e+00 0.0000000000000000e+00 0.0000000000000000e+00 0.0000000000000000e+00  -9.6550067727859332e-02 -2.1444234741890233e-02 0.0000000000000000e+00 -2.1444234741890233e-02 -8.8513875581720358e-02 0.0000000000000000e+00 0.0000000000000000e+00 0.0000000000000000e+00 0.0000000000000000e+00  -9.4121564390683685e-02 -1.2646662250366468e-02 0.0000000000000000e+00 -1.2646662250366468e-02 -8.6169850929881969e-02 0.0000000000000000e+00 0.0000000000000000e+00 0.0000000000000000e+00 0.0000000000000000e+00  -8.9161836797294308e-02 -7.7296806949953981e-03 0.0000000000000000e+00 -7.7296806949953981e-03 -8.8222176512900166e-02 0.0000000000000000e+00 0.0000000000000000e+00 0.0000000000000000e+00 0.0000000000000000e+00  -8.6235208969804272e-02 -4.6440857654569748e-03 0.0000000000000000e+00 -4.6440857654569748e-03 -9.0094336652308635e-02 0.0000000000000000e+00 0.0000000000000000e+00 0.0000000000000000e+00 0.0000000000000000e+00  -8.4572656644497410e-02 -2.5850213428595661e-03 0.0000000000000000e+00 -2.5850213428595661e-03 -9.1533124569678659e-02 0.0000000000000000e+00 0.0000000000000000e+00 0.0000000000000000e+00 0.0000000000000000e+00  -8.3612978117676234e-02 -1.1991273116238627e-03 0.0000000000000000e+00 -1.1991273116238627e-03 -9.2602764384317415e-02 0.0000000000000000e+00 0.0000000000000000e+00 0.0000000000000000e+00 0.0000000000000000e+00  -8.3036047880911207e-02 -2.6021591974233557e-04 0.0000000000000000e+00 -2.6021591974233557e-04 -9.3380071286493227e-02 0.0000000000000000e+00 0.0000000000000000e+00 0.0000000000000000e+00 0.0000000000000000e+00  -8.2653988337925394e-02 3.8590645417014229e-04 0.0000000000000000e+00 3.8590645417014229e-04 -9.3930108841035795e-02 0.0000000000000000e+00 0.0000000000000000e+00 0.0000000000000000e+00 0.0000000000000000e+00  -8.2358111973343098e-02 8.4609929842151515e-04 0.0000000000000000e+00 8.4609929842151515e-04 -9.4299304815702797e-02 0.0000000000000000e+00 0.0000000000000000e+00 0.0000000000000000e+00 0.0000000000000000e+00  -8.2084519500572842e-02 1.1926866542561628e-03 0.0000000000000000e+00 1.1926866542561628e-03 -9.4520428233175954e-02 0.0000000000000000e+00 0.0000000000000000e+00 0.0000000000000000e+00 0.0000000000000000e+00  -8.1795257805030427e-02 1.4735046520280716e-03 0.0000000000000000e+00 1.4735046520280716e-03 -9.4616846081548855e-02 0.0000000000000000e+00 0.0000000000000000e+00 0.0000000000000000e+00 0.0000000000000000e+00  -8.1467472660093368e-02 1.7195580810526574e-03 0.0000000000000000e+00 1.7195580810526574e-03 -9.4605617884108997e-02 0.0000000000000000e+00 0.0000000000000000e+00 0.0000000000000000e+00 0.0000000000000000e+00  -8.1087134903468985e-02 1.9506271234868402e-03 0.0000000000000000e+00 1.9506271234868402e-03 -9.4499390380867965e-02 0.0000000000000000e+00 0.0000000000000000e+00 0.0000000000000000e+00 0.0000000000000000e+00  -8.0645248043277648e-02 2.1790608590789027e-03 0.0000000000000000e+00 2.1790608590789027e-03 -9.4307576640281332e-02 0.0000000000000000e+00 0.0000000000000000e+00 0.0000000000000000e+00 0.0000000000000000e+00  -8.0135557032285448e-02 2.4120725606897719e-03 0.0000000000000000e+00 2.4120725606897719e-03 -9.4036994618110659e-02 0.0000000000000000e+00 0.0000000000000000e+00 0.0000000000000000e+00 0.0000000000000000e+00  -7.9553254104394969e-02 2.6528863366806457e-03 0.0000000000000000e+00 2.6528863366806457e-03 -9.3692035248160443e-02 0.0000000000000000e+00 0.0000000000000000e+00 0.0000000000000000e+00 0.0000000000000000e+00  -7.8894443044983442e-02 2.9010668932947107e-03 0.0000000000000000e+00 2.9010668932947107e-03 -9.3274356778847614e-02 0.0000000000000000e+00 0.0000000000000000e+00 0.0000000000000000e+00 0.0000000000000000e+00  -7.8156225128041310e-02 3.1523420197930195e-03 0.0000000000000000e+00 3.1523420197930195e-03 -9.2782102096670635e-02 0.0000000000000000e+00 0.0000000000000000e+00 0.0000000000000000e+00 0.0000000000000000e+00  -7.7337278286580588e-02 3.3981761953090460e-03 0.0000000000000000e+00 3.3981761953090460e-03 -9.2208690904214713e-02 0.0000000000000000e+00 0.0000000000000000e+00 0.0000000000000000e+00 0.0000000000000000e+00  -7.6438777554005216e-02 3.6252670486474543e-03 0.0000000000000000e+00 3.6252670486474543e-03 -9.1541302692150148e-02 0.0000000000000000e+00 0.0000000000000000e+00 0.0000000000000000e+00 0.0000000000000000e+00  -7.5465495518381581e-02 3.8150212259366713e-03 0.0000000000000000e+00 3.8150212259366713e-03 -9.0759200409773214e-02 0.0000000000000000e+00 0.0000000000000000e+00 0.0000000000000000e+00 0.0000000000000000e+00  -7.4426957889108955e-02 3.9429487609469599e-03 0.0000000000000000e+00 3.9429487609469599e-03 -8.9832019995067028e-02 0.0000000000000000e+00 0.0000000000000000e+00 0.0000000000000000e+00 0.0000000000000000e+00  -7.3338618596150068e-02 3.9778329862230751e-03 0.0000000000000000e+00 3.9778329862230751e-03 -8.8718064343058956e-02 0.0000000000000000e+00 0.0000000000000000e+00 0.0000000000000000e+00 0.0000000000000000e+00  -7.2223145309539785e-02 3.8805222883596057e-03 0.0000000000000000e+00 3.8805222883596057e-03 -8.7362514739618674e-02 0.0000000000000000e+00 0.0000000000000000e+00 0.0000000000000000e+00 0.0000000000000000e+00  -7.1112038376698897e-02 3.6022738846440733e-03 0.0000000000000000e+00 3.6022738846440733e-03 -8.5695349706042478e-02 0.0000000000000000e+00 0.0000000000000000e+00 0.0000000000000000e+00 0.0000000000000000e+00  -7.0047909267543076e-02 3.0827648246209891e-03 0.0000000000000000e+00 3.0827648246209891e-03 -8.3628686955741785e-02 0.0000000000000000e+00 0.0000000000000000e+00 0.0000000000000000e+00 0.0000000000000000e+00  -6.9087792780320997e-02 2.2481668943598286e-03 0.0000000000000000e+00 2.2481668943598286e-03 -8.1053277123127612e-02 0.0000000000000000e+00 0.0000000000000000e+00 0.0000000000000000e+00 0.0000000000000000e+00  -6.8307848362836682e-02 1.0100560327517029e-03 0.0000000000000000e+00 1.0100560327517029e-03 -7.7834003550815448e-02 0.0000000000000000e+00 0.0000000000000000e+00 0.0000000000000000e+00 0.0000000000000000e+00  -6.7809713434124577e-02 -7.3359540035555185e-04 0.0000000000000000e+00 -7.3359540035555185e-04 -7.3804502592215618e-02 0.0000000000000000e+00 0.0000000000000000e+00 0.0000000000000000e+00 0.0000000000000000e+00  -6.7728587701899462e-02 -3.0934892259383414e-03 0.0000000000000000e+00 -3.0934892259383414e-03 -6.8761452804442902e-02 0.0000000000000000e+00 0.0000000000000000e+00 0.0000000000000000e+00 0.0000000000000000e+00  -6.8242749089452881e-02 -6.1775062117996197e-03 0.0000000000000000e+00 -6.1775062117996197e-03 -6.2459813683134267e-02 0.0000000000000000e+00 0.0000000000000000e+00 0.0000000000000000e+00 0.0000000000000000e+00  -6.9583566418831760e-02 -1.0069186607139199e-02 0.0000000000000000e+00 -1.0069186607139199e-02 -5.4611422387872213e-02 0.0000000000000000e+00 0.0000000000000000e+00 0.0000000000000000e+00 0.0000000000000000e+00  -7.2043301925233227e-02 -1.4791698796988020e-02 0.0000000000000000e+00 -1.4791698796988020e-02 -4.4891721217813610e-02 0.0000000000000000e+00 0.0000000000000000e+00 0.0000000000000000e+00 0.0000000000000000e+00  -7.5976386720700576e-02 -2.0253980403372378e-02 0.0000000000000000e+00 -2.0253980403372378e-02 -3.2961613538590222e-02 0.0000000000000000e+00 0.0000000000000000e+00 0.0000000000000000e+00 0.0000000000000000e+00  -8.1781844722897512e-02 -2.6172945637481529e-02 0.0000000000000000e+00 -2.6172945637481529e-02 -1.8519733616490057e-02 0.0000000000000000e+00 0.0000000000000000e+00 0.0000000000000000e+00 0.0000000000000000e+00  -8.9853297073817021e-02 -3.1991588347008902e-02 0.0000000000000000e+00 -3.1991588347008902e-02 -1.4000963619574432e-03 0.0000000000000000e+00 0.0000000000000000e+00 0.0000000000000000e+00 0.0000000000000000e+00  -1.0046788968616781e-01 -3.6765134969209086e-02 0.0000000000000000e+00 -3.6765134969209086e-02 1.8258739908197878e-02 0.0000000000000000e+00 0.0000000000000000e+00 0.0000000000000000e+00 0.0000000000000000e+00  -1.1353258832299359e-01 -3.9223500745710196e-02 0.0000000000000000e+00 -3.9223500745710196e-02 3.9709021228365178e-02 0.0000000000000000e+00 0.0000000000000000e+00 0.0000000000000000e+00 0.0000000000000000e+00  -1.2837886385386429e-01 -3.7728457301421763e-02 0.0000000000000000e+00 -3.7728457301421763e-02 6.1401049107425255e-02 0.0000000000000000e+00 0.0000000000000000e+00 0.0000000000000000e+00 0.0000000000000000e+00  -1.4270418105199414e-01 -3.1312746554731978e-02 0.0000000000000000e+00 -3.1312746554731978e-02 8.0195160591054387e-02 0.0000000000000000e+00 0.0000000000000000e+00 0.0000000000000000e+00 0.0000000000000000e+00  -1.4953553735472108e-01 -1.9895710544481453e-02 0.0000000000000000e+00 -1.9895710544481453e-02 9.1118273928401800e-02 0.0000000000000000e+00 0.0000000000000000e+00 0.0000000000000000e+00 0.0000000000000000e+00  -9.0279440299792818e-02 -6.6203018013518801e-03 0.0000000000000000e+00 -6.6203018013518801e-03 9.5148310932139837e-02 0.0000000000000000e+00 0.0000000000000000e+00 0.0000000000000000e+00 0.0000000000000000e+00  -2.3270429211321239e-01 3.1938976096723888e-03 0.0000000000000000e+00 3.1938976096723888e-03 1.0166680784182279e-01 0.0000000000000000e+00 0.0000000000000000e+00 0.0000000000000000e+00 0.0000000000000000e+00  -2.0860262876168897e-01 1.2978640861468802e-02 0.0000000000000000e+00 1.2978640861468802e-02 1.1926153658664715e-01 0.0000000000000000e+00 0.0000000000000000e+00 0.0000000000000000e+00 0.0000000000000000e+00  -7.6348237127002228e-02 2.4656036295214546e-02 0.0000000000000000e+00 2.4656036295214546e-02 8.3820415357491004e-02 0.0000000000000000e+00 0.0000000000000000e+00 0.0000000000000000e+00 0.0000000000000000e+00  -1.2808362489966393e-01 3.2732342914022987e-02 0.0000000000000000e+00 3.2732342914022987e-02 7.0091482925836848e-02 0.0000000000000000e+00 0.0000000000000000e+00 0.0000000000000000e+00 0.0000000000000000e+00  -1.1958453451454791e-01 3.7003575068484347e-02 0.0000000000000000e+00 3.7003575068484347e-02 5.2695319272486406e-02 0.0000000000000000e+00 0.0000000000000000e+00 0.0000000000000000e+00 0.0000000000000000e+00  -1.0629040126115091e-01 3.7285323018787550e-02 0.0000000000000000e+00 3.7285323018787550e-02 3.1260214904465018e-02 0.0000000000000000e+00 0.0000000000000000e+00 0.0000000000000000e+00 0.0000000000000000e+00  -9.4439604256005810e-02 3.4240581618032326e-02 0.0000000000000000e+00 3.4240581618032326e-02 1.0318045821810687e-02 0.0000000000000000e+00 0.0000000000000000e+00 0.0000000000000000e+00 0.0000000000000000e+00  -8.4875123474212250e-02 2.9245140676733790e-02 0.0000000000000000e+00 2.9245140676733790e-02 -8.7065063773556460e-03 0.0000000000000000e+00 0.0000000000000000e+00 0.0000000000000000e+00 0.0000000000000000e+00  -7.7722154579010716e-02 2.3435598863410841e-02 0.0000000000000000e+00 2.3435598863410841e-02 -2.5127578399456011e-02 0.0000000000000000e+00 0.0000000000000000e+00 0.0000000000000000e+00 0.0000000000000000e+00  -7.2719885363381628e-02 1.7667449384497401e-02 0.0000000000000000e+00 1.7667449384497401e-02 -3.8852231938187071e-02 0.0000000000000000e+00 0.0000000000000000e+00 0.0000000000000000e+00 0.0000000000000000e+00  -6.9480635215672784e-02 1.2439506548576276e-02 0.0000000000000000e+00 1.2439506548576276e-02 -5.0080979639176612e-02 0.0000000000000000e+00 0.0000000000000000e+00 0.0000000000000000e+00 0.0000000000000000e+00  -6.7610685735293191e-02 7.9921711146775393e-03 0.0000000000000000e+00 7.9921711146775393e-03 -5.9139873904609619e-02 0.0000000000000000e+00 0.0000000000000000e+00 0.0000000000000000e+00 0.0000000000000000e+00  -6.6762775385011117e-02 4.3864351425908377e-03 0.0000000000000000e+00 4.3864351425908377e-03 -6.6382720855961058e-02 0.0000000000000000e+00 0.0000000000000000e+00 0.0000000000000000e+00 0.0000000000000000e+00  -6.6653927084217857e-02 1.5789188992296774e-03 0.0000000000000000e+00 1.5789188992296774e-03 -7.2140756813961801e-02 0.0000000000000000e+00 0.0000000000000000e+00 0.0000000000000000e+00 0.0000000000000000e+00  -6.7063374918518506e-02 -5.2626717761358028e-04 0.0000000000000000e+00 -5.2626717761358028e-04 -7.6702958861367604e-02 0.0000000000000000e+00 0.0000000000000000e+00 0.0000000000000000e+00 0.0000000000000000e+00  -6.7823767486937900e-02 -2.0434200814727628e-03 0.0000000000000000e+00 -2.0434200814727628e-03 -8.0311440829682487e-02 0.0000000000000000e+00 0.0000000000000000e+00 0.0000000000000000e+00 0.0000000000000000e+00  -6.8810376860880582e-02 -3.0854498192614838e-03 0.0000000000000000e+00 -3.0854498192614838e-03 -8.3164525521653432e-02 0.0000000000000000e+00 0.0000000000000000e+00 0.0000000000000000e+00 0.0000000000000000e+00  -6.9931097973719020e-02 -3.7538216268198409e-03 0.0000000000000000e+00 -3.7538216268198409e-03 -8.5422684997617016e-02 0.0000000000000000e+00 0.0000000000000000e+00 0.0000000000000000e+00 0.0000000000000000e+00  -7.1118133883976184e-02 -4.1347420490218910e-03 0.0000000000000000e+00 -4.1347420490218910e-03 -8.7215006758581348e-02 0.0000000000000000e+00 0.0000000000000000e+00 0.0000000000000000e+00 0.0000000000000000e+00  -7.2321593065214379e-02 -4.2989758797077355e-03 0.0000000000000000e+00 -4.2989758797077364e-03 -8.8645010633353311e-02 0.0000000000000000e+00 0.0000000000000000e+00 0.0000000000000000e+00 0.0000000000000000e+00  -7.3504849870267217e-02 -4.3034857398707707e-03 0.0000000000000000e+00 -4.3034857398707707e-03 -8.9795368454420821e-02 0.0000000000000000e+00 0.0000000000000000e+00 0.0000000000000000e+00 0.0000000000000000e+00  -7.4641351997351571e-02 -4.1937021543836401e-03 0.0000000000000000e+00 -4.1937021543836401e-03 -9.0731492035853484e-02 0.0000000000000000e+00 0.0000000000000000e+00 0.0000000000000000e+00 0.0000000000000000e+00  -7.5712483388059693e-02 -4.0057080669084226e-03 0.0000000000000000e+00 -4.0057080669084226e-03 -9.1504192887625568e-02 0.0000000000000000e+00 0.0000000000000000e+00 0.0000000000000000e+00 0.0000000000000000e+00  -7.6706086179018321e-02 -3.7679878171844603e-03 0.0000000000000000e+00 -3.7679878171844603e-03 -9.2151723596259033e-02 0.0000000000000000e+00 0.0000000000000000e+00 0.0000000000000000e+00 0.0000000000000000e+00  -7.7615303692605220e-02 -3.5026622010366094e-03 0.0000000000000000e+00 -3.5026622010366094e-03 -9.2701509226443199e-02 0.0000000000000000e+00 0.0000000000000000e+00 0.0000000000000000e+00 0.0000000000000000e+00  -7.8437516384629938e-02 -3.2263065962961691e-03 0.0000000000000000e+00 -3.2263065962961691e-03 -9.3171792571003456e-02 0.0000000000000000e+00 0.0000000000000000e+00 0.0000000000000000e+00 0.0000000000000000e+00  -7.9173279028636551e-02 -2.9505246273937892e-03 0.0000000000000000e+00 -2.9505246273937892e-03 -9.3573287150554740e-02 0.0000000000000000e+00 0.0000000000000000e+00 0.0000000000000000e+00 0.0000000000000000e+00  -7.9825296273953406e-02 -2.6824323426478990e-03 0.0000000000000000e+00 -2.6824323426478990e-03 -9.3910802058590662e-02 0.0000000000000000e+00 0.0000000000000000e+00 0.0000000000000000e+00 0.0000000000000000e+00  -8.0397564136860639e-02 -2.4251206617552528e-03 0.0000000000000000e+00 -2.4251206617552528e-03 -9.4184713789384200e-02 0.0000000000000000e+00 0.0000000000000000e+00 0.0000000000000000e+00 0.0000000000000000e+00  -8.0894841590454389e-02 -2.1780426590465138e-03 0.0000000000000000e+00 -2.1780426590465138e-03 -9.4392134376464903e-02 0.0000000000000000e+00 0.0000000000000000e+00 0.0000000000000000e+00 0.0000000000000000e+00  -8.1322606844669965e-02 -1.9371545286550971e-03 0.0000000000000000e+00 -1.9371545286550971e-03 -9.4527658944369319e-02 0.0000000000000000e+00 0.0000000000000000e+00 0.0000000000000000e+00 0.0000000000000000e+00  -8.1687628794137587e-02 -1.6945508244438229e-03 0.0000000000000000e+00 -1.6945508244438229e-03 -9.4583640217514517e-02 0.0000000000000000e+00 0.0000000000000000e+00 0.0000000000000000e+00 0.0000000000000000e+00  -8.1999291725759635e-02 -1.4372825688128462e-03 0.0000000000000000e+00 -1.4372825688128462e-03 -9.4549993352066805e-02 0.0000000000000000e+00 0.0000000000000000e+00 0.0000000000000000e+00 0.0000000000000000e+00  -8.2271912551970791e-02 -1.1450246726139475e-03 0.0000000000000000e+00 -1.1450246726139475e-03 -9.4413535222919662e-02 0.0000000000000000e+00 0.0000000000000000e+00 0.0000000000000000e+00 0.0000000000000000e+00  -8.2528555240762455e-02 -7.8624224344971171e-04 0.0000000000000000e+00 -7.8624224344971171e-04 -9.4156789279509434e-02 0.0000000000000000e+00 0.0000000000000000e+00 0.0000000000000000e+00 0.0000000000000000e+00  -8.2807324286854264e-02 -3.1254217287754465e-04 0.0000000000000000e+00 -3.1254217287754465e-04 -9.3756081268965619e-02 0.0000000000000000e+00 0.0000000000000000e+00 0.0000000000000000e+00 0.0000000000000000e+00  -8.3172235875849529e-02 3.4902166353356997e-04 0.0000000000000000e+00 3.4902166353356997e-04 -9.3178438558676899e-02 0.0000000000000000e+00 0.0000000000000000e+00 0.0000000000000000e+00 0.0000000000000000e+00  -8.3732101122874242e-02 1.3060206683226262e-03 0.0000000000000000e+00 1.3060206683226262e-03 -9.2377324186120144e-02 0.0000000000000000e+00 0.0000000000000000e+00 0.0000000000000000e+00 0.0000000000000000e+00  -8.4675009618795788e-02 2.7134393323960089e-03 0.0000000000000000e+00 2.7134393323960089e-03 -9.1287641353085314e-02 0.0000000000000000e+00 0.0000000000000000e+00 0.0000000000000000e+00 0.0000000000000000e+00  -8.6321544906092659e-02 4.7982497451650018e-03 0.0000000000000000e+00 4.7982497451650018e-03 -8.9832588564604479e-02 0.0000000000000000e+00 0.0000000000000000e+00 0.0000000000000000e+00 0.0000000000000000e+00  -8.9233798310928508e-02 7.9143249222976848e-03 0.0000000000000000e+00 7.9143249222976848e-03 -8.7948178575256816e-02 0.0000000000000000e+00 0.0000000000000000e+00 0.0000000000000000e+00 0.0000000000000000e+00  -9.4180107162358653e-02 1.2865597947853118e-02 0.0000000000000000e+00 1.2865597947853118e-02 -8.5890658302800571e-02 0.0000000000000000e+00 0.0000000000000000e+00 0.0000000000000000e+00 0.0000000000000000e+00  -9.6583058923494530e-02 2.1689737399840026e-02 0.0000000000000000e+00 2.1689737399840026e-02 -8.8245182289992466e-02 0.0000000000000000e+00 0.0000000000000000e+00 0.0000000000000000e+00 0.0000000000000000e+00  -1.8285352931934042e-02 3.6956124704203286e-02 0.0000000000000000e+00 3.6956124704203286e-02 -1.1209719593949521e-01 0.0000000000000000e+00 0.0000000000000000e+00 0.0000000000000000e+00 0.0000000000000000e+00  -1.8308314991582389e-01 3.3451353581360951e-04 0.0000000000000000e+00 3.3451353581360945e-04 -1.0208336285397995e-02 0.0000000000000000e+00 0.0000000000000000e+00 0.0000000000000000e+00 0.0000000000000000e+00  -2.9158533075011878e-01 -1.2906322619283993e-02 0.0000000000000000e+00 -1.2906322619283995e-02 -3.3271476266689354e-01 0.0000000000000000e+00 0.0000000000000000e+00 0.0000000000000000e+00 0.0000000000000000e+00  1.3529925034225763e-02 8.3134670706112900e-04 0.0000000000000000e+00 8.3134670706112922e-04 -1.4287423799260815e-03 0.0000000000000000e+00 0.0000000000000000e+00 0.0000000000000000e+00 0.0000000000000000e+00  8.3179789951257858e-03 9.3942000607977538e-05 0.0000000000000000e+00 9.3942000607977525e-05 7.5469947301820958e-03 0.0000000000000000e+00 0.0000000000000000e+00 0.0000000000000000e+00 0.0000000000000000e+00  8.0064058458806913e-03 1.6923547278414568e-06 0.0000000000000000e+00 1.6923547278414589e-06 7.9431104793264602e-03 0.0000000000000000e+00 0.0000000000000000e+00 0.0000000000000000e+00 0.0000000000000000e+00  7.9737856947939730e-03 -1.3396647780084630e-05 0.0000000000000000e+00 -1.3396647780084630e-05 7.9387920489902737e-03 0.0000000000000000e+00 0.0000000000000000e+00 0.0000000000000000e+00 0.0000000000000000e+00  7.9638868367968643e-03 -3.2049457498167088e-05 0.0000000000000000e+00 -3.2049457498167088e-05 7.9614173179055839e-03 0.0000000000000000e+00 0.0000000000000000e+00 0.0000000000000000e+00 0.0000000000000000e+00  7.9930962410623783e-03 3.2137305372179631e-05 0.0000000000000000e+00 3.2137305372179631e-05 7.9900829096320805e-03 0.0000000000000000e+00 0.0000000000000000e+00 0.0000000000000000e+00 0.0000000000000000e+00  8.0052047895987216e-03 1.2953404165619562e-05 0.0000000000000000e+00 1.2953404165619562e-05 7.9629953308217316e-03 0.0000000000000000e+00 0.0000000000000000e+00 0.0000000000000000e+00 0.0000000000000000e+00  8.0549869460088061e-03 -6.5728761349160444e-06 0.0000000000000000e+00 -6.5728761349160444e-06 7.9793399533775785e-03 0.0000000000000000e+00 0.0000000000000000e+00 0.0000000000000000e+00 0.0000000000000000e+00  8.4703748822270181e-03 -8.0199013348770761e-05 0.0000000000000000e+00 -8.0199013348770761e-05 7.3725836316083622e-03 0.0000000000000000e+00 0.0000000000000000e+00 0.0000000000000000e+00 0.0000000000000000e+00  1.2098436595460232e-02 -1.4814961981130450e-04 0.0000000000000000e+00 -1.4814961981130450e-04 -3.3882061857664334e-03 0.0000000000000000e+00 0.0000000000000000e+00 0.0000000000000000e+00 0.0000000000000000e+00  -3.8690979816631305e-01 2.0567082883224050e-03 0.0000000000000000e+00 2.0567082883224050e-03 -3.9186177110864939e-01 0.0000000000000000e+00 0.0000000000000000e+00 0.0000000000000000e+00 0.0000000000000000e+00  -6.6577022715212292e-02 1.0971405930769880e-02 0.0000000000000000e+00 1.0971405930769880e-02 7.3883489042085415e-02 0.0000000000000000e+00 0.0000000000000000e+00 0.0000000000000000e+00 0.0000000000000000e+00  9.9654917212239520e-03 -2.7347347245757707e-02 0.0000000000000000e+00 -2.7347347245757707e-02 -1.1925940327339102e-01 0.0000000000000000e+00 0.0000000000000000e+00 0.0000000000000000e+00 0.0000000000000000e+00  -7.3570281377774160e-02 -2.2464692891910523e-02 0.0000000000000000e+00 -2.2464692891910523e-02 -9.7748610717158679e-02 0.0000000000000000e+00 0.0000000000000000e+00 0.0000000000000000e+00 0.0000000000000000e+00  -8.0598875369572609e-02 -1.5436780374184956e-02 0.0000000000000000e+00 -1.5436780374184956e-02 -9.3145358612647125e-02 0.0000000000000000e+00 0.0000000000000000e+00 0.0000000000000000e+00 0.0000000000000000e+00  -8.1242965250407292e-02 -9.8387265086444416e-03 0.0000000000000000e+00 -9.8387265086444416e-03 -9.2719594641564804e-02 0.0000000000000000e+00 0.0000000000000000e+00 0.0000000000000000e+00 0.0000000000000000e+00  -8.1366123720172490e-02 -5.9909211150522444e-03 0.0000000000000000e+00 -5.9909211150522444e-03 -9.3053057533607500e-02 0.0000000000000000e+00 0.0000000000000000e+00 0.0000000000000000e+00 0.0000000000000000e+00  -8.1480157261581962e-02 -3.4604667479556069e-03 0.0000000000000000e+00 -3.4604667479556069e-03 -9.3496055453941657e-02 0.0000000000000000e+00 0.0000000000000000e+00 0.0000000000000000e+00 0.0000000000000000e+00  -8.1589732855937014e-02 -1.8189755570192864e-03 0.0000000000000000e+00 -1.8189755570192864e-03 -9.3912682969724465e-02 0.0000000000000000e+00 0.0000000000000000e+00 0.0000000000000000e+00 0.0000000000000000e+00  -8.1660885090692165e-02 -7.5547853085633769e-04 0.0000000000000000e+00 -7.5547853085633769e-04 -9.4268774587836238e-02 0.0000000000000000e+00 0.0000000000000000e+00 0.0000000000000000e+00 0.0000000000000000e+00  -8.1671384245233278e-02 -5.7965575738332848e-05 0.0000000000000000e+00 -5.7965575738332848e-05 -9.4552200422321750e-02 0.0000000000000000e+00 0.0000000000000000e+00 0.0000000000000000e+00 0.0000000000000000e+00  -8.1610482453532349e-02 4.1280621772538703e-04 0.0000000000000000e+00 4.1280621772538703e-04 -9.4756736436477723e-02 0.0000000000000000e+00 0.0000000000000000e+00 0.0000000000000000e+00 0.0000000000000000e+00  -8.1473826368739649e-02 7.4652624190789775e-04 0.0000000000000000e+00 7.4652624190789775e-04 -9.4879213158269415e-02 0.0000000000000000e+00 0.0000000000000000e+00 0.0000000000000000e+00 0.0000000000000000e+00  -8.1259704005767722e-02 1.0000852645309123e-03 0.0000000000000000e+00 1.0000852645309123e-03 -9.4919117905101241e-02 0.0000000000000000e+00 0.0000000000000000e+00 0.0000000000000000e+00 0.0000000000000000e+00  -8.0967275657683357e-02 1.2091539799375646e-03 0.0000000000000000e+00 1.2091539799375646e-03 -9.4877946189445270e-02 0.0000000000000000e+00 0.0000000000000000e+00 0.0000000000000000e+00 0.0000000000000000e+00  -8.0595813722556101e-02 1.3958442988785758e-03 0.0000000000000000e+00 1.3958442988785758e-03 -9.4758345236744104e-02 0.0000000000000000e+00 0.0000000000000000e+00 0.0000000000000000e+00 0.0000000000000000e+00  -8.0144418507530360e-02 1.5735907557299627e-03 0.0000000000000000e+00 1.5735907557299627e-03 -9.4563213345004463e-02 0.0000000000000000e+00 0.0000000000000000e+00 0.0000000000000000e+00 0.0000000000000000e+00  -7.9611966311215240e-02 1.7500946058585625e-03 0.0000000000000000e+00 1.7500946058585625e-03 -9.4294832937280387e-02 0.0000000000000000e+00 0.0000000000000000e+00 0.0000000000000000e+00 0.0000000000000000e+00  -7.8997250158511126e-02 1.9289413317188947e-03 0.0000000000000000e+00 1.9289413317188947e-03 -9.3953986188162142e-02 0.0000000000000000e+00 0.0000000000000000e+00 0.0000000000000000e+00 0.0000000000000000e+00  -7.8299344553660999e-02 2.1103380098000373e-03 0.0000000000000000e+00 2.1103380098000373e-03 -9.3538961223932113e-02 0.0000000000000000e+00 0.0000000000000000e+00 0.0000000000000000e+00 0.0000000000000000e+00  -7.7518229537650266e-02 2.2912995013628927e-03 0.0000000000000000e+00 2.2912995013628927e-03 -9.3044371547069599e-02 0.0000000000000000e+00 0.0000000000000000e+00 0.0000000000000000e+00 0.0000000000000000e+00  -7.6655678282590539e-02 2.4655192802642660e-03 0.0000000000000000e+00 2.4655192802642660e-03 -9.2459757842154780e-02 0.0000000000000000e+00 0.0000000000000000e+00 0.0000000000000000e+00 0.0000000000000000e+00  -7.5716376725945000e-02 2.6230728136150861e-03 0.0000000000000000e+00 2.6230728136150861e-03 -9.1767991581862177e-02 0.0000000000000000e+00 0.0000000000000000e+00 0.0000000000000000e+00 0.0000000000000000e+00  -7.4709227413625068e-02 2.7500150004059402e-03 0.0000000000000000e+00 2.7500150004059402e-03 -9.0943528785723871e-02 0.0000000000000000e+00 0.0000000000000000e+00 0.0000000000000000e+00 0.0000000000000000e+00  -7.3648806313382900e-02 2.8278580507664223e-03 0.0000000000000000e+00 2.8278580507664223e-03 -8.9950556149048191e-02 0.0000000000000000e+00 0.0000000000000000e+00 0.0000000000000000e+00 0.0000000000000000e+00  -7.2556990956148551e-02 2.8328707478579656e-03 0.0000000000000000e+00 2.8328707478579656e-03 -8.8741032204414622e-02 0.0000000000000000e+00 0.0000000000000000e+00 0.0000000000000000e+00 0.0000000000000000e+00  -7.1464846848336136e-02 2.7351439443652598e-03 0.0000000000000000e+00 2.7351439443652598e-03 -8.7252571415889324e-02 0.0000000000000000e+00 0.0000000000000000e+00 0.0000000000000000e+00 0.0000000000000000e+00  -7.0414922304322974e-02 2.4974351636916762e-03 0.0000000000000000e+00 2.4974351636916762e-03 -8.5406079737371660e-02 0.0000000000000000e+00 0.0000000000000000e+00 0.0000000000000000e+00 0.0000000000000000e+00  -6.9464131133471593e-02 2.0739448572839794e-03 0.0000000000000000e+00 2.0739448572839794e-03 -8.3103062064090266e-02 0.0000000000000000e+00 0.0000000000000000e+00 0.0000000000000000e+00 0.0000000000000000e+00  -6.8687370894300215e-02 1.4093907499873823e-03 0.0000000000000000e+00 1.4093907499873823e-03 -8.0222619586223010e-02 0.0000000000000000e+00 0.0000000000000000e+00 0.0000000000000000e+00 0.0000000000000000e+00  -6.8181907520032642e-02 4.3903733724062044e-04 0.0000000000000000e+00 4.3903733724062044e-04 -7.6618368752758167e-02 0.0000000000000000e+00 0.0000000000000000e+00 0.0000000000000000e+00 0.0000000000000000e+00  -6.8072329428610190e-02 -9.0929050139929610e-04 0.0000000000000000e+00 -9.0929050139929610e-04 -7.2115873093943697e-02 0.0000000000000000e+00 0.0000000000000000e+00 0.0000000000000000e+00 0.0000000000000000e+00  -6.8515493389834176e-02 -2.7097261332245039e-03 0.0000000000000000e+00 -2.7097261332245030e-03 -6.6511725795057722e-02 0.0000000000000000e+00 0.0000000000000000e+00 0.0000000000000000e+00 0.0000000000000000e+00  -6.9704292835275669e-02 -5.0274328359647706e-03 0.0000000000000000e+00 -5.0274328359647706e-03 -5.9576201737389846e-02 0.0000000000000000e+00 0.0000000000000000e+00 0.0000000000000000e+00 0.0000000000000000e+00  -7.1868116949963062e-02 -7.8998041508627215e-03 0.0000000000000000e+00 -7.8998041508627215e-03 -5.1062532428648853e-02 0.0000000000000000e+00 0.0000000000000000e+00 0.0000000000000000e+00 0.0000000000000000e+00  -7.5266559687449039e-02 -1.1307487840483703e-02 0.0000000000000000e+00 -1.1307487840483703e-02 -4.0727235618941628e-02 0.0000000000000000e+00 0.0000000000000000e+00 0.0000000000000000e+00 0.0000000000000000e+00  -8.0170626248367363e-02 -1.5133584724073416e-02 0.0000000000000000e+00 -1.5133584724073416e-02 -2.8367999407716511e-02 0.0000000000000000e+00 0.0000000000000000e+00 0.0000000000000000e+00 0.0000000000000000e+00  -8.6823707983291823e-02 -1.9114774948982397e-02 0.0000000000000000e+00 -1.9114774948982397e-02 -1.3886614442161081e-02 0.0000000000000000e+00 0.0000000000000000e+00 0.0000000000000000e+00 0.0000000000000000e+00  -9.5371725464801063e-02 -2.2789910521166312e-02 0.0000000000000000e+00 -2.2789910521166312e-02 2.6150761541594001e-03 0.0000000000000000e+00 0.0000000000000000e+00 0.0000000000000000e+00 0.0000000000000000e+00  -1.0574821420176303e-01 -2.5486377479011647e-02 0.0000000000000000e+00 -2.5486377479011647e-02 2.0699755457489741e-02 0.0000000000000000e+00 0.0000000000000000e+00 0.0000000000000000e+00 0.0000000000000000e+00  -1.1753423140032634e-01 -2.6351679045118894e-02 0.0000000000000000e+00 -2.6351679045118894e-02 3.9457804020817812e-02 0.0000000000000000e+00 0.0000000000000000e+00 0.0000000000000000e+00 0.0000000000000000e+00  -1.2974061958106520e-01 -2.4603514780605993e-02 0.0000000000000000e+00 -2.4603514780605993e-02 5.7348870014646586e-02 0.0000000000000000e+00 0.0000000000000000e+00 0.0000000000000000e+00 0.0000000000000000e+00  -1.4070130870129952e-01 -1.9826834742381790e-02 0.0000000000000000e+00 -1.9826834742381790e-02 7.2347635671918528e-02 0.0000000000000000e+00 0.0000000000000000e+00 0.0000000000000000e+00 0.0000000000000000e+00  -1.4395909690133735e-01 -1.2640685970995751e-02 0.0000000000000000e+00 -1.2640685970995751e-02 8.0475209634603029e-02 0.0000000000000000e+00 0.0000000000000000e+00 0.0000000000000000e+00 0.0000000000000000e+00  -8.3958867636964571e-02 -4.5054441942230170e-03 0.0000000000000000e+00 -4.5054441942230170e-03 8.4726927951065206e-02 0.0000000000000000e+00 0.0000000000000000e+00 0.0000000000000000e+00 0.0000000000000000e+00  -2.2267389619527356e-01 1.8455806713846524e-03 0.0000000000000000e+00 1.8455806713846524e-03 9.6718296354950870e-02 0.0000000000000000e+00 0.0000000000000000e+00 0.0000000000000000e+00 0.0000000000000000e+00  -2.0833178745280365e-01 8.6324733744719620e-03 0.0000000000000000e+00 8.6324733744719620e-03 1.0691559612809498e-01 0.0000000000000000e+00 0.0000000000000000e+00 0.0000000000000000e+00 0.0000000000000000e+00  -7.3483699205417252e-02 1.6364203237594254e-02 0.0000000000000000e+00 1.6364203237594254e-02 7.5934246480376763e-02 0.0000000000000000e+00 0.0000000000000000e+00 0.0000000000000000e+00 0.0000000000000000e+00  -1.2792606774369294e-01 2.1632990088280967e-02 0.0000000000000000e+00 2.1632990088280967e-02 6.4566084727387577e-02 0.0000000000000000e+00 0.0000000000000000e+00 0.0000000000000000e+00 0.0000000000000000e+00  -1.2175340895465477e-01 2.4791769589088866e-02 0.0000000000000000e+00 2.4791769589088866e-02 5.0160056919777603e-02 0.0000000000000000e+00 0.0000000000000000e+00 0.0000000000000000e+00 0.0000000000000000e+00  -1.1041988227514167e-01 2.5452028392472497e-02 0.0000000000000000e+00 2.5452028392472497e-02 3.1889158658821651e-02 0.0000000000000000e+00 0.0000000000000000e+00 0.0000000000000000e+00 0.0000000000000000e+00  -9.9484545829491386e-02 2.3960515340026998e-02 0.0000000000000000e+00 2.3960515340026998e-02 1.3180493817137920e-02 0.0000000000000000e+00 0.0000000000000000e+00 0.0000000000000000e+00 0.0000000000000000e+00  -8.9984961159860641e-02 2.0970483375232676e-02 0.0000000000000000e+00 2.0970483375232676e-02 -4.5570465154357613e-03 0.0000000000000000e+00 0.0000000000000000e+00 0.0000000000000000e+00 0.0000000000000000e+00  -8.2287884356335883e-02 1.7218181689557653e-02 0.0000000000000000e+00 1.7218181689557653e-02 -2.0540172831485338e-02 0.0000000000000000e+00 0.0000000000000000e+00 0.0000000000000000e+00 0.0000000000000000e+00  -7.6428452616955564e-02 1.3295694528012818e-02 0.0000000000000000e+00 1.3295694528012818e-02 -3.4413159648565110e-02 0.0000000000000000e+00 0.0000000000000000e+00 0.0000000000000000e+00 0.0000000000000000e+00  -7.2242520968466784e-02 9.6082530661805009e-03 0.0000000000000000e+00 9.6082530661805009e-03 -4.6131051462735717e-02 0.0000000000000000e+00 0.0000000000000000e+00 0.0000000000000000e+00 0.0000000000000000e+00  -6.9477088926406166e-02 6.3810061499816701e-03 0.0000000000000000e+00 6.3810061499816701e-03 -5.5831347512453326e-02 0.0000000000000000e+00 0.0000000000000000e+00 0.0000000000000000e+00 0.0000000000000000e+00  -6.7858548375020894e-02 3.7047170386846034e-03 0.0000000000000000e+00 3.7047170386846034e-03 -6.3742015398106894e-02 0.0000000000000000e+00 0.0000000000000000e+00 0.0000000000000000e+00 0.0000000000000000e+00  -6.7130002360642121e-02 1.5814633795234376e-03 0.0000000000000000e+00 1.5814633795234372e-03 -7.0121531505702939e-02 0.0000000000000000e+00 0.0000000000000000e+00 0.0000000000000000e+00 0.0000000000000000e+00  -6.7068336068831141e-02 -3.6865714409155897e-05 0.0000000000000000e+00 -3.6865714409155918e-05 -7.5223780985905056e-02 0.0000000000000000e+00 0.0000000000000000e+00 0.0000000000000000e+00 0.0000000000000000e+00  -6.7488963893846052e-02 -1.2213374577065565e-03 0.0000000000000000e+00 -1.2213374577065565e-03 -7.9280138684534179e-02 0.0000000000000000e+00 0.0000000000000000e+00 0.0000000000000000e+00 0.0000000000000000e+00  -6.8244151272044917e-02 -2.0485848371599711e-03 0.0000000000000000e+00 -2.0485848371599711e-03 -8.2492153399240625e-02 0.0000000000000000e+00 0.0000000000000000e+00 0.0000000000000000e+00 0.0000000000000000e+00  -6.9218388953103741e-02 -2.5910034170828211e-03 0.0000000000000000e+00 -2.5910034170828211e-03 -8.5030369834860134e-02 0.0000000000000000e+00 0.0000000000000000e+00 0.0000000000000000e+00 0.0000000000000000e+00  -7.0322909270867207e-02 -2.9121369440316337e-03 0.0000000000000000e+00 -2.9121369440316350e-03 -8.7036285718223666e-02 0.0000000000000000e+00 0.0000000000000000e+00 0.0000000000000000e+00 0.0000000000000000e+00  -7.1490442741345375e-02 -3.0653000348732054e-03 0.0000000000000000e+00 -3.0653000348732054e-03 -8.8625607914243260e-02 0.0000000000000000e+00 0.0000000000000000e+00 0.0000000000000000e+00 0.0000000000000000e+00  -7.2670719780776924e-02 -3.0939901053825274e-03 0.0000000000000000e+00 -3.0939901053825274e-03 -8.9891757505321426e-02 0.0000000000000000e+00 0.0000000000000000e+00 0.0000000000000000e+00 0.0000000000000000e+00  -7.3826852320219877e-02 -3.0330996584191617e-03 0.0000000000000000e+00 -3.0330996584191599e-03 -9.0909110290179757e-02 0.0000000000000000e+00 0.0000000000000000e+00 0.0000000000000000e+00 0.0000000000000000e+00  -7.4932517076666733e-02 -2.9103108052483321e-03 0.0000000000000000e+00 -2.9103108052483321e-03 -9.1735803034653562e-02 0.0000000000000000e+00 0.0000000000000000e+00 0.0000000000000000e+00 0.0000000000000000e+00  -7.5969759297346312e-02 -2.7473397186119691e-03 0.0000000000000000e+00 -2.7473397186119691e-03 -9.2416133633968153e-02 0.0000000000000000e+00 0.0000000000000000e+00 0.0000000000000000e+00 0.0000000000000000e+00  -7.6927215602951987e-02 -2.5609060831968396e-03 0.0000000000000000e+00 -2.5609060831968396e-03 -9.2982667194851015e-02 0.0000000000000000e+00 0.0000000000000000e+00 0.0000000000000000e+00 0.0000000000000000e+00  -7.7798592555700097e-02 -2.3634355599767504e-03 0.0000000000000000e+00 -2.3634355599767500e-03 -9.3458161095552092e-02 0.0000000000000000e+00 0.0000000000000000e+00 0.0000000000000000e+00 0.0000000000000000e+00  -7.8581306943252299e-02 -2.1635652065119877e-03 0.0000000000000000e+00 -2.1635652065119877e-03 -9.3857374674292837e-02 0.0000000000000000e+00 0.0000000000000000e+00 0.0000000000000000e+00 0.0000000000000000e+00  -7.9275266421274485e-02 -1.9665206348104501e-03 0.0000000000000000e+00 -1.9665206348104501e-03 -9.4188768810445633e-02 0.0000000000000000e+00 0.0000000000000000e+00 0.0000000000000000e+00 0.0000000000000000e+00  -7.9881821211928286e-02 -1.7743842885223815e-03 0.0000000000000000e+00 -1.7743842885223815e-03 -9.4456057418665515e-02 0.0000000000000000e+00 0.0000000000000000e+00 0.0000000000000000e+00 0.0000000000000000e+00  -8.0402935422373506e-02 -1.5861961835745807e-03 0.0000000000000000e+00 -1.5861961835745807e-03 -9.4659564526366591e-02 0.0000000000000000e+00 0.0000000000000000e+00 0.0000000000000000e+00 0.0000000000000000e+00  -8.0840610644732788e-02 -1.3977400365429995e-03 0.0000000000000000e+00 -1.3977400365429995e-03 -9.4797368398946216e-02 0.0000000000000000e+00 0.0000000000000000e+00 0.0000000000000000e+00 0.0000000000000000e+00  -8.1196558616513634e-02 -1.2007785473158899e-03 0.0000000000000000e+00 -1.2007785473158899e-03 -9.4866264036863795e-02 0.0000000000000000e+00 0.0000000000000000e+00 0.0000000000000000e+00 0.0000000000000000e+00  -8.1472088132503589e-02 -9.8140780493964283e-04 0.0000000000000000e+00 -9.8140780493964283e-04 -9.4862621905373326e-02 0.0000000000000000e+00 0.0000000000000000e+00 0.0000000000000000e+00 0.0000000000000000e+00  -8.1668174634983964e-02 -7.1708313940712601e-04 0.0000000000000000e+00 -7.1708313940712601e-04 -9.4783235514663958e-02 0.0000000000000000e+00 0.0000000000000000e+00 0.0000000000000000e+00 0.0000000000000000e+00  -8.1785751389704897e-02 -3.7170471098114981e-04 0.0000000000000000e+00 -3.7170471098114981e-04 -9.4626209253742599e-02 0.0000000000000000e+00 0.0000000000000000e+00 0.0000000000000000e+00 0.0000000000000000e+00  -8.1826465606170323e-02 1.1208028567314657e-04 0.0000000000000000e+00 1.1208028567314657e-04 -9.4391807274954165e-02 0.0000000000000000e+00 0.0000000000000000e+00 0.0000000000000000e+00 0.0000000000000000e+00  -8.1794434042185366e-02 8.2449611503507942e-04 0.0000000000000000e+00 8.2449611503507942e-04 -9.4083094473690732e-02 0.0000000000000000e+00 0.0000000000000000e+00 0.0000000000000000e+00 0.0000000000000000e+00  -8.1699980091394675e-02 1.9054344713678735e-03 0.0000000000000000e+00 1.9054344713678735e-03 -9.3706313286596385e-02 0.0000000000000000e+00 0.0000000000000000e+00 0.0000000000000000e+00 0.0000000000000000e+00  -8.1564719844618258e-02 3.5676987000190351e-03 0.0000000000000000e+00 3.5676987000190351e-03 -9.3273675271576678e-02 0.0000000000000000e+00 0.0000000000000000e+00 0.0000000000000000e+00 0.0000000000000000e+00  -8.1421868808404838e-02 6.1231574207289158e-03 0.0000000000000000e+00 6.1231574207289158e-03 -9.2819334131460388e-02 0.0000000000000000e+00 0.0000000000000000e+00 0.0000000000000000e+00 0.0000000000000000e+00  -8.1265943453861622e-02 1.0000889603819969e-02 0.0000000000000000e+00 1.0000889603819969e-02 -9.2478853693522642e-02 0.0000000000000000e+00 0.0000000000000000e+00 0.0000000000000000e+00 0.0000000000000000e+00  -8.0584539064663563e-02 1.5632746423060843e-02 0.0000000000000000e+00 1.5632746423060843e-02 -9.2900375396643850e-02 0.0000000000000000e+00 0.0000000000000000e+00 0.0000000000000000e+00 0.0000000000000000e+00  -7.3503594525316171e-02 2.2691827646420824e-02 0.0000000000000000e+00 2.2691827646420824e-02 -9.7501723769429297e-02 0.0000000000000000e+00 0.0000000000000000e+00 0.0000000000000000e+00 0.0000000000000000e+00  1.0190028139402209e-02 2.7577705232531481e-02 0.0000000000000000e+00 2.7577705232531481e-02 -1.1892577890052339e-01 0.0000000000000000e+00 0.0000000000000000e+00 0.0000000000000000e+00 0.0000000000000000e+00  -6.7529959271170420e-02 -1.0586276099563370e-02 0.0000000000000000e+00 -1.0586276099563370e-02 7.3715579024839745e-02 0.0000000000000000e+00 0.0000000000000000e+00 0.0000000000000000e+00 0.0000000000000000e+00  -3.8568854164132949e-01 -2.0703984414170954e-03 0.0000000000000000e+00 -2.0703984414170949e-03 -3.9119379168409263e-01 0.0000000000000000e+00 0.0000000000000000e+00 0.0000000000000000e+00 0.0000000000000000e+00  1.2044479098295417e-02 1.3498349441059930e-04 0.0000000000000000e+00 1.3498349441059919e-04 -3.4351680448503744e-03 0.0000000000000000e+00 0.0000000000000000e+00 0.0000000000000000e+00 0.0000000000000000e+00  8.4352684912847708e-03 6.9060913628836180e-05 0.0000000000000000e+00 6.9060913628836193e-05 7.3307333131837748e-03 0.0000000000000000e+00 0.0000000000000000e+00 0.0000000000000000e+00 0.0000000000000000e+00  8.0523519119157696e-03 3.6842810065822601e-06 0.0000000000000000e+00 3.6842810065822589e-06 7.9752611960536603e-03 0.0000000000000000e+00 0.0000000000000000e+00 0.0000000000000000e+00 0.0000000000000000e+00  7.9928584554674782e-03 -9.2362900998193627e-06 0.0000000000000000e+00 -9.2362900998193627e-06 7.9509070628718068e-03 0.0000000000000000e+00 0.0000000000000000e+00 0.0000000000000000e+00 0.0000000000000000e+00  7.9807919460047876e-03 -2.0828163147135773e-05 0.0000000000000000e+00 -2.0828163147135773e-05 7.9779473960789760e-03 0.0000000000000000e+00 0.0000000000000000e+00 0.0000000000000000e+00 0.0000000000000000e+00  8.0105445253784626e-03 1.8624611520779906e-05 0.0000000000000000e+00 1.8624611520779906e-05 8.0070953220983156e-03 0.0000000000000000e+00 0.0000000000000000e+00 0.0000000000000000e+00 0.0000000000000000e+00  8.0258118407725114e-03 7.7030284359697982e-06 0.0000000000000000e+00 7.7030284359697982e-06 7.9753796482575287e-03 0.0000000000000000e+00 0.0000000000000000e+00 0.0000000000000000e+00 0.0000000000000000e+00  8.0965904936901815e-03 -4.7857161087835124e-06 0.0000000000000000e+00 -4.7857161087835124e-06 8.0101598954883044e-03 0.0000000000000000e+00 0.0000000000000000e+00 0.0000000000000000e+00 0.0000000000000000e+00  8.5481866499999733e-03 -5.4554268218312503e-05 0.0000000000000000e+00 -5.4554268218312503e-05 7.1952651405550660e-03 0.0000000000000000e+00 0.0000000000000000e+00 0.0000000000000000e+00 0.0000000000000000e+00  1.0331882706779422e-02 6.7174126235825738e-05 0.0000000000000000e+00 6.7174126235825738e-05 -5.1004315873892873e-03 0.0000000000000000e+00 0.0000000000000000e+00 0.0000000000000000e+00 0.0000000000000000e+00  -4.4965207370521421e-01 -8.4145196459737377e-04 0.0000000000000000e+00 -8.4145196459737377e-04 -4.2522974923152396e-01 0.0000000000000000e+00 0.0000000000000000e+00 0.0000000000000000e+00 0.0000000000000000e+00  -1.6472640302887025e-02 1.0673693642690597e-02 0.0000000000000000e+00 1.0673693642690597e-02 1.1721475907647642e-01 0.0000000000000000e+00 0.0000000000000000e+00 0.0000000000000000e+00 0.0000000000000000e+00  2.3173542277584679e-02 -1.3958840515814344e-02 0.0000000000000000e+00 -1.3958840515814344e-02 -1.1396386976640735e-01 0.0000000000000000e+00 0.0000000000000000e+00 0.0000000000000000e+00 0.0000000000000000e+00  -5.6172407815795702e-02 -1.4875238614606065e-02 0.0000000000000000e+00 -1.4875238614606065e-02 -1.0147768514226024e-01 0.0000000000000000e+00 0.0000000000000000e+00 0.0000000000000000e+00 0.0000000000000000e+00  -6.8186789659710409e-02 -1.1619866671545060e-02 0.0000000000000000e+00 -1.1619866671545060e-02 -9.8487967282356148e-02 0.0000000000000000e+00 0.0000000000000000e+00 0.0000000000000000e+00 0.0000000000000000e+00  -7.3362452265357675e-02 -7.8504574867118704e-03 0.0000000000000000e+00 -7.8504574867118704e-03 -9.6966100404875522e-02 0.0000000000000000e+00 0.0000000000000000e+00 0.0000000000000000e+00 0.0000000000000000e+00  -7.6504800726397315e-02 -4.9005160576127008e-03 0.0000000000000000e+00 -4.9005160576127008e-03 -9.5979109513415123e-02 0.0000000000000000e+00 0.0000000000000000e+00 0.0000000000000000e+00 0.0000000000000000e+00  -7.8473957104238323e-02 -2.8813489279797436e-03 0.0000000000000000e+00 -2.8813489279797436e-03 -9.5422725375440096e-02 0.0000000000000000e+00 0.0000000000000000e+00 0.0000000000000000e+00 0.0000000000000000e+00  -7.9698478928612398e-02 -1.5691636172348918e-03 0.0000000000000000e+00 -1.5691636172348918e-03 -9.5164999816465243e-02 0.0000000000000000e+00 0.0000000000000000e+00 0.0000000000000000e+00 0.0000000000000000e+00  -8.0433706301889132e-02 -7.3039129638380069e-04 0.0000000000000000e+00 -7.3039129638380069e-04 -9.5088577349118242e-02 0.0000000000000000e+00 0.0000000000000000e+00 0.0000000000000000e+00 0.0000000000000000e+00  -8.0837545644159473e-02 -1.9186951613268320e-04 0.0000000000000000e+00 -1.9186951613268320e-04 -9.5102502518430013e-02 0.0000000000000000e+00 0.0000000000000000e+00 0.0000000000000000e+00 0.0000000000000000e+00  -8.1007825867379285e-02 1.6191158601230315e-04 0.0000000000000000e+00 1.6191158601230315e-04 -9.5142649187025335e-02 0.0000000000000000e+00 0.0000000000000000e+00 0.0000000000000000e+00 0.0000000000000000e+00  -8.1004665712926180e-02 4.0461034532950481e-04 0.0000000000000000e+00 4.0461034532950481e-04 -9.5167066054663518e-02 0.0000000000000000e+00 0.0000000000000000e+00 0.0000000000000000e+00 0.0000000000000000e+00  -8.0864538686564139e-02 5.8223088565472598e-04 0.0000000000000000e+00 5.8223088565472598e-04 -9.5150224063291863e-02 0.0000000000000000e+00 0.0000000000000000e+00 0.0000000000000000e+00 0.0000000000000000e+00  -8.0609186463536570e-02 7.2316642778223977e-04 0.0000000000000000e+00 7.2316642778223977e-04 -9.5077813640550096e-02 0.0000000000000000e+00 0.0000000000000000e+00 0.0000000000000000e+00 0.0000000000000000e+00  -8.0251257790679223e-02 8.4476530808291382e-04 0.0000000000000000e+00 8.4476530808291382e-04 -9.4942561365661343e-02 0.0000000000000000e+00 0.0000000000000000e+00 0.0000000000000000e+00 0.0000000000000000e+00  -7.9797851410557716e-02 9.5743539802696813e-04 0.0000000000000000e+00 9.5743539802696813e-04 -9.4741058985271825e-02 0.0000000000000000e+00 0.0000000000000000e+00 0.0000000000000000e+00 0.0000000000000000e+00  -7.9252782930863477e-02 1.0671047817240554e-03 0.0000000000000000e+00 1.0671047817240554e-03 -9.4471373290973631e-02 0.0000000000000000e+00 0.0000000000000000e+00 0.0000000000000000e+00 0.0000000000000000e+00  -7.8618140096780323e-02 1.1766069028402676e-03 0.0000000000000000e+00 1.1766069028402676e-03 -9.4131159785589544e-02 0.0000000000000000e+00 0.0000000000000000e+00 0.0000000000000000e+00 0.0000000000000000e+00  -7.7895509676192409e-02 1.2863744957220783e-03 0.0000000000000000e+00 1.2863744957220783e-03 -9.3716030807448836e-02 0.0000000000000000e+00 0.0000000000000000e+00 0.0000000000000000e+00 0.0000000000000000e+00  -7.7087121443566706e-02 1.3947027957880191e-03 0.0000000000000000e+00 1.3947027957880191e-03 -9.3217991298255504e-02 0.0000000000000000e+00 0.0000000000000000e+00 0.0000000000000000e+00 0.0000000000000000e+00  -7.6197051874070193e-02 1.4977556155287412e-03 0.0000000000000000e+00 1.4977556155287412e-03 -9.2623825263241796e-02 0.0000000000000000e+00 0.0000000000000000e+00 0.0000000000000000e+00 0.0000000000000000e+00  -7.5232559489191386e-02 1.5894201218024275e-03 0.0000000000000000e+00 1.5894201218024275e-03 -9.1913375886388177e-02 0.0000000000000000e+00 0.0000000000000000e+00 0.0000000000000000e+00 0.0000000000000000e+00  -7.4205586410294330e-02 1.6610597065476642e-03 0.0000000000000000e+00 1.6610597065476642e-03 -9.1057700510642339e-02 0.0000000000000000e+00 0.0000000000000000e+00 0.0000000000000000e+00 0.0000000000000000e+00  -7.3134455604557350e-02 1.7011707863218866e-03 0.0000000000000000e+00 1.7011707863218866e-03 -9.0017094195403616e-02 0.0000000000000000e+00 0.0000000000000000e+00 0.0000000000000000e+00 0.0000000000000000e+00  -7.2045813144915163e-02 1.6949262404616970e-03 0.0000000000000000e+00 1.6949262404616970e-03 -8.8738968651837058e-02 0.0000000000000000e+00 0.0000000000000000e+00 0.0000000000000000e+00 0.0000000000000000e+00  -7.0976893974384586e-02 1.6235949618922500e-03 0.0000000000000000e+00 1.6235949618922500e-03 -8.7155564373640707e-02 0.0000000000000000e+00 0.0000000000000000e+00 0.0000000000000000e+00 0.0000000000000000e+00  -6.9978205359907369e-02 1.4638717624451949e-03 0.0000000000000000e+00 1.4638717624451949e-03 -8.5181489085422071e-02 0.0000000000000000e+00 0.0000000000000000e+00 0.0000000000000000e+00 0.0000000000000000e+00  -6.9116697090825144e-02 1.1872400246131423e-03 0.0000000000000000e+00 1.1872400246131423e-03 -8.2711146660646218e-02 0.0000000000000000e+00 0.0000000000000000e+00 0.0000000000000000e+00 0.0000000000000000e+00  -6.8479392193411523e-02 7.5962427072359955e-04 0.0000000000000000e+00 7.5962427072359955e-04 -7.9616279839506213e-02 0.0000000000000000e+00 0.0000000000000000e+00 0.0000000000000000e+00 0.0000000000000000e+00  -6.8177256079122242e-02 1.4177341701879120e-04 0.0000000000000000e+00 1.4177341701879120e-04 -7.5744127931710356e-02 0.0000000000000000e+00 0.0000000000000000e+00 0.0000000000000000e+00 0.0000000000000000e+00  -6.8348752530706255e-02 -7.0895211784574520e-04 0.0000000000000000e+00 -7.0895211784574520e-04 -7.0917124400810827e-02 0.0000000000000000e+00 0.0000000000000000e+00 0.0000000000000000e+00 0.0000000000000000e+00  -6.9162036461928089e-02 -1.8344476424907680e-03 0.0000000000000000e+00 -1.8344476424907680e-03 -6.4935647399125232e-02 0.0000000000000000e+00 0.0000000000000000e+00 0.0000000000000000e+00 0.0000000000000000e+00  -7.0814026664700727e-02 -3.2681813936050793e-03 0.0000000000000000e+00 -3.2681813936050793e-03 -5.7586091818539437e-02 0.0000000000000000e+00 0.0000000000000000e+00 0.0000000000000000e+00 0.0000000000000000e+00  -7.3523690848480816e-02 -5.0226451681896541e-03 0.0000000000000000e+00 -5.0226451681896541e-03 -4.8657382180837226e-02 0.0000000000000000e+00 0.0000000000000000e+00 0.0000000000000000e+00 0.0000000000000000e+00  -7.7515782106678782e-02 -7.0708645069947418e-03 0.0000000000000000e+00 -7.0708645069947418e-03 -3.7969848330320806e-02 0.0000000000000000e+00 0.0000000000000000e+00 0.0000000000000000e+00 0.0000000000000000e+00  -8.2990375372582970e-02 -9.3222994758163057e-03 0.0000000000000000e+00 -9.3222994758163057e-03 -2.5420564176945330e-02 0.0000000000000000e+00 0.0000000000000000e+00 0.0000000000000000e+00 0.0000000000000000e+00  -9.0073356203524413e-02 -1.1595847688435801e-02 0.0000000000000000e+00 -1.1595847688435801e-02 -1.1048040989758860e-02 0.0000000000000000e+00 0.0000000000000000e+00 0.0000000000000000e+00 0.0000000000000000e+00  -9.8744783899923652e-02 -1.3600352849913563e-02 0.0000000000000000e+00 -1.3600352849913563e-02 4.8850006543734196e-03 0.0000000000000000e+00 0.0000000000000000e+00 0.0000000000000000e+00 0.0000000000000000e+00  -1.0875111284437905e-01 -1.4936394768535709e-02 0.0000000000000000e+00 -1.4936394768535709e-02 2.1804758479026461e-02 0.0000000000000000e+00 0.0000000000000000e+00 0.0000000000000000e+00 0.0000000000000000e+00  -1.1951334327034693e-01 -1.5157327306285953e-02 0.0000000000000000e+00 -1.5157327306285953e-02 3.8759108003478510e-02 0.0000000000000000e+00 0.0000000000000000e+00 0.0000000000000000e+00 0.0000000000000000e+00  -1.3009443922663472e-01 -1.3892581413957888e-02 0.0000000000000000e+00 -1.3892581413957888e-02 5.4451590348508265e-02 0.0000000000000000e+00 0.0000000000000000e+00 0.0000000000000000e+00 0.0000000000000000e+00  -1.3908104008177677e-01 -1.1074590028278595e-02 0.0000000000000000e+00 -1.1074590028278595e-02 6.7329614752415543e-02 0.0000000000000000e+00 0.0000000000000000e+00 0.0000000000000000e+00 0.0000000000000000e+00  -1.4084023299734516e-01 -7.0762311287365003e-03 0.0000000000000000e+00 -7.0762311287365003e-03 7.4322356126352448e-02 0.0000000000000000e+00 0.0000000000000000e+00 0.0000000000000000e+00 0.0000000000000000e+00  -8.0210089060731571e-02 -2.6688297414533004e-03 0.0000000000000000e+00 -2.6688297414533004e-03 7.8401263665390394e-02 0.0000000000000000e+00 0.0000000000000000e+00 0.0000000000000000e+00 0.0000000000000000e+00  -2.1744389943607398e-01 9.6445316396829043e-04 0.0000000000000000e+00 9.6445316396829043e-04 9.3342681075060954e-02 0.0000000000000000e+00 0.0000000000000000e+00 0.0000000000000000e+00 0.0000000000000000e+00  -2.0772197136384354e-01 4.9488585636065941e-03 0.0000000000000000e+00 4.9488585636065941e-03 9.9186622752540823e-02 0.0000000000000000e+00 0.0000000000000000e+00 0.0000000000000000e+00 0.0000000000000000e+00  -7.1985505054830090e-02 9.3173991883170482e-03 0.0000000000000000e+00 9.3173991883170482e-03 7.1109100239685405e-02 0.0000000000000000e+00 0.0000000000000000e+00 0.0000000000000000e+00 0.0000000000000000e+00  -1.2769089582871074e-01 1.2378241220565555e-02 0.0000000000000000e+00 1.2378241220565555e-02 6.0922268094526964e-02 0.0000000000000000e+00 0.0000000000000000e+00 0.0000000000000000e+00 0.0000000000000000e+00  -1.2292016118158242e-01 1.4264676497445212e-02 0.0000000000000000e+00 1.4264676497445212e-02 4.8382404884634515e-02 0.0000000000000000e+00 0.0000000000000000e+00 0.0000000000000000e+00 0.0000000000000000e+00  -1.1271785012552324e-01 1.4819196373428057e-02 0.0000000000000000e+00 1.4819196373428057e-02 3.1914528500807650e-02 0.0000000000000000e+00 0.0000000000000000e+00 0.0000000000000000e+00 0.0000000000000000e+00  -1.0248433607670636e-01 1.4150836156064649e-02 0.0000000000000000e+00 1.4150836156064649e-02 1.4682653098502396e-02 0.0000000000000000e+00 0.0000000000000000e+00 0.0000000000000000e+00 0.0000000000000000e+00  -9.3174906593465626e-02 1.2581205860087163e-02 0.0000000000000000e+00 1.2581205860087163e-02 -2.1218548235087706e-03 0.0000000000000000e+00 0.0000000000000000e+00 0.0000000000000000e+00 0.0000000000000000e+00  -8.5267850461287306e-02 1.0492806059067482e-02 0.0000000000000000e+00 1.0492806059067482e-02 -1.7686218068252501e-02 0.0000000000000000e+00 0.0000000000000000e+00 0.0000000000000000e+00 0.0000000000000000e+00  -7.8948580271390567e-02 8.2311493784617551e-03 0.0000000000000000e+00 8.2311493784617551e-03 -3.1541860767831352e-02 0.0000000000000000e+00 0.0000000000000000e+00 0.0000000000000000e+00 0.0000000000000000e+00  -7.4195038792359044e-02 6.0487210435219230e-03 0.0000000000000000e+00 6.0487210435219230e-03 -4.3501169982865413e-02 0.0000000000000000e+00 0.0000000000000000e+00 0.0000000000000000e+00 0.0000000000000000e+00  -7.0857288020915010e-02 4.1000338064676404e-03 0.0000000000000000e+00 4.1000338064676404e-03 -5.3577858550123397e-02 0.0000000000000000e+00 0.0000000000000000e+00 0.0000000000000000e+00 0.0000000000000000e+00  -6.8723631421023265e-02 2.4578236291129462e-03 0.0000000000000000e+00 2.4578236291129462e-03 -6.1909589086780153e-02 0.0000000000000000e+00 0.0000000000000000e+00 0.0000000000000000e+00 0.0000000000000000e+00  -6.7566284126563056e-02 1.1374507072279734e-03 0.0000000000000000e+00 1.1374507072279734e-03 -6.8697584123905100e-02 0.0000000000000000e+00 0.0000000000000000e+00 0.0000000000000000e+00 0.0000000000000000e+00  -6.7168927574894968e-02 1.1923657562462694e-04 0.0000000000000000e+00 1.1923657562462692e-04 -7.4164787586390030e-02 0.0000000000000000e+00 0.0000000000000000e+00 0.0000000000000000e+00 0.0000000000000000e+00  -6.7340753799564043e-02 -6.3431711098119908e-04 0.0000000000000000e+00 -6.3431711098119908e-04 -7.8529845008581831e-02 0.0000000000000000e+00 0.0000000000000000e+00 0.0000000000000000e+00 0.0000000000000000e+00  -6.7921532046833100e-02 -1.1669298552505060e-03 0.0000000000000000e+00 -1.1669298552505060e-03 -8.1992847420818679e-02 0.0000000000000000e+00 0.0000000000000000e+00 0.0000000000000000e+00 0.0000000000000000e+00  -6.8781370286976340e-02 -1.5215873041506955e-03 0.0000000000000000e+00 -1.5215873041506955e-03 -8.4728974841520394e-02 0.0000000000000000e+00 0.0000000000000000e+00 0.0000000000000000e+00 0.0000000000000000e+00  -6.9817751092505695e-02 -1.7369589481671839e-03 0.0000000000000000e+00 -1.7369589481671839e-03 -8.6886992553484282e-02 0.0000000000000000e+00 0.0000000000000000e+00 0.0000000000000000e+00 0.0000000000000000e+00  -7.0951509559892392e-02 -1.8460138995871306e-03 0.0000000000000000e+00 -1.8460138995871308e-03 -8.8590417353661383e-02 0.0000000000000000e+00 0.0000000000000000e+00 0.0000000000000000e+00 0.0000000000000000e+00  -7.2122721062945677e-02 -1.8759189582602952e-03 0.0000000000000000e+00 -1.8759189582602948e-03 -8.9939926832264455e-02 0.0000000000000000e+00 0.0000000000000000e+00 0.0000000000000000e+00 0.0000000000000000e+00  -7.3286980486185982e-02 -1.8485711221227425e-03 0.0000000000000000e+00 -1.8485711221227429e-03 -9.1016164642798936e-02 0.0000000000000000e+00 0.0000000000000000e+00 0.0000000000000000e+00 0.0000000000000000e+00  -7.4412239662145011e-02 -1.7813475838173972e-03 0.0000000000000000e+00 -1.7813475838173972e-03 -9.1882505539022191e-02 0.0000000000000000e+00 0.0000000000000000e+00 0.0000000000000000e+00 0.0000000000000000e+00  -7.5476188096677554e-02 -1.6878369122366580e-03 0.0000000000000000e+00 -1.6878369122366580e-03 -9.2587607766383986e-02 0.0000000000000000e+00 0.0000000000000000e+00 0.0000000000000000e+00 0.0000000000000000e+00  -7.6464079110552710e-02 -1.5784460771649303e-03 0.0000000000000000e+00 -1.5784460771649303e-03 -9.3167726515066634e-02 0.0000000000000000e+00 0.0000000000000000e+00 0.0000000000000000e+00 0.0000000000000000e+00  -7.7366888256055102e-02 -1.4608621032654264e-03 0.0000000000000000e+00 -1.4608621032654264e-03 -9.3648822132577261e-02 0.0000000000000000e+00 0.0000000000000000e+00 0.0000000000000000e+00 0.0000000000000000e+00  -7.8179713946898266e-02 -1.3403881813582427e-03 0.0000000000000000e+00 -1.3403881813582427e-03 -9.4048503386535323e-02 0.0000000000000000e+00 0.0000000000000000e+00 0.0000000000000000e+00 0.0000000000000000e+00  -7.8900364609856985e-02 -1.2201776693335591e-03 0.0000000000000000e+00 -1.2201776693335591e-03 -9.4377830593984330e-02 0.0000000000000000e+00 0.0000000000000000e+00 0.0000000000000000e+00 0.0000000000000000e+00  -7.9528099918393158e-02 -1.1013637960030490e-03 0.0000000000000000e+00 -1.1013637960030490e-03 -9.4642991946202987e-02 0.0000000000000000e+00 0.0000000000000000e+00 0.0000000000000000e+00 0.0000000000000000e+00  -8.0062490622942795e-02 -9.8303749477543045e-04 0.0000000000000000e+00 -9.8303749477543045e-04 -9.4846875833721769e-02 0.0000000000000000e+00 0.0000000000000000e+00 0.0000000000000000e+00 0.0000000000000000e+00  -8.0502325084353413e-02 -8.6196812837540705e-04 0.0000000000000000e+00 -8.6196812837540705e-04 -9.4990598383249220e-02 0.0000000000000000e+00 0.0000000000000000e+00 0.0000000000000000e+00 0.0000000000000000e+00  -8.0844420136060885e-02 -7.3189342114272579e-04 0.0000000000000000e+00 -7.3189342114272579e-04 -9.5075104352731504e-02 0.0000000000000000e+00 0.0000000000000000e+00 0.0000000000000000e+00 0.0000000000000000e+00  -8.1082090614415209e-02 -5.8211774314299402e-04 0.0000000000000000e+00 -5.8211774314299402e-04 -9.5103028968984454e-02 0.0000000000000000e+00 0.0000000000000000e+00 0.0000000000000000e+00 0.0000000000000000e+00  -8.1202893294461426e-02 -3.9503410493175409e-04 0.0000000000000000e+00 -3.9503410493175409e-04 -9.5081070614352461e-02 0.0000000000000000e+00 0.0000000000000000e+00 0.0000000000000000e+00 0.0000000000000000e+00  -8.1185078501785746e-02 -1.4200143233450671e-04 0.0000000000000000e+00 -1.4200143233450671e-04 -9.5023151592437793e-02 0.0000000000000000e+00 0.0000000000000000e+00 0.0000000000000000e+00 0.0000000000000000e+00  -8.0991925808370682e-02 2.2324115023013657e-04 0.0000000000000000e+00 2.2324115023013657e-04 -9.4954597296454363e-02 0.0000000000000000e+00 0.0000000000000000e+00 0.0000000000000000e+00 0.0000000000000000e+00  -8.0562780447522520e-02 7.7464010860107068e-04 0.0000000000000000e+00 7.7464010860107068e-04 -9.4917335888567225e-02 0.0000000000000000e+00 0.0000000000000000e+00 0.0000000000000000e+00 0.0000000000000000e+00  -7.9798909035681972e-02 1.6280535672358633e-03 0.0000000000000000e+00 1.6280535672358633e-03 -9.4975634824873631e-02 0.0000000000000000e+00 0.0000000000000000e+00 0.0000000000000000e+00 0.0000000000000000e+00  -7.8541028278676608e-02 2.9570917318455557e-03 0.0000000000000000e+00 2.9570917318455557e-03 -9.5220686675764041e-02 0.0000000000000000e+00 0.0000000000000000e+00 0.0000000000000000e+00 0.0000000000000000e+00  -7.6531849187278803e-02 4.9959215987768670e-03 0.0000000000000000e+00 4.9959215987768670e-03 -9.5769962491330934e-02 0.0000000000000000e+00 0.0000000000000000e+00 0.0000000000000000e+00 0.0000000000000000e+00  -7.3340366584212557e-02 7.9690955080660136e-03 0.0000000000000000e+00 7.9690955080660136e-03 -9.6754741212001366e-02 0.0000000000000000e+00 0.0000000000000000e+00 0.0000000000000000e+00 0.0000000000000000e+00  -6.8103720530317671e-02 1.1766258017452397e-02 0.0000000000000000e+00 1.1766258017452397e-02 -9.8276416452159426e-02 0.0000000000000000e+00 0.0000000000000000e+00 0.0000000000000000e+00 0.0000000000000000e+00  -5.5999486698721519e-02 1.5054057734547946e-02 0.0000000000000000e+00 1.5054057734547946e-02 -1.0126688808409674e-01 0.0000000000000000e+00 0.0000000000000000e+00 0.0000000000000000e+00 0.0000000000000000e+00  2.3647776099730244e-02 1.4166432937572953e-02 0.0000000000000000e+00 1.4166432937572953e-02 -1.1368185730888442e-01 0.0000000000000000e+00 0.0000000000000000e+00 0.0000000000000000e+00 0.0000000000000000e+00  -1.7394180796632280e-02 -1.0336084491278576e-02 0.0000000000000000e+00 -1.0336084491278576e-02 1.1711420299500774e-01 0.0000000000000000e+00 0.0000000000000000e+00 0.0000000000000000e+00 0.0000000000000000e+00  -4.4764881451175886e-01 8.2508472479070382e-04 0.0000000000000000e+00 8.2508472479070382e-04 -4.2423023051981323e-01 0.0000000000000000e+00 0.0000000000000000e+00 0.0000000000000000e+00 0.0000000000000000e+00  1.0303545175705406e-02 -7.1602978288371545e-05 0.0000000000000000e+00 -7.1602978288371545e-05 -5.1095220958167747e-03 0.0000000000000000e+00 0.0000000000000000e+00 0.0000000000000000e+00 0.0000000000000000e+00  8.5135544204347300e-03 3.9623307388655196e-05 0.0000000000000000e+00 3.9623307388655189e-05 7.1573971997403538e-03 0.0000000000000000e+00 0.0000000000000000e+00 0.0000000000000000e+00 0.0000000000000000e+00  8.0840279276157365e-03 1.1435347800022748e-06 0.0000000000000000e+00 1.1435347800022761e-06 7.9994949730652666e-03 0.0000000000000000e+00 0.0000000000000000e+00 0.0000000000000000e+00 0.0000000000000000e+00  8.0064360902834062e-03 -4.2360591050736912e-06 0.0000000000000000e+00 -4.2360591050736912e-06 7.9562733801755939e-03 0.0000000000000000e+00 0.0000000000000000e+00 0.0000000000000000e+00 0.0000000000000000e+00  7.9910517823471219e-03 -8.2411884815404773e-06 0.0000000000000000e+00 -8.2411884815404756e-06 7.9878262377698645e-03 0.0000000000000000e+00 0.0000000000000000e+00 0.0000000000000000e+00 0.0000000000000000e+00  8.0184677669221695e-03 3.3956847630309055e-06 0.0000000000000000e+00 3.3956847630309055e-06 8.0146648656164374e-03 0.0000000000000000e+00 0.0000000000000000e+00 0.0000000000000000e+00 0.0000000000000000e+00  8.0358900457232693e-03 1.7868381055992144e-06 0.0000000000000000e+00 1.7868381055992144e-06 7.9800409036309139e-03 0.0000000000000000e+00 0.0000000000000000e+00 0.0000000000000000e+00 0.0000000000000000e+00  8.1164158376061651e-03 -7.9009154016382526e-07 0.0000000000000000e+00 -7.9009154016382526e-07 8.0270952109227200e-03 0.0000000000000000e+00 0.0000000000000000e+00 0.0000000000000000e+00 0.0000000000000000e+00  8.5943042485916755e-03 -1.8155181647752451e-05 0.0000000000000000e+00 -1.8155181647752451e-05 7.0950509587688433e-03 0.0000000000000000e+00 0.0000000000000000e+00 0.0000000000000000e+00 0.0000000000000000e+00  9.1881707868390772e-03 5.7650608506236575e-05 0.0000000000000000e+00 5.7650608506236575e-05 -6.2003669081820293e-03 0.0000000000000000e+00 0.0000000000000000e+00 0.0000000000000000e+00 0.0000000000000000e+00  -4.8130181380102638e-01 -5.4331791303958066e-04 0.0000000000000000e+00 -5.4331791303958066e-04 -4.4063018564334139e-01 0.0000000000000000e+00 0.0000000000000000e+00 0.0000000000000000e+00 0.0000000000000000e+00  1.3681874342429514e-03 4.2545458350172179e-03 0.0000000000000000e+00 4.2545458350172179e-03 1.3421113353371419e-01 0.0000000000000000e+00 0.0000000000000000e+00 0.0000000000000000e+00 0.0000000000000000e+00  2.6622175229535291e-02 -4.0194794900322781e-03 0.0000000000000000e+00 -4.0194794900322781e-03 -1.0857560768427266e-01 0.0000000000000000e+00 0.0000000000000000e+00 0.0000000000000000e+00 0.0000000000000000e+00  -4.7957803738441170e-02 -5.0164049456568743e-03 0.0000000000000000e+00 -5.0164049456568743e-03 -1.0195858495095698e-01 0.0000000000000000e+00 0.0000000000000000e+00 0.0000000000000000e+00 0.0000000000000000e+00  -6.1335696295456543e-02 -4.2217902391591903e-03 0.0000000000000000e+00 -4.2217902391591903e-03 -1.0100540674707531e-01 0.0000000000000000e+00 0.0000000000000000e+00 0.0000000000000000e+00 0.0000000000000000e+00  -6.8673546910050662e-02 -2.9519684063825610e-03 0.0000000000000000e+00 -2.9519684063825610e-03 -9.9368703732345812e-02 0.0000000000000000e+00 0.0000000000000000e+00 0.0000000000000000e+00 0.0000000000000000e+00  -7.3530372146183284e-02 -1.8674628583838209e-03 0.0000000000000000e+00 -1.8674628583838209e-03 -9.7745360362414463e-02 0.0000000000000000e+00 0.0000000000000000e+00 0.0000000000000000e+00 0.0000000000000000e+00  -7.6634509740065415e-02 -1.1007513320010426e-03 0.0000000000000000e+00 -1.1007513320010426e-03 -9.6603721813440610e-02 0.0000000000000000e+00 0.0000000000000000e+00 0.0000000000000000e+00 0.0000000000000000e+00  -7.8557002349852828e-02 -5.9838888798755137e-04 0.0000000000000000e+00 -5.9838888798755137e-04 -9.5929032699022296e-02 0.0000000000000000e+00 0.0000000000000000e+00 0.0000000000000000e+00 0.0000000000000000e+00  -7.9708768083453646e-02 -2.7827761850648052e-04 0.0000000000000000e+00 -2.7827761850648052e-04 -9.5581617455024762e-02 0.0000000000000000e+00 0.0000000000000000e+00 0.0000000000000000e+00 0.0000000000000000e+00  -8.0357850035166586e-02 -7.4644758586296371e-05 0.0000000000000000e+00 -7.4644758586296371e-05 -9.5426786493625695e-02 0.0000000000000000e+00 0.0000000000000000e+00 0.0000000000000000e+00 0.0000000000000000e+00  -8.0671151774779376e-02 5.7251679594032258e-05 0.0000000000000000e+00 5.7251679594032258e-05 -9.5364407003201077e-02 0.0000000000000000e+00 0.0000000000000000e+00 0.0000000000000000e+00 0.0000000000000000e+00  -8.0750152480490209e-02 1.4601388903733386e-04 0.0000000000000000e+00 1.4601388903733386e-04 -9.5327785444544733e-02 0.0000000000000000e+00 0.0000000000000000e+00 0.0000000000000000e+00 0.0000000000000000e+00  -8.0655661471373361e-02 2.0943221543440332e-04 0.0000000000000000e+00 2.0943221543440332e-04 -9.5275492496186359e-02 0.0000000000000000e+00 0.0000000000000000e+00 0.0000000000000000e+00 0.0000000000000000e+00  -8.0423676201206870e-02 2.5842674346102394e-04 0.0000000000000000e+00 2.5842674346102394e-04 -9.5183271260177893e-02 0.0000000000000000e+00 0.0000000000000000e+00 0.0000000000000000e+00 0.0000000000000000e+00  -8.0075208386292229e-02 2.9963309784497528e-04 0.0000000000000000e+00 2.9963309784497528e-04 -9.5037675217492110e-02 0.0000000000000000e+00 0.0000000000000000e+00 0.0000000000000000e+00 0.0000000000000000e+00  -7.9622310890967871e-02 3.3701481672558393e-04 0.0000000000000000e+00 3.3701481672558393e-04 -9.4831421324257315e-02 0.0000000000000000e+00 0.0000000000000000e+00 0.0000000000000000e+00 0.0000000000000000e+00  -7.9071818433328625e-02 3.7282972005553492e-04 0.0000000000000000e+00 3.7282972005553492e-04 -9.4560037948416276e-02 0.0000000000000000e+00 0.0000000000000000e+00 0.0000000000000000e+00 0.0000000000000000e+00  -7.8427784527472857e-02 4.0817971961344403e-04 0.0000000000000000e+00 4.0817971961344403e-04 -9.4219361232179472e-02 0.0000000000000000e+00 0.0000000000000000e+00 0.0000000000000000e+00 0.0000000000000000e+00  -7.7693238359764508e-02 4.4329574692216774e-04 0.0000000000000000e+00 4.4329574692216774e-04 -9.3803515131151594e-02 0.0000000000000000e+00 0.0000000000000000e+00 0.0000000000000000e+00 0.0000000000000000e+00  -7.6871648323101213e-02 4.7765745992474671e-04 0.0000000000000000e+00 4.7765745992474671e-04 -9.3303111176883641e-02 0.0000000000000000e+00 0.0000000000000000e+00 0.0000000000000000e+00 0.0000000000000000e+00  -7.5968323110210512e-02 5.1001231738714880e-04 0.0000000000000000e+00 5.1001231738714880e-04 -9.2703495863631108e-02 0.0000000000000000e+00 0.0000000000000000e+00 0.0000000000000000e+00 0.0000000000000000e+00  -7.4991883082148103e-02 5.3833302696539519e-04 0.0000000000000000e+00 5.3833302696539519e-04 -9.1982945312882231e-02 0.0000000000000000e+00 0.0000000000000000e+00 0.0000000000000000e+00 0.0000000000000000e+00  -7.3955880945474770e-02 5.5973257037485505e-04 0.0000000000000000e+00 5.5973257037485505e-04 -9.1110754050424000e-02 0.0000000000000000e+00 0.0000000000000000e+00 0.0000000000000000e+00 0.0000000000000000e+00  -7.2880631745911140e-02 5.7034165867996163e-04 0.0000000000000000e+00 5.7034165867996163e-04 -9.0045188824016506e-02 0.0000000000000000e+00 0.0000000000000000e+00 0.0000000000000000e+00 0.0000000000000000e+00  -7.1795315715628041e-02 5.6514646587837384e-04 0.0000000000000000e+00 5.6514646587837384e-04 -8.8731288544857734e-02 0.0000000000000000e+00 0.0000000000000000e+00 0.0000000000000000e+00 0.0000000000000000e+00  -7.0740426297536727e-02 5.3778758834457712e-04 0.0000000000000000e+00 5.3778758834457712e-04 -8.7098505297173973e-02 0.0000000000000000e+00 0.0000000000000000e+00 0.0000000000000000e+00 0.0000000000000000e+00  -6.9770626753820966e-02 4.8033695245143293e-04 0.0000000000000000e+00 4.8033695245143293e-04 -8.5058223978681971e-02 0.0000000000000000e+00 0.0000000000000000e+00 0.0000000000000000e+00 0.0000000000000000e+00  -6.8958024620495426e-02 3.8309974534313695e-04 0.0000000000000000e+00 3.8309974534313695e-04 -8.2501299362152086e-02 0.0000000000000000e+00 0.0000000000000000e+00 0.0000000000000000e+00 0.0000000000000000e+00  -6.8395743208317164e-02 2.3453464691441773e-04 0.0000000000000000e+00 2.3453464691441773e-04 -7.9295940600498785e-02 0.0000000000000000e+00 0.0000000000000000e+00 0.0000000000000000e+00 0.0000000000000000e+00  -6.8201430496146576e-02 2.1448440744527238e-05 0.0000000000000000e+00 2.1448440744527238e-05 -7.5286583878756100e-02 0.0000000000000000e+00 0.0000000000000000e+00 0.0000000000000000e+00 0.0000000000000000e+00  -6.8519964521601251e-02 -2.7030051048682855e-04 0.0000000000000000e+00 -2.7030051048682855e-04 -7.0294846275875525e-02 0.0000000000000000e+00 0.0000000000000000e+00 0.0000000000000000e+00 0.0000000000000000e+00  -6.9524061394589498e-02 -6.5426715909600746e-04 0.0000000000000000e+00 -6.5426715909600746e-04 -6.4124252109930654e-02 0.0000000000000000e+00 0.0000000000000000e+00 0.0000000000000000e+00 0.0000000000000000e+00  -7.1410760950323879e-02 -1.1406549922416370e-03 0.0000000000000000e+00 -1.1406549922416370e-03 -5.6571126096795467e-02 0.0000000000000000e+00 0.0000000000000000e+00 0.0000000000000000e+00 0.0000000000000000e+00  -7.4390908069182776e-02 -1.7319031658204395e-03 0.0000000000000000e+00 -1.7319031658204395e-03 -4.7444722587238634e-02 0.0000000000000000e+00 0.0000000000000000e+00 0.0000000000000000e+00 0.0000000000000000e+00  -7.8667974718665934e-02 -2.4163826125055358e-03 0.0000000000000000e+00 -2.4163826125055358e-03 -3.6599974381172004e-02 0.0000000000000000e+00 0.0000000000000000e+00 0.0000000000000000e+00 0.0000000000000000e+00  -8.4402346439239731e-02 -3.1603948041843688e-03 0.0000000000000000e+00 -3.1603948041843688e-03 -2.3985568726738394e-02 0.0000000000000000e+00 0.0000000000000000e+00 0.0000000000000000e+00 0.0000000000000000e+00  -9.1658489865735826e-02 -3.9000359853584858e-03 0.0000000000000000e+00 -3.9000359853584858e-03 -9.7072749202085380e-03 0.0000000000000000e+00 0.0000000000000000e+00 0.0000000000000000e+00 0.0000000000000000e+00  -1.0033692918324177e-01 -4.5358508876370360e-03 0.0000000000000000e+00 -4.5358508876370360e-03 5.9001659824449047e-03 0.0000000000000000e+00 0.0000000000000000e+00 0.0000000000000000e+00 0.0000000000000000e+00  -1.1010178494835464e-01 -4.9377749722359946e-03 0.0000000000000000e+00 -4.9377749722359946e-03 2.2210326689121835e-02 0.0000000000000000e+00 0.0000000000000000e+00 0.0000000000000000e+00 0.0000000000000000e+00  -1.2033192063371469e-01 -4.9657600884978944e-03 0.0000000000000000e+00 -4.9657600884978944e-03 3.8287787393490799e-02 0.0000000000000000e+00 0.0000000000000000e+00 0.0000000000000000e+00 0.0000000000000000e+00  -1.3012816565147348e-01 -4.5182868839988505e-03 0.0000000000000000e+00 -4.5182868839988505e-03 5.2956920870860145e-02 0.0000000000000000e+00 0.0000000000000000e+00 0.0000000000000000e+00 0.0000000000000000e+00  -1.3827224181397732e-01 -3.5882126703270030e-03 0.0000000000000000e+00 -3.5882126703270030e-03 6.4939557566514317e-02 0.0000000000000000e+00 0.0000000000000000e+00 0.0000000000000000e+00 0.0000000000000000e+00  -1.3937516171697195e-01 -2.3096651258612652e-03 0.0000000000000000e+00 -2.3096651258612652e-03 7.1429074478829860e-02 0.0000000000000000e+00 0.0000000000000000e+00 0.0000000000000000e+00 0.0000000000000000e+00  -7.8563665962548171e-02 -9.0574454697846631e-04 0.0000000000000000e+00 -9.0574454697846631e-04 7.5473625587782173e-02 0.0000000000000000e+00 0.0000000000000000e+00 0.0000000000000000e+00 0.0000000000000000e+00  -2.1507666985809273e-01 2.7889239336654559e-04 0.0000000000000000e+00 2.7889239336654559e-04 9.1539204743562586e-02 0.0000000000000000e+00 0.0000000000000000e+00 0.0000000000000000e+00 0.0000000000000000e+00  -2.0740710445726815e-01 1.5892617945880501e-03 0.0000000000000000e+00 1.5892617945880501e-03 9.5566731960452470e-02 0.0000000000000000e+00 0.0000000000000000e+00 0.0000000000000000e+00 0.0000000000000000e+00  -7.1263528474030599e-02 3.0129573561853396e-03 0.0000000000000000e+00 3.0129573561853396e-03 6.8726425978527864e-02 0.0000000000000000e+00 0.0000000000000000e+00 0.0000000000000000e+00 0.0000000000000000e+00  -1.2758243448630205e-01 4.0221188603229560e-03 0.0000000000000000e+00 4.0221188603229560e-03 5.9154012002941167e-02 0.0000000000000000e+00 0.0000000000000000e+00 0.0000000000000000e+00 0.0000000000000000e+00  -1.2342115337420559e-01 4.6610423035774043e-03 0.0000000000000000e+00 4.6610423035774043e-03 4.7445520594523172e-02 0.0000000000000000e+00 0.0000000000000000e+00 0.0000000000000000e+00 0.0000000000000000e+00  -1.1376185280540464e-01 4.8745661498057332e-03 0.0000000000000000e+00 4.8745661498057332e-03 3.1835371461683144e-02 0.0000000000000000e+00 0.0000000000000000e+00 0.0000000000000000e+00 0.0000000000000000e+00  -1.0388345848372797e-01 4.6936019057448744e-03 0.0000000000000000e+00 4.6936019057448744e-03 1.5316320830928539e-02 0.0000000000000000e+00 0.0000000000000000e+00 0.0000000000000000e+00 0.0000000000000000e+00  -9.4707741655429223e-02 4.2095739112411401e-03 0.0000000000000000e+00 4.2095739112411401e-03 -1.0024213222955272e-03 0.0000000000000000e+00 0.0000000000000000e+00 0.0000000000000000e+00 0.0000000000000000e+00  -8.6737699821134648e-02 3.5422852539889432e-03 0.0000000000000000e+00 3.5422852539889432e-03 -1.6323948586703413e-02 0.0000000000000000e+00 0.0000000000000000e+00 0.0000000000000000e+00 0.0000000000000000e+00  -8.0222529253376959e-02 2.8035804085735278e-03 0.0000000000000000e+00 2.8035804085735278e-03 -3.0136206411533452e-02 0.0000000000000000e+00 0.0000000000000000e+00 0.0000000000000000e+00 0.0000000000000000e+00  -7.5206236836165036e-02 2.0794497350353409e-03 0.0000000000000000e+00 2.0794497350353409e-03 -4.2189234914300336e-02 0.0000000000000000e+00 0.0000000000000000e+00 0.0000000000000000e+00 0.0000000000000000e+00  -7.1591627207914857e-02 1.4246955190153610e-03 0.0000000000000000e+00 1.4246955190153610e-03 -5.2436817000174829e-02 0.0000000000000000e+00 0.0000000000000000e+00 0.0000000000000000e+00 0.0000000000000000e+00  -6.9201333936384654e-02 8.6707570981673894e-04 0.0000000000000000e+00 8.6707570981673894e-04 -6.0970173329524861e-02 0.0000000000000000e+00 0.0000000000000000e+00 0.0000000000000000e+00 0.0000000000000000e+00  -6.7825538661523049e-02 4.1447396072526508e-04 0.0000000000000000e+00 4.1447396072526508e-04 -6.7959537436070930e-02 0.0000000000000000e+00 0.0000000000000000e+00 0.0000000000000000e+00 0.0000000000000000e+00  -6.7254001581401865e-02 6.2213000320850289e-05 0.0000000000000000e+00 6.2213000320850289e-05 -7.3610066806261976e-02 0.0000000000000000e+00 0.0000000000000000e+00 0.0000000000000000e+00 0.0000000000000000e+00  -6.7294570551000701e-02 -2.0110960890675698e-04 0.0000000000000000e+00 -2.0110960890675698e-04 -7.8132252774904723e-02 0.0000000000000000e+00 0.0000000000000000e+00 0.0000000000000000e+00 0.0000000000000000e+00  -6.7781779941808992e-02 -3.8954210758500817e-04 0.0000000000000000e+00 -3.8954210758500817e-04 -8.1724246026874628e-02 0.0000000000000000e+00 0.0000000000000000e+00 0.0000000000000000e+00 0.0000000000000000e+00  -6.8579020323266252e-02 -5.1725729288142942e-04 0.0000000000000000e+00 -5.1725729288142942e-04 -8.4562820961038440e-02 0.0000000000000000e+00 0.0000000000000000e+00 0.0000000000000000e+00 0.0000000000000000e+00  -6.9577031636550477e-02 -5.9719587503677830e-04 0.0000000000000000e+00 -5.9719587503677830e-04 -8.6800008482772958e-02 0.0000000000000000e+00 0.0000000000000000e+00 0.0000000000000000e+00 0.0000000000000000e+00  -7.0690638282565527e-02 -6.4049058759070858e-04 0.0000000000000000e+00 -6.4049058759070858e-04 -8.8563097314221129e-02 0.0000000000000000e+00 0.0000000000000000e+00 0.0000000000000000e+00 0.0000000000000000e+00  -7.1854929510363569e-02 -6.5635885287955833e-04 0.0000000000000000e+00 -6.5635885287955843e-04 -8.9956401281733905e-02 0.0000000000000000e+00 0.0000000000000000e+00 0.0000000000000000e+00 0.0000000000000000e+00  -7.3021550911270966e-02 -6.5223871340758862e-04 0.0000000000000000e+00 -6.5223871340758862e-04 -9.1063778691903255e-02 0.0000000000000000e+00 0.0000000000000000e+00 0.0000000000000000e+00 0.0000000000000000e+00  -7.4155407014576943e-02 -6.3402019719648809e-04 0.0000000000000000e+00 -6.3402019719648809e-04 -9.1951329859434147e-02 0.0000000000000000e+00 0.0000000000000000e+00 0.0000000000000000e+00 0.0000000000000000e+00  -7.5231850697481145e-02 -6.0628592594307647e-04 0.0000000000000000e+00 -6.0628592594307647e-04 -9.2669996131946902e-02 0.0000000000000000e+00 0.0000000000000000e+00 0.0000000000000000e+00 0.0000000000000000e+00  -7.6234317809029395e-02 -5.7251959556274296e-04 0.0000000000000000e+00 -5.7251959556274296e-04 -9.3257962233714409e-02 0.0000000000000000e+00 0.0000000000000000e+00 0.0000000000000000e+00 0.0000000000000000e+00  -7.7152321664420320e-02 -5.3526986587587523e-04 0.0000000000000000e+00 -5.3526986587587523e-04 -9.3742853874939178e-02 0.0000000000000000e+00 0.0000000000000000e+00 0.0000000000000000e+00 0.0000000000000000e+00  -7.7979721131850643e-02 -4.9627161883086237e-04 0.0000000000000000e+00 -4.9627161883086237e-04 -9.4143756168023326e-02 0.0000000000000000e+00 0.0000000000000000e+00 0.0000000000000000e+00 0.0000000000000000e+00  -7.8713190597184290e-02 -4.5652849189011359e-04 0.0000000000000000e+00 -4.5652849189011359e-04 -9.4473085323141220e-02 0.0000000000000000e+00 0.0000000000000000e+00 0.0000000000000000e+00 0.0000000000000000e+00  -7.9350827550865866e-02 -4.1635269643427986e-04 0.0000000000000000e+00 -4.1635269643427986e-04 -9.4738351195742435e-02 0.0000000000000000e+00 0.0000000000000000e+00 0.0000000000000000e+00 0.0000000000000000e+00  -7.9890816979574480e-02 -3.7534318071797795e-04 0.0000000000000000e+00 -3.7534318071797795e-04 -9.4943868851541241e-02 0.0000000000000000e+00 0.0000000000000000e+00 0.0000000000000000e+00 0.0000000000000000e+00  -8.0330019399408703e-02 -3.3226310319882531e-04 0.0000000000000000e+00 -3.3226310319882531e-04 -9.5092522213123740e-02 0.0000000000000000e+00 0.0000000000000000e+00 0.0000000000000000e+00 0.0000000000000000e+00  -8.0662251651600583e-02 -2.8475202320683623e-04 0.0000000000000000e+00 -2.8475202320683623e-04 -9.5187753228348160e-02 0.0000000000000000e+00 0.0000000000000000e+00 0.0000000000000000e+00 0.0000000000000000e+00  -8.0875873521080041e-02 -2.2877347127957698e-04 0.0000000000000000e+00 -2.2877347127957698e-04 -9.5236041109017511e-02 0.0000000000000000e+00 0.0000000000000000e+00 0.0000000000000000e+00 0.0000000000000000e+00  -8.0950055374716626e-02 -1.5764711796770935e-04 0.0000000000000000e+00 -1.5764711796770935e-04 -9.5250236608114047e-02 0.0000000000000000e+00 0.0000000000000000e+00 0.0000000000000000e+00 0.0000000000000000e+00  -8.0848741681557965e-02 -6.0437647267332137e-05 0.0000000000000000e+00 -6.0437647267332137e-05 -9.5254197664682988e-02 0.0000000000000000e+00 0.0000000000000000e+00 0.0000000000000000e+00 0.0000000000000000e+00  -8.0510792078264726e-02 8.0625151304416961e-05 0.0000000000000000e+00 8.0625151304416961e-05 -9.5289145895979602e-02 0.0000000000000000e+00 0.0000000000000000e+00 0.0000000000000000e+00 0.0000000000000000e+00  -7.9834058192512408e-02 2.9407618980330729e-04 0.0000000000000000e+00 2.9407618980330729e-04 -9.5421755563649430e-02 0.0000000000000000e+00 0.0000000000000000e+00 0.0000000000000000e+00 0.0000000000000000e+00  -7.8650517244657978e-02 6.2452772838296608e-04 0.0000000000000000e+00 6.2452772838296608e-04 -9.5752318912322415e-02 0.0000000000000000e+00 0.0000000000000000e+00 0.0000000000000000e+00 0.0000000000000000e+00  -7.6690378494459352e-02 1.1375558300911765e-03 0.0000000000000000e+00 1.1375558300911765e-03 -9.6415819713507100e-02 0.0000000000000000e+00 0.0000000000000000e+00 0.0000000000000000e+00 0.0000000000000000e+00  -7.3540089280045046e-02 1.9150462466578329e-03 0.0000000000000000e+00 1.9150462466578329e-03 -9.7552201546819067e-02 0.0000000000000000e+00 0.0000000000000000e+00 0.0000000000000000e+00 0.0000000000000000e+00  -6.8624748783613243e-02 3.0104638105382582e-03 0.0000000000000000e+00 3.0104638105382582e-03 -9.9175974854504370e-02 0.0000000000000000e+00 0.0000000000000000e+00 0.0000000000000000e+00 0.0000000000000000e+00  -6.1209974729906955e-02 4.2922892179401099e-03 0.0000000000000000e+00 4.2922892179401099e-03 -1.0081706715602635e-01 0.0000000000000000e+00 0.0000000000000000e+00 0.0000000000000000e+00 0.0000000000000000e+00  -4.7710070581136917e-02 5.1027956934827489e-03 0.0000000000000000e+00 5.1027956934827489e-03 -1.0178048260324261e-01 0.0000000000000000e+00 0.0000000000000000e+00 0.0000000000000000e+00 0.0000000000000000e+00  2.7291644674565570e-02 4.1259395349505894e-03 0.0000000000000000e+00 4.1259395349505894e-03 -1.0835292454476969e-01 0.0000000000000000e+00 0.0000000000000000e+00 0.0000000000000000e+00 0.0000000000000000e+00  5.4603386706010071e-04 -4.0700431617578681e-03 0.0000000000000000e+00 -4.0700431617578681e-03 1.3417812967503878e-01 0.0000000000000000e+00 0.0000000000000000e+00 0.0000000000000000e+00 0.0000000000000000e+00  -4.7875809453562790e-01 5.5584448698861632e-04 0.0000000000000000e+00 5.5584448698861632e-04 -4.3941529244764604e-01 0.0000000000000000e+00 0.0000000000000000e+00 0.0000000000000000e+00 0.0000000000000000e+00  9.1917450020473097e-03 -6.4405161992026744e-05 0.0000000000000000e+00 -6.4405161992026744e-05 -6.1676442974067372e-03 0.0000000000000000e+00 0.0000000000000000e+00 0.0000000000000000e+00 0.0000000000000000e+00  8.5567336342026040e-03 2.6569076027652284e-06 0.0000000000000000e+00 2.6569076027652297e-06 7.0621452148099889e-03 0.0000000000000000e+00 0.0000000000000000e+00 0.0000000000000000e+00 0.0000000000000000e+00  8.0941600635553099e-03 -3.0056877139037567e-06 0.0000000000000000e+00 -3.0056877139037576e-06 8.0074078770376814e-03 0.0000000000000000e+00 0.0000000000000000e+00 0.0000000000000000e+00 0.0000000000000000e+00  8.0100033794279803e-03 1.8005259187912950e-06 0.0000000000000000e+00 1.8005259187912950e-06 7.9548709051050510e-03 0.0000000000000000e+00 0.0000000000000000e+00 0.0000000000000000e+00 0.0000000000000000e+00  7.9927146183623819e-03 6.4990097043061512e-06 0.0000000000000000e+00 6.4990097043061512e-06 7.9890226440470155e-03 0.0000000000000000e+00 0.0000000000000000e+00 0.0000000000000000e+00 0.0000000000000000e+00  8.0150146256333238e-03 -1.2509616225952249e-05 0.0000000000000000e+00 -1.2509616225952249e-05 8.0112593662519799e-03 0.0000000000000000e+00 0.0000000000000000e+00 0.0000000000000000e+00 0.0000000000000000e+00  8.0324367760199536e-03 -4.5634373786045588e-06 0.0000000000000000e+00 -4.5634373786045588e-06 7.9768057920947769e-03 0.0000000000000000e+00 0.0000000000000000e+00 0.0000000000000000e+00 0.0000000000000000e+00  8.1140054696515335e-03 3.7738765178855999e-06 0.0000000000000000e+00 3.7738765178855999e-06 8.0249100557562830e-03 0.0000000000000000e+00 0.0000000000000000e+00 0.0000000000000000e+00 0.0000000000000000e+00  8.5909381537398483e-03 2.5013357549700851e-05 0.0000000000000000e+00 2.5013357549700851e-05 7.0880162985543123e-03 0.0000000000000000e+00 0.0000000000000000e+00 0.0000000000000000e+00 0.0000000000000000e+00  9.1769102255061259e-03 -3.7572176978389692e-05 0.0000000000000000e+00 -3.7572176978389692e-05 -6.2146901651268845e-03 0.0000000000000000e+00 0.0000000000000000e+00 0.0000000000000000e+00 0.0000000000000000e+00  -4.8148630044139440e-01 5.7856786074150985e-04 0.0000000000000000e+00 5.7856786074150985e-04 -4.4071325389174126e-01 0.0000000000000000e+00 0.0000000000000000e+00 0.0000000000000000e+00 0.0000000000000000e+00  1.4540024708670032e-03 -4.1304391805748325e-03 0.0000000000000000e+00 -4.1304391805748325e-03 1.3430339373558672e-01 0.0000000000000000e+00 0.0000000000000000e+00 0.0000000000000000e+00 0.0000000000000000e+00  2.6627168177550196e-02 3.9581648690630595e-03 0.0000000000000000e+00 3.9581648690630595e-03 -1.0854444564959152e-01 0.0000000000000000e+00 0.0000000000000000e+00 0.0000000000000000e+00 0.0000000000000000e+00  -4.7921626693523685e-02 4.9450744511261926e-03 0.0000000000000000e+00 4.9450744511261926e-03 -1.0196253170934315e-01 0.0000000000000000e+00 0.0000000000000000e+00 0.0000000000000000e+00 0.0000000000000000e+00  -6.1304837101789439e-02 4.1781700011073366e-03 0.0000000000000000e+00 4.1781700011073366e-03 -1.0102252357145182e-01 0.0000000000000000e+00 0.0000000000000000e+00 0.0000000000000000e+00 0.0000000000000000e+00  -6.8654208902646868e-02 2.9434772084018877e-03 0.0000000000000000e+00 2.9434772084018877e-03 -9.9385375178322910e-02 0.0000000000000000e+00 0.0000000000000000e+00 0.0000000000000000e+00 0.0000000000000000e+00  -7.3520692520847142e-02 1.8877868102248293e-03 0.0000000000000000e+00 1.8877868102248293e-03 -9.7757775308728201e-02 0.0000000000000000e+00 0.0000000000000000e+00 0.0000000000000000e+00 0.0000000000000000e+00  -7.6631300346529568e-02 1.1412197832905554e-03 0.0000000000000000e+00 1.1412197832905554e-03 -9.6611901142631712e-02 0.0000000000000000e+00 0.0000000000000000e+00 0.0000000000000000e+00 0.0000000000000000e+00  -7.8557698478248755e-02 6.5173451895777351e-04 0.0000000000000000e+00 6.5173451895777351e-04 -9.5933948765816360e-02 0.0000000000000000e+00 0.0000000000000000e+00 0.0000000000000000e+00 0.0000000000000000e+00  -7.9711674634358548e-02 3.3917277116463079e-04 0.0000000000000000e+00 3.3917277116463079e-04 -9.5584209211274265e-02 0.0000000000000000e+00 0.0000000000000000e+00 0.0000000000000000e+00 0.0000000000000000e+00  -8.0361927907047354e-02 1.3934228806638572e-04 0.0000000000000000e+00 1.3934228806638572e-04 -9.5427758603761265e-02 0.0000000000000000e+00 0.0000000000000000e+00 0.0000000000000000e+00 0.0000000000000000e+00  -8.0675785970948127e-02 8.6364646953758884e-06 0.0000000000000000e+00 8.6364646953758884e-06 -9.5364251096199337e-02 0.0000000000000000e+00 0.0000000000000000e+00 0.0000000000000000e+00 0.0000000000000000e+00  -8.0754991046422114e-02 -8.0765971621842570e-05 0.0000000000000000e+00 -8.0765971621842570e-05 -9.5326835012898861e-02 0.0000000000000000e+00 0.0000000000000000e+00 0.0000000000000000e+00 0.0000000000000000e+00  -8.0660514709566464e-02 -1.4612919618808615e-04 0.0000000000000000e+00 -1.4612919618808615e-04 -9.5273969747955767e-02 0.0000000000000000e+00 0.0000000000000000e+00 0.0000000000000000e+00 0.0000000000000000e+00  -8.0428454877960465e-02 -1.9802561907910761e-04 0.0000000000000000e+00 -1.9802561907910761e-04 -9.5181321277494388e-02 0.0000000000000000e+00 0.0000000000000000e+00 0.0000000000000000e+00 0.0000000000000000e+00  -8.0079884497434500e-02 -2.4286562776600323e-04 0.0000000000000000e+00 -2.4286562776600323e-04 -9.5035391178604295e-02 0.0000000000000000e+00 0.0000000000000000e+00 0.0000000000000000e+00 0.0000000000000000e+00  -7.9626891452367787e-02 -2.8446718851503849e-04 0.0000000000000000e+00 -2.8446718851503849e-04 -9.4828863953946838e-02 0.0000000000000000e+00 0.0000000000000000e+00 0.0000000000000000e+00 0.0000000000000000e+00  -7.9076327279001130e-02 -3.2498843995082025e-04 0.0000000000000000e+00 -3.2498843995082025e-04 -9.4557250813023228e-02 0.0000000000000000e+00 0.0000000000000000e+00 0.0000000000000000e+00 0.0000000000000000e+00  -7.8432249649560998e-02 -3.6545102257480030e-04 0.0000000000000000e+00 -3.6545102257480030e-04 -9.4216382404699331e-02 0.0000000000000000e+00 0.0000000000000000e+00 0.0000000000000000e+00 0.0000000000000000e+00  -7.7697683597949846e-02 -4.0600552383631647e-04 0.0000000000000000e+00 -4.0600552383631647e-04 -9.3800385257920657e-02 0.0000000000000000e+00 0.0000000000000000e+00 0.0000000000000000e+00 0.0000000000000000e+00  -7.6876088781491200e-02 -4.4603887564619992e-04 0.0000000000000000e+00 -4.4603887564619992e-04 -9.3299877874226056e-02 0.0000000000000000e+00 0.0000000000000000e+00 0.0000000000000000e+00 0.0000000000000000e+00  -7.5972763891006365e-02 -4.8418839722468260e-04 0.0000000000000000e+00 -4.8418839722468260e-04 -9.2700214477313012e-02 0.0000000000000000e+00 0.0000000000000000e+00 0.0000000000000000e+00 0.0000000000000000e+00  -7.4996320961460236e-02 -5.1830125634990483e-04 0.0000000000000000e+00 -5.1830125634990483e-04 -9.1979676271146213e-02 0.0000000000000000e+00 0.0000000000000000e+00 0.0000000000000000e+00 0.0000000000000000e+00  -7.3960308569614261e-02 -5.4535787733259720e-04 0.0000000000000000e+00 -5.4535787733259720e-04 -9.1107557271830911e-02 0.0000000000000000e+00 0.0000000000000000e+00 0.0000000000000000e+00 0.0000000000000000e+00  -7.2885043836288535e-02 -5.6136300513945695e-04 0.0000000000000000e+00 -5.6136300513945695e-04 -9.0042115877231807e-02 0.0000000000000000e+00 0.0000000000000000e+00 0.0000000000000000e+00 0.0000000000000000e+00  -7.1799716650475159e-02 -5.6120066448945530e-04 0.0000000000000000e+00 -5.6120066448945530e-04 -8.8728373491206158e-02 0.0000000000000000e+00 0.0000000000000000e+00 0.0000000000000000e+00 0.0000000000000000e+00  -7.0744838288512288e-02 -5.3845189506023709e-04 0.0000000000000000e+00 -5.3845189506023709e-04 -8.7095755377038647e-02 0.0000000000000000e+00 0.0000000000000000e+00 0.0000000000000000e+00 0.0000000000000000e+00  -6.9775097651709375e-02 -4.8518947037851437e-04 0.0000000000000000e+00 -4.8518947037851437e-04 -8.5055611529158720e-02 0.0000000000000000e+00 0.0000000000000000e+00 0.0000000000000000e+00 0.0000000000000000e+00  -6.8962634159010938e-02 -3.9179372731464057e-04 0.0000000000000000e+00 -3.9179372731464057e-04 -8.2498756570219739e-02 0.0000000000000000e+00 0.0000000000000000e+00 0.0000000000000000e+00 0.0000000000000000e+00  -6.8400606218856422e-02 -2.4687943307456729e-04 0.0000000000000000e+00 -2.4687943307456729e-04 -7.9293358890670032e-02 0.0000000000000000e+00 0.0000000000000000e+00 0.0000000000000000e+00 0.0000000000000000e+00  -6.8206695291668964e-02 -3.7486076544461633e-05 0.0000000000000000e+00 -3.7486076544461633e-05 -7.5283819875818794e-02 0.0000000000000000e+00 0.0000000000000000e+00 0.0000000000000000e+00 0.0000000000000000e+00  -6.8525804271668572e-02 2.5023781158993035e-04 0.0000000000000000e+00 2.5023781158993035e-04 -7.0291736291931500e-02 0.0000000000000000e+00 0.0000000000000000e+00 0.0000000000000000e+00 0.0000000000000000e+00  -6.9530656004262101e-02 6.2953724396913992e-04 0.0000000000000000e+00 6.2953724396913992e-04 -6.4120636788670526e-02 0.0000000000000000e+00 0.0000000000000000e+00 0.0000000000000000e+00 0.0000000000000000e+00  -7.1418267004002833e-02 1.1103448450378078e-03 0.0000000000000000e+00 1.1103448450378078e-03 -5.6566885814069087e-02 0.0000000000000000e+00 0.0000000000000000e+00 0.0000000000000000e+00 0.0000000000000000e+00  -7.4399415493397625e-02 1.6949476376964887e-03 0.0000000000000000e+00 1.6949476376964887e-03 -4.7439821747526971e-02 0.0000000000000000e+00 0.0000000000000000e+00 0.0000000000000000e+00 0.0000000000000000e+00  -7.8677452069114945e-02 2.3717765718525461e-03 0.0000000000000000e+00 2.3717765718525461e-03 -3.6594507857654703e-02 0.0000000000000000e+00 0.0000000000000000e+00 0.0000000000000000e+00 0.0000000000000000e+00  -8.4412583983391992e-02 3.1074931379987862e-03 0.0000000000000000e+00 3.1074931379987862e-03 -2.3979795435958105e-02 0.0000000000000000e+00 0.0000000000000000e+00 0.0000000000000000e+00 0.0000000000000000e+00  -9.1669061047285533e-02 3.8388966161644355e-03 0.0000000000000000e+00 3.8388966161644355e-03 -9.7016130104049646e-03 0.0000000000000000e+00 0.0000000000000000e+00 0.0000000000000000e+00 0.0000000000000000e+00  -1.0034720642589597e-01 4.4675170036583885e-03 0.0000000000000000e+00 4.4675170036583885e-03 5.9052163234044035e-03 0.0000000000000000e+00 0.0000000000000000e+00 0.0000000000000000e+00 0.0000000000000000e+00  -1.1011104960048353e-01 4.8643193367240547e-03 0.0000000000000000e+00 4.8643193367240547e-03 2.2214356620088169e-02 0.0000000000000000e+00 0.0000000000000000e+00 0.0000000000000000e+00 0.0000000000000000e+00  -1.2033956588840308e-01 4.8899234100606669e-03 0.0000000000000000e+00 4.8899234100606669e-03 3.8290701624695271e-02 0.0000000000000000e+00 0.0000000000000000e+00 0.0000000000000000e+00 0.0000000000000000e+00  -1.3013399964297379e-01 4.4425943695096237e-03 0.0000000000000000e+00 4.4425943695096237e-03 5.2959185282043249e-02 0.0000000000000000e+00 0.0000000000000000e+00 0.0000000000000000e+00 0.0000000000000000e+00  -1.3827644903387495e-01 3.5139841525940636e-03 0.0000000000000000e+00 3.5139841525940636e-03 6.4941946931876326e-02 0.0000000000000000e+00 0.0000000000000000e+00 0.0000000000000000e+00 0.0000000000000000e+00  -1.3937861203637500e-01 2.2363565801068160e-03 0.0000000000000000e+00 2.2363565801068160e-03 7.1432582374265474e-02 0.0000000000000000e+00 0.0000000000000000e+00 0.0000000000000000e+00 0.0000000000000000e+00  -7.8566764242822593e-02 8.3194300854622701e-04 0.0000000000000000e+00 8.3194300854622701e-04 7.5477517188445017e-02 0.0000000000000000e+00 0.0000000000000000e+00 0.0000000000000000e+00 0.0000000000000000e+00  -2.1507677803390146e-01 -3.5525176083432578e-04 0.0000000000000000e+00 -3.5525176083432578e-04 9.1545463115670300e-02 0.0000000000000000e+00 0.0000000000000000e+00 0.0000000000000000e+00 0.0000000000000000e+00  -2.0741203026271146e-01 -1.6601096385538152e-03 0.0000000000000000e+00 -1.6601096385538152e-03 9.5561619932795633e-02 0.0000000000000000e+00 0.0000000000000000e+00 0.0000000000000000e+00 0.0000000000000000e+00  -7.1265482545012512e-02 -3.0641822572030830e-03 0.0000000000000000e+00 -3.0641822572030830e-03 6.8718540585075760e-02 0.0000000000000000e+00 0.0000000000000000e+00 0.0000000000000000e+00 0.0000000000000000e+00  -1.2758490597035679e-01 -4.0473406633593483e-03 0.0000000000000000e+00 -4.0473406633593483e-03 5.9141946624149233e-02 0.0000000000000000e+00 0.0000000000000000e+00 0.0000000000000000e+00 0.0000000000000000e+00  -1.2342547229917085e-01 -4.6561014145829836e-03 0.0000000000000000e+00 -4.6561014145829836e-03 4.7432183412942863e-02 0.0000000000000000e+00 0.0000000000000000e+00 0.0000000000000000e+00 0.0000000000000000e+00  -1.1376926922905799e-01 -4.8410644137578925e-03 0.0000000000000000e+00 -4.8410644137578925e-03 3.1823628926110181e-02 0.0000000000000000e+00 0.0000000000000000e+00 0.0000000000000000e+00 0.0000000000000000e+00  -1.0389441449758860e-01 -4.6380104734395373e-03 0.0000000000000000e+00 -4.6380104734395373e-03 1.5308219050647784e-02 0.0000000000000000e+00 0.0000000000000000e+00 0.0000000000000000e+00 0.0000000000000000e+00  -9.4721837532347086e-02 -4.1409570735284010e-03 0.0000000000000000e+00 -4.1409570735284010e-03 -1.0060301698538118e-03 0.0000000000000000e+00 0.0000000000000000e+00 0.0000000000000000e+00 0.0000000000000000e+00  -8.6753953705275291e-02 -3.4699672877159288e-03 0.0000000000000000e+00 -3.4699672877159288e-03 -1.6323287275047532e-02 0.0000000000000000e+00 0.0000000000000000e+00 0.0000000000000000e+00 0.0000000000000000e+00  -8.0239814705794762e-02 -2.7355301689301055e-03 0.0000000000000000e+00 -2.7355301689301055e-03 -3.0132100399276971e-02 0.0000000000000000e+00 0.0000000000000000e+00 0.0000000000000000e+00 0.0000000000000000e+00  -7.5223562602950433e-02 -2.0215924206784951e-03 0.0000000000000000e+00 -2.0215924206784951e-03 -4.2182706747164872e-02 0.0000000000000000e+00 0.0000000000000000e+00 0.0000000000000000e+00 0.0000000000000000e+00  -7.1608278272414574e-02 -1.3808878986227716e-03 0.0000000000000000e+00 -1.3808878986227716e-03 -5.2428814563138158e-02 0.0000000000000000e+00 0.0000000000000000e+00 0.0000000000000000e+00 0.0000000000000000e+00  -6.9216887122147408e-02 -8.3944625407608633e-04 0.0000000000000000e+00 -8.3944625407608633e-04 -6.0961446069179102e-02 0.0000000000000000e+00 0.0000000000000000e+00 0.0000000000000000e+00 0.0000000000000000e+00  -6.7839815757278557e-02 -4.0387870148447558e-04 0.0000000000000000e+00 -4.0387870148447558e-04 -6.7950611965507376e-02 0.0000000000000000e+00 0.0000000000000000e+00 0.0000000000000000e+00 0.0000000000000000e+00  -6.7267001225623860e-02 -6.8667204554292733e-05 0.0000000000000000e+00 -6.8667204554292733e-05 -7.3601274682813009e-02 0.0000000000000000e+00 0.0000000000000000e+00 0.0000000000000000e+00 0.0000000000000000e+00  -6.7306402480314623e-02 1.7808731295671721e-04 0.0000000000000000e+00 1.7808731295671721e-04 -7.8123778237867217e-02 0.0000000000000000e+00 0.0000000000000000e+00 0.0000000000000000e+00 0.0000000000000000e+00  -6.7792611465485597e-02 3.5068794929161274e-04 0.0000000000000000e+00 3.5068794929161274e-04 -8.1716175241367359e-02 0.0000000000000000e+00 0.0000000000000000e+00 0.0000000000000000e+00 0.0000000000000000e+00  -6.8589037018661855e-02 4.6341396871505303e-04 0.0000000000000000e+00 4.6341396871505303e-04 -8.4555184377806236e-02 0.0000000000000000e+00 0.0000000000000000e+00 0.0000000000000000e+00 0.0000000000000000e+00  -6.9586410911001345e-02 5.2923911412649919e-04 0.0000000000000000e+00 5.2923911412649919e-04 -8.6792813409421923e-02 0.0000000000000000e+00 0.0000000000000000e+00 0.0000000000000000e+00 0.0000000000000000e+00  -7.0699533382308416e-02 5.5931027217991081e-04 0.0000000000000000e+00 5.5931027217991081e-04 -8.8556350553477464e-02 0.0000000000000000e+00 0.0000000000000000e+00 0.0000000000000000e+00 0.0000000000000000e+00  -7.1863461560834105e-02 5.6287568077736537e-04 0.0000000000000000e+00 5.6287568077736537e-04 -8.9950122865629339e-02 0.0000000000000000e+00 0.0000000000000000e+00 0.0000000000000000e+00 0.0000000000000000e+00  -7.3029806904925540e-02 5.4744008138473375e-04 0.0000000000000000e+00 5.4744008138473375e-04 -9.1058008175634669e-02 0.0000000000000000e+00 0.0000000000000000e+00 0.0000000000000000e+00 0.0000000000000000e+00  -7.4163442018978828e-02 5.1900208211667648e-04 0.0000000000000000e+00 5.1900208211667648e-04 -9.1946126761224267e-02 0.0000000000000000e+00 0.0000000000000000e+00 0.0000000000000000e+00 0.0000000000000000e+00  -7.5239692835241262e-02 4.8229070688585456e-04 0.0000000000000000e+00 4.8229070688585456e-04 -9.2665436114830843e-02 0.0000000000000000e+00 0.0000000000000000e+00 0.0000000000000000e+00 0.0000000000000000e+00  -7.6241974748538374e-02 4.4096288633252434e-04 0.0000000000000000e+00 4.4096288633252434e-04 -9.3254130597754184e-02 0.0000000000000000e+00 0.0000000000000000e+00 0.0000000000000000e+00 0.0000000000000000e+00  -7.7159787473011207e-02 3.9775247896851673e-04 0.0000000000000000e+00 3.9775247896851673e-04 -9.3739837885043545e-02 0.0000000000000000e+00 0.0000000000000000e+00 0.0000000000000000e+00 0.0000000000000000e+00  -7.7986982406273705e-02 3.5457573012711061e-04 0.0000000000000000e+00 3.5457573012711061e-04 -9.4141637676149276e-02 0.0000000000000000e+00 0.0000000000000000e+00 0.0000000000000000e+00 0.0000000000000000e+00  -7.8720230832216465e-02 3.1259985559770054e-04 0.0000000000000000e+00 3.1259985559770054e-04 -9.4471935028631021e-02 0.0000000000000000e+00 0.0000000000000000e+00 0.0000000000000000e+00 0.0000000000000000e+00  -7.9357628773360889e-02 2.7227324164078991e-04 0.0000000000000000e+00 2.7227324164078991e-04 -9.4738225686058483e-02 0.0000000000000000e+00 0.0000000000000000e+00 0.0000000000000000e+00 0.0000000000000000e+00  -7.9897357798081464e-02 2.3330029219137023e-04 0.0000000000000000e+00 2.3330029219137023e-04 -9.4944811237910903e-02 0.0000000000000000e+00 0.0000000000000000e+00 0.0000000000000000e+00 0.0000000000000000e+00  -8.0336268819351894e-02 1.9452306345068361e-04 0.0000000000000000e+00 1.9452306345068361e-04 -9.5094566693809987e-02 0.0000000000000000e+00 0.0000000000000000e+00 0.0000000000000000e+00 0.0000000000000000e+00  -8.0668158263260167e-02 1.5364515620308248e-04 0.0000000000000000e+00 1.5364515620308248e-04 -9.5190933288192031e-02 0.0000000000000000e+00 0.0000000000000000e+00 0.0000000000000000e+00 0.0000000000000000e+00  -8.0881349876197051e-02 1.0669724054832483e-04 0.0000000000000000e+00 1.0669724054832483e-04 -9.5240400382201176e-02 0.0000000000000000e+00 0.0000000000000000e+00 0.0000000000000000e+00 0.0000000000000000e+00  -8.0954957252678816e-02 4.7090825284402433e-05 0.0000000000000000e+00 4.7090825284402433e-05 -9.5255840908664000e-02 0.0000000000000000e+00 0.0000000000000000e+00 0.0000000000000000e+00 0.0000000000000000e+00  -8.0852840979960358e-02 -3.5970970748348313e-05 0.0000000000000000e+00 -3.5970970748348299e-05 -9.5261146670444358e-02 0.0000000000000000e+00 0.0000000000000000e+00 0.0000000000000000e+00 0.0000000000000000e+00  -8.0513739499906242e-02 -1.6005390602426539e-04 0.0000000000000000e+00 -1.6005390602426539e-04 -9.5297583739083799e-02 0.0000000000000000e+00 0.0000000000000000e+00 0.0000000000000000e+00 0.0000000000000000e+00  -7.9835327037353285e-02 -3.5340626621745684e-04 0.0000000000000000e+00 -3.5340626621745684e-04 -9.5431880691910581e-02 0.0000000000000000e+00 0.0000000000000000e+00 0.0000000000000000e+00 0.0000000000000000e+00  -7.8649314582274532e-02 -6.6025897738145143e-04 0.0000000000000000e+00 -6.6025897738145143e-04 -9.5764390476735253e-02 0.0000000000000000e+00 0.0000000000000000e+00 0.0000000000000000e+00 0.0000000000000000e+00  -7.6685512174203468e-02 -1.1457199470032817e-03 0.0000000000000000e+00 -1.1457199470032817e-03 -9.6430138709881763e-02 0.0000000000000000e+00 0.0000000000000000e+00 0.0000000000000000e+00 0.0000000000000000e+00  -7.3529832585587929e-02 -1.8912385966908380e-03 0.0000000000000000e+00 -1.8912385966908380e-03 -9.7568960634972307e-02 0.0000000000000000e+00 0.0000000000000000e+00 0.0000000000000000e+00 0.0000000000000000e+00  -6.8606941841482680e-02 -2.9504685060675398e-03 0.0000000000000000e+00 -2.9504685060675398e-03 -9.9194651754084873e-02 0.0000000000000000e+00 0.0000000000000000e+00 0.0000000000000000e+00 0.0000000000000000e+00  -6.1183013117971419e-02 -4.1946587633230926e-03 0.0000000000000000e+00 -4.1946587633230926e-03 -1.0083470552907088e-01 0.0000000000000000e+00 0.0000000000000000e+00 0.0000000000000000e+00 0.0000000000000000e+00  -4.7676063901100914e-02 -4.9761883618820082e-03 0.0000000000000000e+00 -4.9761883618820082e-03 -1.0178844479468971e-01 0.0000000000000000e+00 0.0000000000000000e+00 0.0000000000000000e+00 0.0000000000000000e+00  2.7322993143525667e-02 -4.0028104197394037e-03 0.0000000000000000e+00 -4.0028104197394037e-03 -1.0833683718791604e-01 0.0000000000000000e+00 0.0000000000000000e+00 0.0000000000000000e+00 0.0000000000000000e+00  6.0090440928663093e-04 4.0992227895764559e-03 0.0000000000000000e+00 4.0992227895764559e-03 1.3423784563051716e-01 0.0000000000000000e+00 0.0000000000000000e+00 0.0000000000000000e+00 0.0000000000000000e+00  -4.7880203979346675e-01 -5.2464676925349394e-04 0.0000000000000000e+00 -5.2464676925349394e-04 -4.3943365270451906e-01 0.0000000000000000e+00 0.0000000000000000e+00 0.0000000000000000e+00 0.0000000000000000e+00  9.1866752221345226e-03 2.4435611875836608e-05 0.0000000000000000e+00 2.4435611875836608e-05 -6.1672704264203173e-03 0.0000000000000000e+00 0.0000000000000000e+00 0.0000000000000000e+00 0.0000000000000000e+00  8.5513814693548452e-03 -3.9120049241806452e-05 0.0000000000000000e+00 -3.9120049241806452e-05 7.0589361828241430e-03 0.0000000000000000e+00 0.0000000000000000e+00 0.0000000000000000e+00 0.0000000000000000e+00  8.0822972179229995e-03 -7.4449126912388947e-06 0.0000000000000000e+00 -7.4449126912388947e-06 7.9953503184005334e-03 0.0000000000000000e+00 0.0000000000000000e+00 0.0000000000000000e+00 0.0000000000000000e+00  8.0001695352350920e-03 7.9205705254448284e-06 0.0000000000000000e+00 7.9205705254448284e-06 7.9460772645383020e-03 0.0000000000000000e+00 0.0000000000000000e+00 0.0000000000000000e+00 0.0000000000000000e+00  7.9831242265203193e-03 2.1804718083358434e-05 0.0000000000000000e+00 2.1804718083358434e-05 7.9794586527398136e-03 0.0000000000000000e+00 0.0000000000000000e+00 0.0000000000000000e+00 0.0000000000000000e+00  8.0003484530998467e-03 -2.7319985802064231e-05 0.0000000000000000e+00 -2.7319985802064231e-05 7.9970551481493065e-03 0.0000000000000000e+00 0.0000000000000000e+00 0.0000000000000000e+00 0.0000000000000000e+00  8.0155040135131399e-03 -1.0674121464605113e-05 0.0000000000000000e+00 -1.0674121464605113e-05 7.9660729227751144e-03 0.0000000000000000e+00 0.0000000000000000e+00 0.0000000000000000e+00 0.0000000000000000e+00  8.0893492672252411e-03 7.4793936848288771e-06 0.0000000000000000e+00 7.4793936848288762e-06 8.0031811624112319e-03 0.0000000000000000e+00 0.0000000000000000e+00 0.0000000000000000e+00 0.0000000000000000e+00  8.5373418242506299e-03 6.1242700912883202e-05 0.0000000000000000e+00 6.1242700912883202e-05 7.1733305487519904e-03 0.0000000000000000e+00 0.0000000000000000e+00 0.0000000000000000e+00 0.0000000000000000e+00  1.0299687457685508e-02 -4.8636752327319894e-05 0.0000000000000000e+00 -4.8636752327319894e-05 -5.1386879875308005e-03 0.0000000000000000e+00 0.0000000000000000e+00 0.0000000000000000e+00 0.0000000000000000e+00  -4.5019463951340222e-01 8.9311362967414514e-04 0.0000000000000000e+00 8.9311362967414514e-04 -4.2548760396771340e-01 0.0000000000000000e+00 0.0000000000000000e+00 0.0000000000000000e+00 0.0000000000000000e+00  -1.6138098346706632e-02 -1.0598557438554030e-02 0.0000000000000000e+00 -1.0598557438554030e-02 1.1754223372325515e-01 0.0000000000000000e+00 0.0000000000000000e+00 0.0000000000000000e+00 0.0000000000000000e+00  2.3225748907208240e-02 1.3859395896844068e-02 0.0000000000000000e+00 1.3859395896844068e-02 -1.1389892681531519e-01 0.0000000000000000e+00 0.0000000000000000e+00 0.0000000000000000e+00 0.0000000000000000e+00  -5.6054676333772167e-02 1.4811120330885295e-02 0.0000000000000000e+00 1.4811120330885295e-02 -1.0150727913148565e-01 0.0000000000000000e+00 0.0000000000000000e+00 0.0000000000000000e+00 0.0000000000000000e+00  -6.8099740324405036e-02 1.1600177762307880e-02 0.0000000000000000e+00 1.1600177762307880e-02 -9.8542749074819677e-02 0.0000000000000000e+00 0.0000000000000000e+00 0.0000000000000000e+00 0.0000000000000000e+00  -7.3312511981585005e-02 7.8639610312146984e-03 0.0000000000000000e+00 7.8639610312146984e-03 -9.7013631109963638e-02 0.0000000000000000e+00 0.0000000000000000e+00 0.0000000000000000e+00 0.0000000000000000e+00  -7.6482036494669364e-02 4.9361971074990060e-03 0.0000000000000000e+00 4.9361971074990060e-03 -9.6013030292075432e-02 0.0000000000000000e+00 0.0000000000000000e+00 0.0000000000000000e+00 0.0000000000000000e+00  -7.8468322046590225e-02 2.9313197276571354e-03 0.0000000000000000e+00 2.9313197276571354e-03 -9.5444726843006325e-02 0.0000000000000000e+00 0.0000000000000000e+00 0.0000000000000000e+00 0.0000000000000000e+00  -7.9702902535569109e-02 1.6280176293765388e-03 0.0000000000000000e+00 1.6280176293765388e-03 -9.5178104386523202e-02 0.0000000000000000e+00 0.0000000000000000e+00 0.0000000000000000e+00 0.0000000000000000e+00  -8.0443736028930790e-02 7.9430042418598859e-04 0.0000000000000000e+00 7.9430042418598859e-04 -9.5095349008395558e-02 0.0000000000000000e+00 0.0000000000000000e+00 0.0000000000000000e+00 0.0000000000000000e+00  -8.0850485563016827e-02 2.5808300145947505e-04 0.0000000000000000e+00 2.5808300145947505e-04 -9.5104824228830626e-02 0.0000000000000000e+00 0.0000000000000000e+00 0.0000000000000000e+00 0.0000000000000000e+00  -8.1022083287782556e-02 -9.5383011565441087e-05 0.0000000000000000e+00 -9.5383011565441087e-05 -9.5141839075763818e-02 0.0000000000000000e+00 0.0000000000000000e+00 0.0000000000000000e+00 0.0000000000000000e+00  -8.1019329933245718e-02 -3.3921152916998823e-04 0.0000000000000000e+00 -3.3921152916998823e-04 -9.5164028222391200e-02 0.0000000000000000e+00 0.0000000000000000e+00 0.0000000000000000e+00 0.0000000000000000e+00  -8.0879124983512032e-02 -5.1902523450966949e-04 0.0000000000000000e+00 -5.1902523450966949e-04 -9.5145566002491869e-02 0.0000000000000000e+00 0.0000000000000000e+00 0.0000000000000000e+00 0.0000000000000000e+00  -8.0623477799907209e-02 -6.6296043523746953e-04 0.0000000000000000e+00 -6.6296043523746953e-04 -9.5071932878513038e-02 0.0000000000000000e+00 0.0000000000000000e+00 0.0000000000000000e+00 0.0000000000000000e+00  -8.0265201902336658e-02 -7.8820023696217945e-04 0.0000000000000000e+00 -7.8820023696217945e-04 -9.4935712031645400e-02 0.0000000000000000e+00 0.0000000000000000e+00 0.0000000000000000e+00 0.0000000000000000e+00  -7.9811489931907162e-02 -9.0504862296995512e-04 0.0000000000000000e+00 -9.0504862296995512e-04 -9.4733405480519534e-02 0.0000000000000000e+00 0.0000000000000000e+00 0.0000000000000000e+00 0.0000000000000000e+00  -7.9266200840753892e-02 -1.0193635208075912e-03 0.0000000000000000e+00 -1.0193635208075912e-03 -9.4463033903822227e-02 0.0000000000000000e+00 0.0000000000000000e+00 0.0000000000000000e+00 0.0000000000000000e+00  -7.8631429905370878e-02 -1.1339184027015588e-03 0.0000000000000000e+00 -1.1339184027015588e-03 -9.4122240601113183e-02 0.0000000000000000e+00 0.0000000000000000e+00 0.0000000000000000e+00 0.0000000000000000e+00  -7.7908747712176069e-02 -1.2490781724796701e-03 0.0000000000000000e+00 -1.2490781724796701e-03 -9.3706649342718412e-02 0.0000000000000000e+00 0.0000000000000000e+00 0.0000000000000000e+00 0.0000000000000000e+00  -7.7100354847096084e-02 -1.3630509113679611e-03 0.0000000000000000e+00 -1.3630509113679611e-03 -9.3208289311056791e-02 0.0000000000000000e+00 0.0000000000000000e+00 0.0000000000000000e+00 0.0000000000000000e+00  -7.6210295298013625e-02 -1.4718896170736199e-03 0.0000000000000000e+00 -1.4718896170736199e-03 -9.2613970671331897e-02 0.0000000000000000e+00 0.0000000000000000e+00 0.0000000000000000e+00 0.0000000000000000e+00  -7.5245800507764499e-02 -1.5693497471728185e-03 0.0000000000000000e+00 -1.5693497471728185e-03 -9.1903554414230454e-02 0.0000000000000000e+00 0.0000000000000000e+00 0.0000000000000000e+00 0.0000000000000000e+00  -7.4218798444823333e-02 -1.6466513833888212e-03 0.0000000000000000e+00 -1.6466513833888212e-03 -9.1048098408532757e-02 0.0000000000000000e+00 0.0000000000000000e+00 0.0000000000000000e+00 0.0000000000000000e+00  -7.3147616892050030e-02 -1.6921507682983367e-03 0.0000000000000000e+00 -1.6921507682983367e-03 -9.0007874094601953e-02 0.0000000000000000e+00 0.0000000000000000e+00 0.0000000000000000e+00 0.0000000000000000e+00  -7.2058929917257736e-02 -1.6909023699502646e-03 0.0000000000000000e+00 -1.6909023699502646e-03 -8.8730241318547315e-02 0.0000000000000000e+00 0.0000000000000000e+00 0.0000000000000000e+00 0.0000000000000000e+00  -7.0990025576623927e-02 -1.6240989448494936e-03 0.0000000000000000e+00 -1.6240989448494936e-03 -8.7147359811005909e-02 0.0000000000000000e+00 0.0000000000000000e+00 0.0000000000000000e+00 0.0000000000000000e+00  -6.9991488500673604e-02 -1.4684213998100667e-03 0.0000000000000000e+00 -1.4684213998100667e-03 -8.5173731104521977e-02 0.0000000000000000e+00 0.0000000000000000e+00 0.0000000000000000e+00 0.0000000000000000e+00  -6.9130365769745683e-02 -1.1954179841257774e-03 0.0000000000000000e+00 -1.1954179841257774e-03 -8.2703635682538523e-02 0.0000000000000000e+00 0.0000000000000000e+00 0.0000000000000000e+00 0.0000000000000000e+00  -6.8493789058380355e-02 -7.7116673803976688e-04 0.0000000000000000e+00 -7.7116673803976688e-04 -7.9608689266304697e-02 0.0000000000000000e+00 0.0000000000000000e+00 0.0000000000000000e+00 0.0000000000000000e+00  -6.8192829988780734e-02 -1.5665838187416942e-04 0.0000000000000000e+00 -1.5665838187416942e-04 -7.5736019866598628e-02 0.0000000000000000e+00 0.0000000000000000e+00 0.0000000000000000e+00 0.0000000000000000e+00  -6.8366035938386416e-02 6.9043104865647667e-04 0.0000000000000000e+00 6.9043104865647667e-04 -7.0907990618292130e-02 0.0000000000000000e+00 0.0000000000000000e+00 0.0000000000000000e+00 0.0000000000000000e+00  -6.9181595085657979e-02 1.8116400250003726e-03 0.0000000000000000e+00 1.8116400250003726e-03 -6.4924980810540711e-02 0.0000000000000000e+00 0.0000000000000000e+00 0.0000000000000000e+00 0.0000000000000000e+00  -7.0836373488425877e-02 3.2400932449825957e-03 0.0000000000000000e+00 3.2400932449825957e-03 -5.7573491193942006e-02 0.0000000000000000e+00 0.0000000000000000e+00 0.0000000000000000e+00 0.0000000000000000e+00  -7.3549158449263380e-02 4.9880311560033148e-03 0.0000000000000000e+00 4.9880311560033148e-03 -4.8642686677343831e-02 0.0000000000000000e+00 0.0000000000000000e+00 0.0000000000000000e+00 0.0000000000000000e+00  -7.7544355096293746e-02 7.0284222769818206e-03 0.0000000000000000e+00 7.0284222769818206e-03 -3.7953285277349806e-02 0.0000000000000000e+00 0.0000000000000000e+00 0.0000000000000000e+00 0.0000000000000000e+00  -8.3021503215513534e-02 9.2709783684551371e-03 0.0000000000000000e+00 9.2709783684551371e-03 -2.5402870062166297e-02 0.0000000000000000e+00 0.0000000000000000e+00 0.0000000000000000e+00 0.0000000000000000e+00  -9.0105803178578761e-02 1.1535256453639011e-02 0.0000000000000000e+00 1.1535256453639011e-02 -1.1030480808286681e-02 0.0000000000000000e+00 0.0000000000000000e+00 0.0000000000000000e+00 0.0000000000000000e+00  -9.8776616244929394e-02 1.3531183270322197e-02 0.0000000000000000e+00 1.3531183270322197e-02 4.9008230086698143e-03 0.0000000000000000e+00 0.0000000000000000e+00 0.0000000000000000e+00 0.0000000000000000e+00  -1.0877998193302590e-01 1.4860702890393615e-02 0.0000000000000000e+00 1.4860702890393615e-02 2.1817400723984550e-02 0.0000000000000000e+00 0.0000000000000000e+00 0.0000000000000000e+00 0.0000000000000000e+00  -1.1953713188268016e-01 1.5078301356939109e-02 0.0000000000000000e+00 1.5078301356939109e-02 3.8768089854561906e-02 0.0000000000000000e+00 0.0000000000000000e+00 0.0000000000000000e+00 0.0000000000000000e+00  -1.3011202438174907e-01 1.3813814968269720e-02 0.0000000000000000e+00 1.3813814968269720e-02 5.4457982974087424e-02 0.0000000000000000e+00 0.0000000000000000e+00 0.0000000000000000e+00 0.0000000000000000e+00  -1.3909344663308118e-01 1.0998220795499001e-02 0.0000000000000000e+00 1.0998220795499001e-02 6.7336480225443376e-02 0.0000000000000000e+00 0.0000000000000000e+00 0.0000000000000000e+00 0.0000000000000000e+00  -1.4084890340281506e-01 7.0023652994932158e-03 0.0000000000000000e+00 7.0023652994932158e-03 7.4331883349338310e-02 0.0000000000000000e+00 0.0000000000000000e+00 0.0000000000000000e+00 0.0000000000000000e+00  -8.0218796507138326e-02 2.5949006952780012e-03 0.0000000000000000e+00 2.5949006952780012e-03 7.8414156701174256e-02 0.0000000000000000e+00 0.0000000000000000e+00 0.0000000000000000e+00 0.0000000000000000e+00  -2.1744130502963380e-01 -1.0428956949711328e-03 0.0000000000000000e+00 -1.0428956949711328e-03 9.3363146350449802e-02 0.0000000000000000e+00 0.0000000000000000e+00 0.0000000000000000e+00 0.0000000000000000e+00  -2.0773736156986630e-01 -5.0234398018297868e-03 0.0000000000000000e+00 -5.0234398018297868e-03 9.9171097638830141e-02 0.0000000000000000e+00 0.0000000000000000e+00 0.0000000000000000e+00 0.0000000000000000e+00  -7.1990147549942374e-02 -9.3707358246945833e-03 0.0000000000000000e+00 -9.3707358246945833e-03 7.1084454035178532e-02 0.0000000000000000e+00 0.0000000000000000e+00 0.0000000000000000e+00 0.0000000000000000e+00  -1.2769749114427925e-01 -1.2402641978283778e-02 0.0000000000000000e+00 -1.2402641978283778e-02 6.0884542959806373e-02 0.0000000000000000e+00 0.0000000000000000e+00 0.0000000000000000e+00 0.0000000000000000e+00  -1.2293309009414327e-01 -1.4255514530967813e-02 0.0000000000000000e+00 -1.4255514530967813e-02 4.8340978698407852e-02 0.0000000000000000e+00 0.0000000000000000e+00 0.0000000000000000e+00 0.0000000000000000e+00  -1.1274084274929880e-01 -1.4779366323688883e-02 0.0000000000000000e+00 -1.4779366323688883e-02 3.1878627985078921e-02 0.0000000000000000e+00 0.0000000000000000e+00 0.0000000000000000e+00 0.0000000000000000e+00  -1.0251862335511056e-01 -1.4088756336186585e-02 0.0000000000000000e+00 -1.4088756336186585e-02 1.4658680852555710e-02 0.0000000000000000e+00 0.0000000000000000e+00 0.0000000000000000e+00 0.0000000000000000e+00  -9.3218715845023184e-02 -1.2507563524547318e-02 0.0000000000000000e+00 -1.2507563524547318e-02 -2.1317851750690120e-03 0.0000000000000000e+00 0.0000000000000000e+00 0.0000000000000000e+00 0.0000000000000000e+00  -8.5317901822510811e-02 -1.0417612828312030e-02 0.0000000000000000e+00 -1.0417612828312030e-02 -1.7683159800252989e-02 0.0000000000000000e+00 0.0000000000000000e+00 0.0000000000000000e+00 0.0000000000000000e+00  -7.9001295915007999e-02 -8.1623455821458572e-03 0.0000000000000000e+00 -8.1623455821458572e-03 -3.1528597778849990e-02 0.0000000000000000e+00 0.0000000000000000e+00 0.0000000000000000e+00 0.0000000000000000e+00  -7.4247435318422456e-02 -5.9917677334696265e-03 0.0000000000000000e+00 -5.9917677334696265e-03 -4.3480906759804920e-02 0.0000000000000000e+00 0.0000000000000000e+00 0.0000000000000000e+00 0.0000000000000000e+00  -7.0907300255739741e-02 -4.0582024572866525e-03 0.0000000000000000e+00 -4.0582024572866525e-03 -5.3553454861623433e-02 0.0000000000000000e+00 0.0000000000000000e+00 0.0000000000000000e+00 0.0000000000000000e+00  -6.8770098584396047e-02 -2.4327066275077903e-03 0.0000000000000000e+00 -2.4327066275077903e-03 -6.1883247535622493e-02 0.0000000000000000e+00 0.0000000000000000e+00 0.0000000000000000e+00 0.0000000000000000e+00  -6.7608772619094051e-02 -1.1294931906155653e-03 0.0000000000000000e+00 -1.1294931906155653e-03 -6.8670817747141677e-02 0.0000000000000000e+00 0.0000000000000000e+00 0.0000000000000000e+00 0.0000000000000000e+00  -6.7207511960896749e-02 -1.2817889300700030e-04 0.0000000000000000e+00 -1.2817889300700030e-04 -7.4138526955760162e-02 0.0000000000000000e+00 0.0000000000000000e+00 0.0000000000000000e+00 0.0000000000000000e+00  -6.7375818080825503e-02 6.0911349550299648e-04 0.0000000000000000e+00 6.0911349550299648e-04 -7.8504590682410780e-02 0.0000000000000000e+00 0.0000000000000000e+00 0.0000000000000000e+00 0.0000000000000000e+00  -6.7953612814495051e-02 1.1262681650627418e-03 0.0000000000000000e+00 1.1262681650627418e-03 -8.1968819675924162e-02 0.0000000000000000e+00 0.0000000000000000e+00 0.0000000000000000e+00 0.0000000000000000e+00  -6.8811043898340085e-02 1.4663140567451592e-03 0.0000000000000000e+00 1.4663140567451592e-03 -8.4706239392232832e-02 0.0000000000000000e+00 0.0000000000000000e+00 0.0000000000000000e+00 0.0000000000000000e+00  -6.9845558931539362e-02 1.6679133213372179e-03 0.0000000000000000e+00 1.6679133213372179e-03 -8.6865555920003543e-02 0.0000000000000000e+00 0.0000000000000000e+00 0.0000000000000000e+00 0.0000000000000000e+00  -7.0977913617101360e-02 1.7640268011209932e-03 0.0000000000000000e+00 1.7640268011209932e-03 -8.8570292427081282e-02 0.0000000000000000e+00 0.0000000000000000e+00 0.0000000000000000e+00 0.0000000000000000e+00  -7.2148082627215948e-02 1.7818432515207202e-03 0.0000000000000000e+00 1.7818432515207202e-03 -8.9921172043905234e-02 0.0000000000000000e+00 0.0000000000000000e+00 0.0000000000000000e+00 0.0000000000000000e+00  -7.3311555922664223e-02 1.7433273855129246e-03 0.0000000000000000e+00 1.7433273855129246e-03 -9.0998901150160072e-02 0.0000000000000000e+00 0.0000000000000000e+00 0.0000000000000000e+00 0.0000000000000000e+00  -7.4436188331825873e-02 1.6659727849612728e-03 0.0000000000000000e+00 1.6659727849612728e-03 -9.1866917113795188e-02 0.0000000000000000e+00 0.0000000000000000e+00 0.0000000000000000e+00 0.0000000000000000e+00  -7.5499588269291887e-02 1.5635263722249778e-03 0.0000000000000000e+00 1.5635263722249778e-03 -9.2573928085881579e-02 0.0000000000000000e+00 0.0000000000000000e+00 0.0000000000000000e+00 0.0000000000000000e+00  -7.6486948241130573e-02 1.4465820671604320e-03 0.0000000000000000e+00 1.4465820671604320e-03 -9.3156218490885498e-02 0.0000000000000000e+00 0.0000000000000000e+00 0.0000000000000000e+00 0.0000000000000000e+00  -7.7389204294853534e-02 1.3230253473514885e-03 0.0000000000000000e+00 1.3230253473514885e-03 -9.3639753804119555e-02 0.0000000000000000e+00 0.0000000000000000e+00 0.0000000000000000e+00 0.0000000000000000e+00  -7.8201434505473108e-02 1.1983514219648227e-03 0.0000000000000000e+00 1.1983514219648227e-03 -9.4042124739415159e-02 0.0000000000000000e+00 0.0000000000000000e+00 0.0000000000000000e+00 0.0000000000000000e+00  -7.8921440906654983e-02 1.0758832366088594e-03 0.0000000000000000e+00 1.0758832366088594e-03 -9.4374355356237380e-02 0.0000000000000000e+00 0.0000000000000000e+00 0.0000000000000000e+00 0.0000000000000000e+00  -7.9548482592982889e-02 9.5688968858113942e-04 0.0000000000000000e+00 9.5688968858113942e-04 -9.4642587848830381e-02 0.0000000000000000e+00 0.0000000000000000e+00 0.0000000000000000e+00 0.0000000000000000e+00  -8.0082124857838541e-02 8.4055860231706182e-04 0.0000000000000000e+00 8.4055860231706182e-04 -9.4849665861524976e-02 0.0000000000000000e+00 0.0000000000000000e+00 0.0000000000000000e+00 0.0000000000000000e+00  -8.0521133093560945e-02 7.2372057551110076e-04 0.0000000000000000e+00 7.2372057551110076e-04 -9.4996674083302660e-02 0.0000000000000000e+00 0.0000000000000000e+00 0.0000000000000000e+00 0.0000000000000000e+00  -8.0862269964283404e-02 6.0015016401746110e-04 0.0000000000000000e+00 6.0015016401746110e-04 -9.5084550294868675e-02 0.0000000000000000e+00 0.0000000000000000e+00 0.0000000000000000e+00 0.0000000000000000e+00  -8.1098751116615506e-02 4.5918204385470826e-04 0.0000000000000000e+00 4.5918204385470826e-04 -9.5115955153854556e-02 0.0000000000000000e+00 0.0000000000000000e+00 0.0000000000000000e+00 0.0000000000000000e+00  -8.1217975489848979e-02 2.8325395839835983e-04 0.0000000000000000e+00 2.8325395839835988e-04 -9.5097647523150503e-02 0.0000000000000000e+00 0.0000000000000000e+00 0.0000000000000000e+00 0.0000000000000000e+00  -8.1197961791717232e-02 4.3802449371984900e-05 0.0000000000000000e+00 4.3802449371984900e-05 -9.5043641737082088e-02 0.0000000000000000e+00 0.0000000000000000e+00 0.0000000000000000e+00 0.0000000000000000e+00  -8.1001661485324783e-02 -3.0531358999381523e-04 0.0000000000000000e+00 -3.0531358999381523e-04 -9.4979378751707477e-02 0.0000000000000000e+00 0.0000000000000000e+00 0.0000000000000000e+00 0.0000000000000000e+00  -8.0567952066912155e-02 -8.3788383530918672e-04 0.0000000000000000e+00 -8.3788383530918672e-04 -9.4946917177681500e-02 0.0000000000000000e+00 0.0000000000000000e+00 0.0000000000000000e+00 0.0000000000000000e+00  -7.9797408590079222e-02 -1.6695916710354943e-03 0.0000000000000000e+00 -1.6695916710354943e-03 -9.5010660938557576e-02 0.0000000000000000e+00 0.0000000000000000e+00 0.0000000000000000e+00 0.0000000000000000e+00  -7.8529696889533970e-02 -2.9738713010685576e-03 0.0000000000000000e+00 -2.9738713010685576e-03 -9.5261902364274398e-02 0.0000000000000000e+00 0.0000000000000000e+00 0.0000000000000000e+00 0.0000000000000000e+00  -7.6505969777251395e-02 -4.9846983297672015e-03 0.0000000000000000e+00 -4.9846983297672015e-03 -9.5817969611222492e-02 0.0000000000000000e+00 0.0000000000000000e+00 0.0000000000000000e+00 0.0000000000000000e+00  -7.3293382297184642e-02 -7.9262851158229241e-03 0.0000000000000000e+00 -7.9262851158229241e-03 -9.6808826746975440e-02 0.0000000000000000e+00 0.0000000000000000e+00 0.0000000000000000e+00 0.0000000000000000e+00  -6.8028764890792404e-02 -1.1688102933299301e-02 0.0000000000000000e+00 -1.1688102933299301e-02 -9.8330418594097357e-02 0.0000000000000000e+00 0.0000000000000000e+00 0.0000000000000000e+00 0.0000000000000000e+00  -5.5897305351010756e-02 -1.4939348142045870e-02 0.0000000000000000e+00 -1.4939348142045870e-02 -1.0129902194357168e-01 0.0000000000000000e+00 0.0000000000000000e+00 0.0000000000000000e+00 0.0000000000000000e+00  2.3747893386461050e-02 -1.4033066606231184e-02 0.0000000000000000e+00 -1.4033066606231184e-02 -1.1364365181659358e-01 0.0000000000000000e+00 0.0000000000000000e+00 0.0000000000000000e+00 0.0000000000000000e+00  -1.7203738781474635e-02 1.0364287856645093e-02 0.0000000000000000e+00 1.0364287856645093e-02 1.1732316565010509e-01 0.0000000000000000e+00 0.0000000000000000e+00 0.0000000000000000e+00 0.0000000000000000e+00  -4.4781074378902364e-01 -8.1184081724635997e-04 0.0000000000000000e+00 -8.1184081724635997e-04 -4.2430910086698381e-01 0.0000000000000000e+00 0.0000000000000000e+00 0.0000000000000000e+00 0.0000000000000000e+00  1.0288759352889401e-02 3.4380834625833696e-05 0.0000000000000000e+00 3.4380834625833696e-05 -5.1101835646000255e-03 0.0000000000000000e+00 0.0000000000000000e+00 0.0000000000000000e+00 0.0000000000000000e+00  8.4985254290605872e-03 -7.2931863894557693e-05 0.0000000000000000e+00 -7.2931863894557693e-05 7.1477565217418571e-03 0.0000000000000000e+00 0.0000000000000000e+00 0.0000000000000000e+00 0.0000000000000000e+00  8.0490727706397681e-03 -1.0800406356651722e-05 0.0000000000000000e+00 -1.0800406356651722e-05 7.9649284561046502e-03 0.0000000000000000e+00 0.0000000000000000e+00 0.0000000000000000e+00 0.0000000000000000e+00  7.9773239699192661e-03 1.3626191058668686e-05 0.0000000000000000e+00 1.3626191058668686e-05 7.9298582982063517e-03 0.0000000000000000e+00 0.0000000000000000e+00 0.0000000000000000e+00 0.0000000000000000e+00  7.9627619781081852e-03 3.6101491984595267e-05 0.0000000000000000e+00 3.6101491984595267e-05 7.9595145978435256e-03 0.0000000000000000e+00 0.0000000000000000e+00 0.0000000000000000e+00 0.0000000000000000e+00  7.9769812476732805e-03 -3.9858448317467748e-05 0.0000000000000000e+00 -3.9858448317467748e-05 7.9741792189219392e-03 0.0000000000000000e+00 0.0000000000000000e+00 0.0000000000000000e+00 0.0000000000000000e+00  7.9886606123099509e-03 -1.5917319828214287e-05 0.0000000000000000e+00 -1.5917319828214287e-05 7.9485894763042502e-03 0.0000000000000000e+00 0.0000000000000000e+00 0.0000000000000000e+00 0.0000000000000000e+00  8.0434903514004560e-03 8.8753573494548490e-06 0.0000000000000000e+00 8.8753573494548490e-06 7.9670009645129679e-03 0.0000000000000000e+00 0.0000000000000000e+00 0.0000000000000000e+00 0.0000000000000000e+00  8.4483231494225219e-03 8.7378293333022263e-05 0.0000000000000000e+00 8.7378293333022263e-05 7.3344683783172675e-03 0.0000000000000000e+00 0.0000000000000000e+00 0.0000000000000000e+00 0.0000000000000000e+00  1.2055705567004008e-02 1.6041131549364405e-04 0.0000000000000000e+00 1.6041131549364405e-04 -3.4396478314138597e-03 0.0000000000000000e+00 0.0000000000000000e+00 0.0000000000000000e+00 0.0000000000000000e+00  -3.8778973904613789e-01 -1.9590766321537401e-03 0.0000000000000000e+00 -1.9590766321537401e-03 -3.9233967904361500e-01 0.0000000000000000e+00 0.0000000000000000e+00 0.0000000000000000e+00 0.0000000000000000e+00  -6.5743235387510007e-02 -1.0995657078606164e-02 0.0000000000000000e+00 -1.0995657078606164e-02 7.4587485836613093e-02 0.0000000000000000e+00 0.0000000000000000e+00 0.0000000000000000e+00 0.0000000000000000e+00  1.0150007436081005e-02 2.7228696526760694e-02 0.0000000000000000e+00 2.7228696526760694e-02 -1.1926067347608171e-01 0.0000000000000000e+00 0.0000000000000000e+00 0.0000000000000000e+00 0.0000000000000000e+00  -7.3374880890264976e-02 2.2454190595424670e-02 0.0000000000000000e+00 2.2454190595424670e-02 -9.7840268025687890e-02 0.0000000000000000e+00 0.0000000000000000e+00 0.0000000000000000e+00 0.0000000000000000e+00  -8.0484927616479587e-02 1.5474244287075447e-02 0.0000000000000000e+00 1.5474244287075447e-02 -9.3237013353123593e-02 0.0000000000000000e+00 0.0000000000000000e+00 0.0000000000000000e+00 0.0000000000000000e+00  -8.1188990652544785e-02 9.8932580764151939e-03 0.0000000000000000e+00 9.8932580764151939e-03 -9.2786783553943916e-02 0.0000000000000000e+00 0.0000000000000000e+00 0.0000000000000000e+00 0.0000000000000000e+00  -8.1347982270501856e-02 6.0521658321840213e-03 0.0000000000000000e+00 6.0521658321840213e-03 -9.3098389509343238e-02 0.0000000000000000e+00 0.0000000000000000e+00 0.0000000000000000e+00 0.0000000000000000e+00  -8.1482646780114229e-02 3.5255330439136457e-03 0.0000000000000000e+00 3.5255330439136457e-03 -9.3525013867298445e-02 0.0000000000000000e+00 0.0000000000000000e+00 0.0000000000000000e+00 0.0000000000000000e+00  -8.1603912232521558e-02 1.8863747508887090e-03 0.0000000000000000e+00 1.8863747508887090e-03 -9.3929677825161859e-02 0.0000000000000000e+00 0.0000000000000000e+00 0.0000000000000000e+00 0.0000000000000000e+00  -8.1681385696608225e-02 8.2395536669847044e-04 0.0000000000000000e+00 8.2395536669847044e-04 -9.4277127650208528e-02 0.0000000000000000e+00 0.0000000000000000e+00 0.0000000000000000e+00 0.0000000000000000e+00  -8.1694978165643473e-02 1.2636167394003336e-04 0.0000000000000000e+00 1.2636167394003336e-04 -9.4554329969279052e-02 0.0000000000000000e+00 0.0000000000000000e+00 0.0000000000000000e+00 0.0000000000000000e+00  -8.1635245446041213e-02 -3.4549363543400158e-04 0.0000000000000000e+00 -3.4549363543400158e-04 -9.4754384228238273e-02 0.0000000000000000e+00 0.0000000000000000e+00 0.0000000000000000e+00 0.0000000000000000e+00  -8.1498659003570409e-02 -6.8111925496444072e-04 0.0000000000000000e+00 -6.8111925496444072e-04 -9.4873609568501382e-02 0.0000000000000000e+00 0.0000000000000000e+00 0.0000000000000000e+00 0.0000000000000000e+00  -8.1284043542581258e-02 -9.3724736889578761e-04 0.0000000000000000e+00 -9.3724736889578761e-04 -9.4911104368655977e-02 0.0000000000000000e+00 0.0000000000000000e+00 0.0000000000000000e+00 0.0000000000000000e+00  -8.0990910116686118e-02 -1.1494365729583990e-03 0.0000000000000000e+00 -1.1494365729583990e-03 -9.4868073513375006e-02 0.0000000000000000e+00 0.0000000000000000e+00 0.0000000000000000e+00 0.0000000000000000e+00  -8.0618751686270029e-02 -1.3397341924214991e-03 0.0000000000000000e+00 -1.3397341924214991e-03 -9.4746959586931009e-02 0.0000000000000000e+00 0.0000000000000000e+00 0.0000000000000000e+00 0.0000000000000000e+00  -8.0166792499905423e-02 -1.5215441525260971e-03 0.0000000000000000e+00 -1.5215441525260971e-03 -9.4550533294784439e-02 0.0000000000000000e+00 0.0000000000000000e+00 0.0000000000000000e+00 0.0000000000000000e+00  -7.9633959812778973e-02 -1.7025512660304291e-03 0.0000000000000000e+00 -1.7025512660304291e-03 -9.4281016308362678e-02 0.0000000000000000e+00 0.0000000000000000e+00 0.0000000000000000e+00 0.0000000000000000e+00  -7.9019044017093573e-02 -1.8863187035879367e-03 0.0000000000000000e+00 -1.8863187035879367e-03 -9.3939183834060067e-02 0.0000000000000000e+00 0.0000000000000000e+00 0.0000000000000000e+00 0.0000000000000000e+00  -7.8321080968208140e-02 -2.0730090025019832e-03 0.0000000000000000e+00 -2.0730090025019832e-03 -9.3523354978627155e-02 0.0000000000000000e+00 0.0000000000000000e+00 0.0000000000000000e+00 0.0000000000000000e+00  -7.7539992567671814e-02 -2.2595598919913445e-03 0.0000000000000000e+00 -2.2595598919913445e-03 -9.3028194521008495e-02 0.0000000000000000e+00 0.0000000000000000e+00 0.0000000000000000e+00 0.0000000000000000e+00  -7.6677489859837855e-02 -2.4395518744003641e-03 0.0000000000000000e+00 -2.4395518744003641e-03 -9.2443296537814787e-02 0.0000000000000000e+00 0.0000000000000000e+00 0.0000000000000000e+00 0.0000000000000000e+00  -7.5738206834752478e-02 -2.6029157118500901e-03 0.0000000000000000e+00 -2.6029157118500901e-03 -9.1751570666621415e-02 0.0000000000000000e+00 0.0000000000000000e+00 0.0000000000000000e+00 0.0000000000000000e+00  -7.4731016667174188e-02 -2.7355408609015049e-03 0.0000000000000000e+00 -2.7355408609015049e-03 -9.0927480667049171e-02 0.0000000000000000e+00 0.0000000000000000e+00 0.0000000000000000e+00 0.0000000000000000e+00  -7.3670498652184294e-02 -2.8187702297343890e-03 0.0000000000000000e+00 -2.8187702297343890e-03 -8.9935178713389838e-02 0.0000000000000000e+00 0.0000000000000000e+00 0.0000000000000000e+00 0.0000000000000000e+00  -7.2578573616025016e-02 -2.8287207365362572e-03 0.0000000000000000e+00 -2.8287207365362572e-03 -8.8726539233715929e-02 0.0000000000000000e+00 0.0000000000000000e+00 0.0000000000000000e+00 0.0000000000000000e+00  -7.1486394046950549e-02 -2.7353726334754611e-03 0.0000000000000000e+00 -2.7353726334754611e-03 -8.7239041321966526e-02 0.0000000000000000e+00 0.0000000000000000e+00 0.0000000000000000e+00 0.0000000000000000e+00  -7.0436638252659042e-02 -2.5014381561142248e-03 0.0000000000000000e+00 -2.5014381561142248e-03 -8.5393409356290390e-02 0.0000000000000000e+00 0.0000000000000000e+00 0.0000000000000000e+00 0.0000000000000000e+00  -6.9486386982749809e-02 -2.0811593387770975e-03 0.0000000000000000e+00 -2.0811593387770975e-03 -8.3090933290088251e-02 0.0000000000000000e+00 0.0000000000000000e+00 0.0000000000000000e+00 0.0000000000000000e+00  -6.8710729040222449e-02 -1.4193983779312459e-03 0.0000000000000000e+00 -1.4193983779312459e-03 -8.0210487543116202e-02 0.0000000000000000e+00 0.0000000000000000e+00 0.0000000000000000e+00 0.0000000000000000e+00  -6.8207125197688317e-02 -4.5167427896574373e-04 0.0000000000000000e+00 -4.5167427896574373e-04 -7.6605480940401940e-02 0.0000000000000000e+00 0.0000000000000000e+00 0.0000000000000000e+00 0.0000000000000000e+00  -6.8100331589477842e-02 8.9382888699469768e-04 0.0000000000000000e+00 8.9382888699469768e-04 -7.2101329374642587e-02 0.0000000000000000e+00 0.0000000000000000e+00 0.0000000000000000e+00 0.0000000000000000e+00  -6.8547302484712067e-02 2.6908026594813996e-03 0.0000000000000000e+00 2.6908026594813996e-03 -6.6494588723335302e-02 0.0000000000000000e+00 0.0000000000000000e+00 0.0000000000000000e+00 0.0000000000000000e+00  -6.9740900768762132e-02 5.0039296871489903e-03 0.0000000000000000e+00 5.0039296871489895e-03 -5.9555664489066823e-02 0.0000000000000000e+00 0.0000000000000000e+00 0.0000000000000000e+00 0.0000000000000000e+00  -7.1910284243697289e-02 7.8701565531583313e-03 0.0000000000000000e+00 7.8701565531583313e-03 -5.1038144629898641e-02 0.0000000000000000e+00 0.0000000000000000e+00 0.0000000000000000e+00 0.0000000000000000e+00  -7.5314532496992978e-02 1.1269826360733990e-02 0.0000000000000000e+00 1.1269826360733990e-02 -4.0699171330357047e-02 0.0000000000000000e+00 0.0000000000000000e+00 0.0000000000000000e+00 0.0000000000000000e+00  -8.0223783737243384e-02 1.5086031537004605e-02 0.0000000000000000e+00 1.5086031537004605e-02 -2.8337318544701968e-02 0.0000000000000000e+00 0.0000000000000000e+00 0.0000000000000000e+00 0.0000000000000000e+00  -8.6880199156282145e-02 1.9055930977412251e-02 0.0000000000000000e+00 1.9055930977412251e-02 -1.3855407438961829e-02 0.0000000000000000e+00 0.0000000000000000e+00 0.0000000000000000e+00 0.0000000000000000e+00  -9.5428272494887209e-02 2.2719544281319174e-02 0.0000000000000000e+00 2.2719544281319174e-02 2.6438488262794401e-03 0.0000000000000000e+00 0.0000000000000000e+00 0.0000000000000000e+00 0.0000000000000000e+00  -1.0580028864633495e-01 2.5406136874762161e-02 0.0000000000000000e+00 2.5406136874762161e-02 2.0722991511313089e-02 0.0000000000000000e+00 0.0000000000000000e+00 0.0000000000000000e+00 0.0000000000000000e+00  -1.1757717456206558e-01 2.6265628684699175e-02 0.0000000000000000e+00 2.6265628684699175e-02 3.9473725519760514e-02 0.0000000000000000e+00 0.0000000000000000e+00 0.0000000000000000e+00 0.0000000000000000e+00  -1.2977156523227931e-01 2.4516864980500125e-02 0.0000000000000000e+00 2.4516864980500125e-02 5.7358913766486594e-02 0.0000000000000000e+00 0.0000000000000000e+00 0.0000000000000000e+00 0.0000000000000000e+00  -1.4071933635620923e-01 1.9745292306927793e-02 0.0000000000000000e+00 1.9745292306927793e-02 7.2355955265843708e-02 0.0000000000000000e+00 0.0000000000000000e+00 0.0000000000000000e+00 0.0000000000000000e+00  -1.4397117422777050e-01 1.2564082526068873e-02 0.0000000000000000e+00 1.2564082526068873e-02 8.0492229675095686e-02 0.0000000000000000e+00 0.0000000000000000e+00 0.0000000000000000e+00 0.0000000000000000e+00  -8.3964477925374800e-02 4.4319540299878118e-03 0.0000000000000000e+00 4.4319540299878118e-03 8.4746235515679433e-02 0.0000000000000000e+00 0.0000000000000000e+00 0.0000000000000000e+00 0.0000000000000000e+00  -2.2266448238513886e-01 -1.9277432146568131e-03 0.0000000000000000e+00 -1.9277432146568131e-03 9.6764600795456984e-02 0.0000000000000000e+00 0.0000000000000000e+00 0.0000000000000000e+00 0.0000000000000000e+00  -2.0835642880764266e-01 -8.7156072986577030e-03 0.0000000000000000e+00 -8.7156072986577030e-03 1.0688504195249582e-01 0.0000000000000000e+00 0.0000000000000000e+00 0.0000000000000000e+00 0.0000000000000000e+00  -7.3488950348846865e-02 -1.6421877324782858e-02 0.0000000000000000e+00 -1.6421877324782858e-02 7.5890219601181266e-02 0.0000000000000000e+00 0.0000000000000000e+00 0.0000000000000000e+00 0.0000000000000000e+00  -1.2793456684291740e-01 -2.1654974388179541e-02 0.0000000000000000e+00 -2.1654974388179541e-02 6.4497140407211023e-02 0.0000000000000000e+00 0.0000000000000000e+00 0.0000000000000000e+00 0.0000000000000000e+00  -1.2177455630322764e-01 -2.4772467060280128e-02 0.0000000000000000e+00 -2.4772467060280128e-02 5.0085617290242898e-02 0.0000000000000000e+00 0.0000000000000000e+00 0.0000000000000000e+00 0.0000000000000000e+00  -1.1046169215763443e-01 -2.5397819718657309e-02 0.0000000000000000e+00 -2.5397819718657309e-02 3.1827707792876962e-02 0.0000000000000000e+00 0.0000000000000000e+00 0.0000000000000000e+00 0.0000000000000000e+00  -9.9546864227463991e-02 -2.3884871296039355e-02 0.0000000000000000e+00 -2.3884871296039355e-02 1.3141996536495389e-02 0.0000000000000000e+00 0.0000000000000000e+00 0.0000000000000000e+00 0.0000000000000000e+00  -9.0063416927691486e-02 -2.0887010080257302e-02 0.0000000000000000e+00 -2.0887010080257302e-02 -4.5702086754268768e-03 0.0000000000000000e+00 0.0000000000000000e+00 0.0000000000000000e+00 0.0000000000000000e+00  -8.2375630371709210e-02 -1.7138045423093762e-02 0.0000000000000000e+00 -1.7138045423093762e-02 -2.0531325540925679e-02 0.0000000000000000e+00 0.0000000000000000e+00 0.0000000000000000e+00 0.0000000000000000e+00  -7.6519049228383040e-02 -1.3226307337707936e-02 0.0000000000000000e+00 -1.3226307337707936e-02 -3.4387906024610421e-02 0.0000000000000000e+00 0.0000000000000000e+00 0.0000000000000000e+00 0.0000000000000000e+00  -7.2331063124523837e-02 -9.5539181204126432e-03 0.0000000000000000e+00 -9.5539181204126432e-03 -4.6095102575461067e-02 0.0000000000000000e+00 0.0000000000000000e+00 0.0000000000000000e+00 0.0000000000000000e+00  -6.9560467843929177e-02 -6.3437201638685253e-03 0.0000000000000000e+00 -6.3437201638685253e-03 -5.5789465158560619e-02 0.0000000000000000e+00 0.0000000000000000e+00 0.0000000000000000e+00 0.0000000000000000e+00  -6.7935220554045536e-02 -3.6849991180324232e-03 0.0000000000000000e+00 -3.6849991180324232e-03 -6.3697681027213640e-02 0.0000000000000000e+00 0.0000000000000000e+00 0.0000000000000000e+00 0.0000000000000000e+00  -6.7199584739570106e-02 -1.5789768630029145e-03 0.0000000000000000e+00 -1.5789768630029145e-03 -7.0077032052953195e-02 0.0000000000000000e+00 0.0000000000000000e+00 0.0000000000000000e+00 0.0000000000000000e+00  -6.7131208012318477e-02 2.2880153260730429e-05 0.0000000000000000e+00 2.2880153260730429e-05 -7.5180452758779784e-02 0.0000000000000000e+00 0.0000000000000000e+00 0.0000000000000000e+00 0.0000000000000000e+00  -6.7545938170399236e-02 1.1917880618634031e-03 0.0000000000000000e+00 1.1917880618634031e-03 -7.9238646261421422e-02 0.0000000000000000e+00 0.0000000000000000e+00 0.0000000000000000e+00 0.0000000000000000e+00  -6.8296228928177841e-02 2.0043744460183496e-03 0.0000000000000000e+00 2.0043744460183496e-03 -8.2452741671101976e-02 0.0000000000000000e+00 0.0000000000000000e+00 0.0000000000000000e+00 0.0000000000000000e+00  -6.9266589297060477e-02 2.5329618240295350e-03 0.0000000000000000e+00 2.5329618240295350e-03 -8.4993067412718837e-02 0.0000000000000000e+00 0.0000000000000000e+00 0.0000000000000000e+00 0.0000000000000000e+00  -7.0368160520425146e-02 2.8410138812921411e-03 0.0000000000000000e+00 2.8410138812921411e-03 -8.7001055610724118e-02 0.0000000000000000e+00 0.0000000000000000e+00 0.0000000000000000e+00 0.0000000000000000e+00  -7.1533519392380576e-02 2.9817979988576134e-03 0.0000000000000000e+00 2.9817979988576134e-03 -8.8592449053410238e-02 0.0000000000000000e+00 0.0000000000000000e+00 0.0000000000000000e+00 0.0000000000000000e+00  -7.2712215184411899e-02 2.9988199729479425e-03 0.0000000000000000e+00 2.9988199729479425e-03 -8.9860763488611300e-02 0.0000000000000000e+00 0.0000000000000000e+00 0.0000000000000000e+00 0.0000000000000000e+00  -7.3867177296655206e-02 2.9270449665687471e-03 0.0000000000000000e+00 2.9270449665687471e-03 -9.0880492609525895e-02 0.0000000000000000e+00 0.0000000000000000e+00 0.0000000000000000e+00 0.0000000000000000e+00  -7.4971917128731261e-02 2.7942892134357024e-03 0.0000000000000000e+00 2.7942892134357024e-03 -9.1709886311762093e-02 0.0000000000000000e+00 0.0000000000000000e+00 0.0000000000000000e+00 0.0000000000000000e+00  -7.6008344145176501e-02 2.6224527993047946e-03 0.0000000000000000e+00 2.6224527993047946e-03 -9.2393330409974217e-02 0.0000000000000000e+00 0.0000000000000000e+00 0.0000000000000000e+00 0.0000000000000000e+00  -7.6964995479574402e-02 2.4284712500815720e-03 0.0000000000000000e+00 2.4284712500815720e-03 -9.2963439764807712e-02 0.0000000000000000e+00 0.0000000000000000e+00 0.0000000000000000e+00 0.0000000000000000e+00  -7.7835516085508219e-02 2.2249966433350635e-03 0.0000000000000000e+00 2.2249966433350635e-03 -9.3442977775271746e-02 0.0000000000000000e+00 0.0000000000000000e+00 0.0000000000000000e+00 0.0000000000000000e+00  -7.8617295564518422e-02 2.0208809328237463e-03 0.0000000000000000e+00 2.0208809328237463e-03 -9.3846667710025186e-02 0.0000000000000000e+00 0.0000000000000000e+00 0.0000000000000000e+00 0.0000000000000000e+00  -7.9310240355531331e-02 1.8215330605876844e-03 0.0000000000000000e+00 1.8215330605876844e-03 -9.4182900761935584e-02 0.0000000000000000e+00 0.0000000000000000e+00 0.0000000000000000e+00 0.0000000000000000e+00  -7.9915712137153400e-02 1.6291719867255082e-03 0.0000000000000000e+00 1.6291719867255082e-03 -9.4455302038595618e-02 0.0000000000000000e+00 0.0000000000000000e+00 0.0000000000000000e+00 0.0000000000000000e+00  -8.0435681506925177e-02 1.4429194521923688e-03 0.0000000000000000e+00 1.4429194521923688e-03 -9.4664106659170244e-02 0.0000000000000000e+00 0.0000000000000000e+00 0.0000000000000000e+00 0.0000000000000000e+00  -8.0872130650322449e-02 1.2585871992258351e-03 0.0000000000000000e+00 1.2585871992258351e-03 -9.4807324990334313e-02 0.0000000000000000e+00 0.0000000000000000e+00 0.0000000000000000e+00 0.0000000000000000e+00  -8.1226703502650488e-02 1.0679229915513348e-03 0.0000000000000000e+00 1.0679229915513348e-03 -9.4881724834405323e-02 0.0000000000000000e+00 0.0000000000000000e+00 0.0000000000000000e+00 0.0000000000000000e+00  -8.1500570949933793e-02 8.5698393764289569e-04 0.0000000000000000e+00 8.5698393764289569e-04 -9.4883703878448342e-02 0.0000000000000000e+00 0.0000000000000000e+00 0.0000000000000000e+00 0.0000000000000000e+00  -8.1694481855405718e-02 6.0318490632248613e-04 0.0000000000000000e+00 6.0318490632248613e-04 -9.4810140036887480e-02 0.0000000000000000e+00 0.0000000000000000e+00 0.0000000000000000e+00 0.0000000000000000e+00  -8.1809039701484912e-02 2.7040145843366031e-04 0.0000000000000000e+00 2.7040145843366031e-04 -9.4659266963231153e-02 0.0000000000000000e+00 0.0000000000000000e+00 0.0000000000000000e+00 0.0000000000000000e+00  -8.1845443809263146e-02 -1.9872939883680194e-04 0.0000000000000000e+00 -1.9872939883680194e-04 -9.4431495311829289e-02 0.0000000000000000e+00 0.0000000000000000e+00 0.0000000000000000e+00 0.0000000000000000e+00  -8.1807214556188307e-02 -8.9446432108243037e-04 0.0000000000000000e+00 -8.9446432108243037e-04 -9.4130017099709876e-02 0.0000000000000000e+00 0.0000000000000000e+00 0.0000000000000000e+00 0.0000000000000000e+00  -8.1703853326143897e-02 -1.9568318355287356e-03 0.0000000000000000e+00 -1.9568318355287356e-03 -9.3761148220292800e-02 0.0000000000000000e+00 0.0000000000000000e+00 0.0000000000000000e+00 0.0000000000000000e+00  -8.1555742969831188e-02 -3.5989913011223395e-03 0.0000000000000000e+00 -3.5989913011223395e-03 -9.3337101435107567e-02 0.0000000000000000e+00 0.0000000000000000e+00 0.0000000000000000e+00 0.0000000000000000e+00  -8.1394102854610254e-02 -6.1334034905432839e-03 0.0000000000000000e+00 -6.1334034905432839e-03 -9.2891907117383168e-02 0.0000000000000000e+00 0.0000000000000000e+00 0.0000000000000000e+00 0.0000000000000000e+00  -8.1209867883675263e-02 -9.9895272341773891e-03 0.0000000000000000e+00 -9.9895272341773891e-03 -9.2560757869816226e-02 0.0000000000000000e+00 0.0000000000000000e+00 0.0000000000000000e+00 0.0000000000000000e+00  -8.0485254465006872e-02 -1.5596593826961420e-02 0.0000000000000000e+00 -1.5596593826961420e-02 -9.2988682613307533e-02 0.0000000000000000e+00 0.0000000000000000e+00 0.0000000000000000e+00 0.0000000000000000e+00  -7.3346155227096727e-02 -2.2618233815302289e-02 0.0000000000000000e+00 -2.2618233815302289e-02 -9.7576322769782550e-02 0.0000000000000000e+00 0.0000000000000000e+00 0.0000000000000000e+00 0.0000000000000000e+00  1.0378701111008892e-02 -2.7442211755913718e-02 0.0000000000000000e+00 -2.7442211755913718e-02 -1.1891303417385200e-01 0.0000000000000000e+00 0.0000000000000000e+00 0.0000000000000000e+00 0.0000000000000000e+00  -6.7086838015555567e-02 1.0643223476930674e-02 0.0000000000000000e+00 1.0643223476930674e-02 7.4164983673026319e-02 0.0000000000000000e+00 0.0000000000000000e+00 0.0000000000000000e+00 0.0000000000000000e+00  -3.8604707841756924e-01 2.0344421719372392e-03 0.0000000000000000e+00 2.0344421719372392e-03 -3.9140088933041395e-01 0.0000000000000000e+00 0.0000000000000000e+00 0.0000000000000000e+00 0.0000000000000000e+00  1.2016569437665251e-02 -1.6987203409362338e-04 0.0000000000000000e+00 -1.6987203409362338e-04 -3.4415544376009246e-03 0.0000000000000000e+00 0.0000000000000000e+00 0.0000000000000000e+00 0.0000000000000000e+00  8.4123763894849938e-03 -9.5786307639107569e-05 0.0000000000000000e+00 -9.5786307639107569e-05 7.3114996142199526e-03 0.0000000000000000e+00 0.0000000000000000e+00 0.0000000000000000e+00 0.0000000000000000e+00  7.9958235666309010e-03 -1.1741565502755907e-05 0.0000000000000000e+00 -1.1741565502755907e-05 7.9220871539824496e-03 0.0000000000000000e+00 0.0000000000000000e+00 0.0000000000000000e+00 0.0000000000000000e+00  7.9450248796195198e-03 1.8553924986903712e-05 0.0000000000000000e+00 1.8553924986903712e-05 7.9067364188735723e-03 0.0000000000000000e+00 0.0000000000000000e+00 0.0000000000000000e+00 0.0000000000000000e+00  7.9337780293899148e-03 4.8173629097157757e-05 0.0000000000000000e+00 4.8173629097157757e-05 7.9310420050941778e-03 0.0000000000000000e+00 0.0000000000000000e+00 0.0000000000000000e+00 0.0000000000000000e+00  7.9470042184589355e-03 -4.9956287775278346e-05 0.0000000000000000e+00 -4.9956287775278346e-05 7.9450002310794115e-03 0.0000000000000000e+00 0.0000000000000000e+00 0.0000000000000000e+00 0.0000000000000000e+00  7.9561285782852684e-03 -2.0581914617912594e-05 0.0000000000000000e+00 -2.0581914617912594e-05 7.9251879169168118e-03 0.0000000000000000e+00 0.0000000000000000e+00 0.0000000000000000e+00 0.0000000000000000e+00  7.9854725161502774e-03 5.4716849899071826e-06 0.0000000000000000e+00 5.4716849899071826e-06 7.9243191538429843e-03 0.0000000000000000e+00 0.0000000000000000e+00 0.0000000000000000e+00 0.0000000000000000e+00  8.3146314236855704e-03 1.0815796166260626e-04 0.0000000000000000e+00 1.0815796166260626e-04 7.5301016772038919e-03 0.0000000000000000e+00 0.0000000000000000e+00 0.0000000000000000e+00 0.0000000000000000e+00  1.3537943358428652e-02 8.5764638068138506e-04 0.0000000000000000e+00 8.5764638068138506e-04 -1.4242627006395006e-03 0.0000000000000000e+00 0.0000000000000000e+00 0.0000000000000000e+00 0.0000000000000000e+00  -2.9321243820910375e-01 -1.2745001201279426e-02 0.0000000000000000e+00 -1.2745001201279426e-02 -3.3378315503707984e-01 0.0000000000000000e+00 0.0000000000000000e+00 0.0000000000000000e+00 0.0000000000000000e+00  -1.8061861863702244e-01 -1.7243065875073110e-04 0.0000000000000000e+00 -1.7243065875073110e-04 -8.8743511969412575e-03 0.0000000000000000e+00 0.0000000000000000e+00 0.0000000000000000e+00 0.0000000000000000e+00  -1.8020011219944509e-02 3.6748993215472169e-02 0.0000000000000000e+00 3.6748993215472169e-02 -1.1264138070609954e-01 0.0000000000000000e+00 0.0000000000000000e+00 0.0000000000000000e+00 0.0000000000000000e+00  -9.6374117786827126e-02 2.1567985887955048e-02 0.0000000000000000e+00 2.1567985887955048e-02 -8.8669247995555617e-02 0.0000000000000000e+00 0.0000000000000000e+00 0.0000000000000000e+00 0.0000000000000000e+00  -9.4054839486095429e-02 1.2766052411921398e-02 0.0000000000000000e+00 1.2766052411921398e-02 -8.6267925116890284e-02 0.0000000000000000e+00 0.0000000000000000e+00 0.0000000000000000e+00 0.0000000000000000e+00  -8.9146598902854382e-02 7.8279082234957477e-03 0.0000000000000000e+00 7.8279082234957477e-03 -8.8284991801514792e-02 0.0000000000000000e+00 0.0000000000000000e+00 0.0000000000000000e+00 0.0000000000000000e+00  -8.6244632947667085e-02 4.7296768673978301e-03 0.0000000000000000e+00 4.7296768673978301e-03 -9.0136818071245448e-02 0.0000000000000000e+00 0.0000000000000000e+00 0.0000000000000000e+00 0.0000000000000000e+00  -8.4595943606335433e-02 2.6638460163691232e-03 0.0000000000000000e+00 2.6638460163691232e-03 -9.1560495084933344e-02 0.0000000000000000e+00 0.0000000000000000e+00 0.0000000000000000e+00 0.0000000000000000e+00  -8.3643950230496797e-02 1.2741130744325139e-03 0.0000000000000000e+00 1.2741130744325139e-03 -9.2618510628301412e-02 0.0000000000000000e+00 0.0000000000000000e+00 0.0000000000000000e+00 0.0000000000000000e+00  -8.3070896617559509e-02 3.3251607091649179e-04 0.0000000000000000e+00 3.3251607091649179e-04 -9.3386891165403149e-02 0.0000000000000000e+00 0.0000000000000000e+00 0.0000000000000000e+00 0.0000000000000000e+00  -8.2690279339323408e-02 -3.1600069222803838e-04 0.0000000000000000e+00 -3.1600069222803838e-04 -9.3930175935206944e-02 0.0000000000000000e+00 0.0000000000000000e+00 0.0000000000000000e+00 0.0000000000000000e+00  -8.2394325564172172e-02 -7.7865602940353155e-04 0.0000000000000000e+00 -7.7865602940353155e-04 -9.4294331623328662e-02 0.0000000000000000e+00 0.0000000000000000e+00 0.0000000000000000e+00 0.0000000000000000e+00  -8.2119792289400945e-02 -1.1278945671340408e-03 0.0000000000000000e+00 -1.1278945671340408e-03 -9.4511698216486639e-02 0.0000000000000000e+00 0.0000000000000000e+00 0.0000000000000000e+00 0.0000000000000000e+00  -8.1829208394693487e-02 -1.4115918683245423e-03 0.0000000000000000e+00 -1.4115918683245423e-03 -9.4605256349124298e-02 0.0000000000000000e+00 0.0000000000000000e+00 0.0000000000000000e+00 0.0000000000000000e+00  -8.1500061711497124e-02 -1.6607855483107259e-03 0.0000000000000000e+00 -1.6607855483107259e-03 -9.4591746185369072e-02 0.0000000000000000e+00 0.0000000000000000e+00 0.0000000000000000e+00 0.0000000000000000e+00  -8.1118544994112141e-02 -1.8953046420982834e-03 0.0000000000000000e+00 -1.8953046420982834e-03 -9.4483580307937354e-02 0.0000000000000000e+00 0.0000000000000000e+00 0.0000000000000000e+00 0.0000000000000000e+00  -8.0675780636782837e-02 -2.1275579696804939e-03 0.0000000000000000e+00 -2.1275579696804939e-03 -9.4290029024910002e-02 0.0000000000000000e+00 0.0000000000000000e+00 0.0000000000000000e+00 0.0000000000000000e+00  -8.0165547383530517e-02 -2.3648124485065596e-03 0.0000000000000000e+00 -2.3648124485065596e-03 -9.4017853930705234e-02 0.0000000000000000e+00 0.0000000000000000e+00 0.0000000000000000e+00 0.0000000000000000e+00  -7.9583005789460939e-02 -2.6103204262786020e-03 0.0000000000000000e+00 -2.6103204262786020e-03 -9.3671461707105552e-02 0.0000000000000000e+00 0.0000000000000000e+00 0.0000000000000000e+00 0.0000000000000000e+00  -7.8924183270756468e-02 -2.8636333818531472e-03 0.0000000000000000e+00 -2.8636333818531472e-03 -9.3252577716943036e-02 0.0000000000000000e+00 0.0000000000000000e+00 0.0000000000000000e+00 0.0000000000000000e+00  -7.8186081200602400e-02 -3.1204145789505392e-03 0.0000000000000000e+00 -3.1204145789505392e-03 -9.2759438795969859e-02 0.0000000000000000e+00 0.0000000000000000e+00 0.0000000000000000e+00 0.0000000000000000e+00  -7.7367274725759133e-02 -3.3720105017982843e-03 0.0000000000000000e+00 -3.3720105017982843e-03 -9.2185559611112647e-02 0.0000000000000000e+00 0.0000000000000000e+00 0.0000000000000000e+00 0.0000000000000000e+00  -7.6468852471604593e-02 -3.6049531135924971e-03 0.0000000000000000e+00 -3.6049531135924971e-03 -9.1518190765483967e-02 0.0000000000000000e+00 0.0000000000000000e+00 0.0000000000000000e+00 0.0000000000000000e+00  -7.5495534103063380e-02 -3.8004490277807816e-03 0.0000000000000000e+00 -3.8004490277807816e-03 -9.0736620500684428e-02 0.0000000000000000e+00 0.0000000000000000e+00 0.0000000000000000e+00 0.0000000000000000e+00  -7.4456840141633535e-02 -3.9337937019049965e-03 0.0000000000000000e+00 -3.9337937019049965e-03 -8.9810446845557126e-02 0.0000000000000000e+00 0.0000000000000000e+00 0.0000000000000000e+00 0.0000000000000000e+00  -7.3368277716083313e-02 -3.9735663367253225e-03 0.0000000000000000e+00 -3.9735663367253225e-03 -8.8697860346170637e-02 0.0000000000000000e+00 0.0000000000000000e+00 0.0000000000000000e+00 0.0000000000000000e+00  -7.2252632224743568e-02 -3.8804500644542862e-03 0.0000000000000000e+00 -3.8804500644542862e-03 -8.7343851944438722e-02 0.0000000000000000e+00 0.0000000000000000e+00 0.0000000000000000e+00 0.0000000000000000e+00  -7.1141586799953638e-02 -3.6056054594349632e-03 0.0000000000000000e+00 -3.6056054594349632e-03 -8.5678137479902980e-02 0.0000000000000000e+00 0.0000000000000000e+00 0.0000000000000000e+00 0.0000000000000000e+00  -7.0077994416315570e-02 -3.0887100107463124e-03 0.0000000000000000e+00 -3.0887100107463124e-03 -8.3612515922375064e-02 0.0000000000000000e+00 0.0000000000000000e+00 0.0000000000000000e+00 0.0000000000000000e+00  -6.9119175523815454e-02 -2.2560573895028008e-03 0.0000000000000000e+00 -2.2560573895028008e-03 -8.1037391157903177e-02 0.0000000000000000e+00 0.0000000000000000e+00 0.0000000000000000e+00 0.0000000000000000e+00  -6.8341594886784887e-02 -1.0194841834476939e-03 0.0000000000000000e+00 -1.0194841834476939e-03 -7.7817312520386331e-02 0.0000000000000000e+00 0.0000000000000000e+00 0.0000000000000000e+00 0.0000000000000000e+00  -6.7847178145216194e-02 7.2263056777790004e-04 0.0000000000000000e+00 7.2263056777790004e-04 -7.3785649235712777e-02 0.0000000000000000e+00 0.0000000000000000e+00 0.0000000000000000e+00 0.0000000000000000e+00  -6.7771343404452525e-02 3.0804422382010393e-03 0.0000000000000000e+00 3.0804422382010393e-03 -6.8738947676548187e-02 0.0000000000000000e+00 0.0000000000000000e+00 0.0000000000000000e+00 0.0000000000000000e+00  -6.8292443494291658e-02 6.1611704340483742e-03 0.0000000000000000e+00 6.1611704340483742e-03 -6.2432251481713288e-02 0.0000000000000000e+00 0.0000000000000000e+00 0.0000000000000000e+00 0.0000000000000000e+00  -6.9641677126792922e-02 1.0047631913008961e-02 0.0000000000000000e+00 1.0047631913008961e-02 -5.4577790180961601e-02 0.0000000000000000e+00 0.0000000000000000e+00 0.0000000000000000e+00 0.0000000000000000e+00  -7.2110759673723088e-02 1.4762307595432175e-02 0.0000000000000000e+00 1.4762307595432175e-02 -4.4851796725499646e-02 0.0000000000000000e+00 0.0000000000000000e+00 0.0000000000000000e+00 0.0000000000000000e+00  -7.6053038655659544e-02 2.0213649514536584e-02 0.0000000000000000e+00 2.0213649514536584e-02 -3.2916422292644423e-02 0.0000000000000000e+00 0.0000000000000000e+00 0.0000000000000000e+00 0.0000000000000000e+00  -8.1865779993071916e-02 2.6118581184145312e-02 0.0000000000000000e+00 2.6118581184145312e-02 -1.8471976484866853e-02 0.0000000000000000e+00 0.0000000000000000e+00 0.0000000000000000e+00 0.0000000000000000e+00  -8.9940116853427274e-02 3.1921009992054175e-02 0.0000000000000000e+00 3.1921009992054175e-02 -1.3542675152271343e-03 0.0000000000000000e+00 0.0000000000000000e+00 0.0000000000000000e+00 0.0000000000000000e+00  -1.0055055299828052e-01 3.6678555712745815e-02 0.0000000000000000e+00 3.6678555712745815e-02 1.8296934070591211e-02 0.0000000000000000e+00 0.0000000000000000e+00 0.0000000000000000e+00 0.0000000000000000e+00  -1.1360174072742919e-01 3.9124885404308710e-02 0.0000000000000000e+00 3.9124885404308710e-02 3.9734605250896102e-02 0.0000000000000000e+00 0.0000000000000000e+00 0.0000000000000000e+00 0.0000000000000000e+00  -1.2842675004408996e-01 3.7627501457629907e-02 0.0000000000000000e+00 3.7627501457629907e-02 6.1414018196445562e-02 0.0000000000000000e+00 0.0000000000000000e+00 0.0000000000000000e+00 0.0000000000000000e+00  -1.4273000668581973e-01 3.1215950204078646e-02 0.0000000000000000e+00 3.1215950204078646e-02 8.0205552161326299e-02 0.0000000000000000e+00 0.0000000000000000e+00 0.0000000000000000e+00 0.0000000000000000e+00  -1.4953108026500414e-01 1.9815965454076972e-02 0.0000000000000000e+00 1.9815965454076972e-02 9.1128234715038323e-02 0.0000000000000000e+00 0.0000000000000000e+00 0.0000000000000000e+00 0.0000000000000000e+00  -9.0292511394722816e-02 6.5441809025032632e-03 0.0000000000000000e+00 6.5441809025032632e-03 9.5192594086981885e-02 0.0000000000000000e+00 0.0000000000000000e+00 0.0000000000000000e+00 0.0000000000000000e+00  -2.3265156743736981e-01 -3.2807614448421116e-03 0.0000000000000000e+00 -3.2807614448421116e-03 1.0173337651636834e-01 0.0000000000000000e+00 0.0000000000000000e+00 0.0000000000000000e+00 0.0000000000000000e+00  -2.0864860150652020e-01 -1.3075127803242752e-02 0.0000000000000000e+00 -1.3075127803242752e-02 1.1922494830398719e-01 0.0000000000000000e+00 0.0000000000000000e+00 0.0000000000000000e+00 0.0000000000000000e+00  -7.6344377497015795e-02 -2.4722925617167910e-02 0.0000000000000000e+00 -2.4722925617167910e-02 8.3747929140117874e-02 0.0000000000000000e+00 0.0000000000000000e+00 0.0000000000000000e+00 0.0000000000000000e+00  -1.2808726512349491e-01 -3.2747497456227306e-02 0.0000000000000000e+00 -3.2747497456227306e-02 6.9976060533592760e-02 0.0000000000000000e+00 0.0000000000000000e+00 0.0000000000000000e+00 0.0000000000000000e+00  -1.1961823785511744e-01 -3.6962632812717430e-02 0.0000000000000000e+00 -3.6962632812717430e-02 5.2580976409302260e-02 0.0000000000000000e+00 0.0000000000000000e+00 0.0000000000000000e+00 0.0000000000000000e+00  -1.0635777607575445e-01 -3.7206106316990915e-02 0.0000000000000000e+00 -3.7206106316990915e-02 3.1171348243248569e-02 0.0000000000000000e+00 0.0000000000000000e+00 0.0000000000000000e+00 0.0000000000000000e+00  -9.4540266752119184e-02 -3.4143064318600709e-02 0.0000000000000000e+00 -3.4143064318600709e-02 1.0269266516497594e-02 0.0000000000000000e+00 0.0000000000000000e+00 0.0000000000000000e+00 0.0000000000000000e+00  -8.4997308224810400e-02 -2.9148346460245961e-02 0.0000000000000000e+00 -2.9148346460245961e-02 -8.7165084986019249e-03 0.0000000000000000e+00 0.0000000000000000e+00 0.0000000000000000e+00 0.0000000000000000e+00  -7.7854021876280821e-02 -2.3350438886078878e-02 0.0000000000000000e+00 -2.3350438886078878e-02 -2.5106871366037894e-02 0.0000000000000000e+00 0.0000000000000000e+00 0.0000000000000000e+00 0.0000000000000000e+00  -7.2851890074880299e-02 -1.7599698501860467e-02 0.0000000000000000e+00 -1.7599698501860467e-02 -3.8810360863864996e-02 0.0000000000000000e+00 0.0000000000000000e+00 0.0000000000000000e+00 0.0000000000000000e+00  -6.9606436491974344e-02 -1.2391129443842725e-02 0.0000000000000000e+00 -1.2391129443842725e-02 -5.0026451915682155e-02 0.0000000000000000e+00 0.0000000000000000e+00 0.0000000000000000e+00 0.0000000000000000e+00  -6.7726855083679594e-02 -7.9631138929270942e-03 0.0000000000000000e+00 -7.9631138929270942e-03 -5.9079111795642729e-02 0.0000000000000000e+00 0.0000000000000000e+00 0.0000000000000000e+00 0.0000000000000000e+00  -6.6868039946433658e-02 -4.3756601479340825e-03 0.0000000000000000e+00 -4.3756601479340825e-03 -6.6320100938202911e-02 0.0000000000000000e+00 0.0000000000000000e+00 0.0000000000000000e+00 0.0000000000000000e+00  -6.6748460101230228e-02 -1.5850474738270020e-03 0.0000000000000000e+00 -1.5850474738270020e-03 -7.2078954920525393e-02 0.0000000000000000e+00 0.0000000000000000e+00 0.0000000000000000e+00 0.0000000000000000e+00  -6.7148209661323788e-02 5.0460929388771358e-04 0.0000000000000000e+00 5.0460929388771358e-04 -7.6643400144859430e-02 0.0000000000000000e+00 0.0000000000000000e+00 0.0000000000000000e+00 0.0000000000000000e+00  -6.7900367393133418e-02 2.0074347055073138e-03 0.0000000000000000e+00 2.0074347055073138e-03 -8.0254717125251798e-02 0.0000000000000000e+00 0.0000000000000000e+00 0.0000000000000000e+00 0.0000000000000000e+00  -6.8880336313973348e-02 3.0361074058597652e-03 0.0000000000000000e+00 3.0361074058597652e-03 -8.3110742000196275e-02 0.0000000000000000e+00 0.0000000000000000e+00 0.0000000000000000e+00 0.0000000000000000e+00  -6.9995944477185559e-02 3.6918704837001957e-03 0.0000000000000000e+00 3.6918704837001957e-03 -8.5371727576654996e-02 0.0000000000000000e+00 0.0000000000000000e+00 0.0000000000000000e+00 0.0000000000000000e+00  -7.1179205981237434e-02 4.0607606083975234e-03 0.0000000000000000e+00 4.0607606083975234e-03 -8.7166734871017101e-02 0.0000000000000000e+00 0.0000000000000000e+00 0.0000000000000000e+00 0.0000000000000000e+00  -7.2379974763023811e-02 4.2134505675769304e-03 0.0000000000000000e+00 4.2134505675769304e-03 -8.8599383701698342e-02 0.0000000000000000e+00 0.0000000000000000e+00 0.0000000000000000e+00 0.0000000000000000e+00  -7.3561347494749060e-02 4.2069004759550310e-03 0.0000000000000000e+00 4.2069004759550310e-03 -8.9752515331614879e-02 0.0000000000000000e+00 0.0000000000000000e+00 0.0000000000000000e+00 0.0000000000000000e+00  -7.4696502755965594e-02 4.0866275413096479e-03 0.0000000000000000e+00 4.0866275413096479e-03 -9.0691732992841279e-02 0.0000000000000000e+00 0.0000000000000000e+00 0.0000000000000000e+00 0.0000000000000000e+00  -7.5766586885853415e-02 3.8888802083143514e-03 0.0000000000000000e+00 3.8888802083143514e-03 -9.1468023982282834e-02 0.0000000000000000e+00 0.0000000000000000e+00 0.0000000000000000e+00 0.0000000000000000e+00  -7.6759251323560346e-02 3.6423688164838315e-03 0.0000000000000000e+00 3.6423688164838315e-03 -9.2119773421218229e-02 0.0000000000000000e+00 0.0000000000000000e+00 0.0000000000000000e+00 0.0000000000000000e+00  -7.7667504149863995e-02 3.3694766782597528e-03 0.0000000000000000e+00 3.3694766782597528e-03 -9.2674478066672325e-02 0.0000000000000000e+00 0.0000000000000000e+00 0.0000000000000000e+00 0.0000000000000000e+00  -7.8488648088961555e-02 3.0870509334011572e-03 0.0000000000000000e+00 3.0870509334011572e-03 -9.3150383978800988e-02 0.0000000000000000e+00 0.0000000000000000e+00 0.0000000000000000e+00 0.0000000000000000e+00  -7.9223213227571851e-02 2.8069481707057079e-03 0.0000000000000000e+00 2.8069481707057079e-03 -9.3558141899523189e-02 0.0000000000000000e+00 0.0000000000000000e+00 0.0000000000000000e+00 0.0000000000000000e+00  -7.9873921372391313e-02 2.5364925749990020e-03 0.0000000000000000e+00 2.5364925749990020e-03 -9.3902444200939642e-02 0.0000000000000000e+00 0.0000000000000000e+00 0.0000000000000000e+00 0.0000000000000000e+00  -8.0444809535517442e-02 2.2789174030662827e-03 0.0000000000000000e+00 2.2789174030662827e-03 -9.4183517734224301e-02 0.0000000000000000e+00 0.0000000000000000e+00 0.0000000000000000e+00 0.0000000000000000e+00  -8.0940677186618126e-02 2.0337394225764254e-03 0.0000000000000000e+00 2.0337394225764254e-03 -9.4398320076637524e-02 0.0000000000000000e+00 0.0000000000000000e+00 0.0000000000000000e+00 0.0000000000000000e+00  -8.1367013226967502e-02 1.7968978227219678e-03 0.0000000000000000e+00 1.7968978227219678e-03 -9.4541319012918887e-02 0.0000000000000000e+00 0.0000000000000000e+00 0.0000000000000000e+00 0.0000000000000000e+00  -8.1730535770791368e-02 1.5603998020289576e-03 0.0000000000000000e+00 1.5603998020289576e-03 -9.4604797703587998e-02 0.0000000000000000e+00 0.0000000000000000e+00 0.0000000000000000e+00 0.0000000000000000e+00  -8.2040487030922579e-02 1.3111611105490739e-03 0.0000000000000000e+00 1.3111611105490739e-03 -9.4578681655737032e-02 0.0000000000000000e+00 0.0000000000000000e+00 0.0000000000000000e+00 0.0000000000000000e+00  -8.2310928847410578e-02 1.0287037516716389e-03 0.0000000000000000e+00 1.0287037516716389e-03 -9.4449881992278925e-02 0.0000000000000000e+00 0.0000000000000000e+00 0.0000000000000000e+00 0.0000000000000000e+00  -8.2564550325061742e-02 6.8134998632137758e-04 0.0000000000000000e+00 6.8134998632137758e-04 -9.4201075980362439e-02 0.0000000000000000e+00 0.0000000000000000e+00 0.0000000000000000e+00 0.0000000000000000e+00  -8.2838975606000703e-02 2.2057840945896156e-04 0.0000000000000000e+00 2.2057840945896156e-04 -9.3808741069001084e-02 0.0000000000000000e+00 0.0000000000000000e+00 0.0000000000000000e+00 0.0000000000000000e+00  -8.3197665080693289e-02 -4.2672102134940946e-04 0.0000000000000000e+00 -4.2672102134940946e-04 -9.3239958391117581e-02 0.0000000000000000e+00 0.0000000000000000e+00 0.0000000000000000e+00 0.0000000000000000e+00  -8.3748817099290745e-02 -1.3684610341985126e-03 0.0000000000000000e+00 -1.3684610341985126e-03 -9.2448038807629876e-02 0.0000000000000000e+00 0.0000000000000000e+00 0.0000000000000000e+00 0.0000000000000000e+00  -8.4679808559356279e-02 -2.7604033932718489e-03 0.0000000000000000e+00 -2.7604033932718489e-03 -9.1367432883626101e-02 0.0000000000000000e+00 0.0000000000000000e+00 0.0000000000000000e+00 0.0000000000000000e+00  -8.6310170780215204e-02 -4.8311544877444792e-03 0.0000000000000000e+00 -4.8311544877444792e-03 -8.9920622234234915e-02 0.0000000000000000e+00 0.0000000000000000e+00 0.0000000000000000e+00 0.0000000000000000e+00  -8.9199812777767382e-02 -7.9374566645359114e-03 0.0000000000000000e+00 -7.9374566645359114e-03 -8.8043040383116680e-02 0.0000000000000000e+00 0.0000000000000000e+00 0.0000000000000000e+00 0.0000000000000000e+00  -9.4107829585091826e-02 -1.2886729439604595e-02 0.0000000000000000e+00 -1.2886729439604595e-02 -8.5994795284052628e-02 0.0000000000000000e+00 0.0000000000000000e+00 0.0000000000000000e+00 0.0000000000000000e+00  -9.6436963680763405e-02 -2.1703484508440968e-02 0.0000000000000000e+00 -2.1703484508440968e-02 -8.8363745722156051e-02 0.0000000000000000e+00 0.0000000000000000e+00 0.0000000000000000e+00 0.0000000000000000e+00  -1.8037080550206759e-02 -3.6898824818468921e-02 0.0000000000000000e+00 -3.6898824818468921e-02 -1.1220127830919928e-01 0.0000000000000000e+00 0.0000000000000000e+00 0.0000000000000000e+00 0.0000000000000000e+00  -1.8209800945102544e-01 -1.8236644442679896e-04 0.0000000000000000e+00 -1.8236644442679896e-04 -9.4265305267979011e-03 0.0000000000000000e+00 0.0000000000000000e+00 0.0000000000000000e+00 0.0000000000000000e+00  -2.9222679161115245e-01 1.2781207958278537e-02 0.0000000000000000e+00 1.2781207958278537e-02 -3.3315333147383008e-01 0.0000000000000000e+00 0.0000000000000000e+00 0.0000000000000000e+00 0.0000000000000000e+00  1.3478993846377589e-02 -8.6068112446607197e-04 0.0000000000000000e+00 -8.6068112446607197e-04 -1.4409461526591375e-03 0.0000000000000000e+00 0.0000000000000000e+00 0.0000000000000000e+00 0.0000000000000000e+00  8.2783302771332092e-03 -1.1330522874570130e-04 0.0000000000000000e+00 -1.1330522874570130e-04 7.5040377991400231e-03 0.0000000000000000e+00 0.0000000000000000e+00 0.0000000000000000e+00 0.0000000000000000e+00  7.9328288265957149e-03 -8.4526988447542447e-06 0.0000000000000000e+00 -8.4526988447542447e-06 7.8739736903560183e-03 0.0000000000000000e+00 0.0000000000000000e+00 0.0000000000000000e+00 0.0000000000000000e+00  7.9069184785435787e-03 2.3355280202899758e-05 0.0000000000000000e+00 2.3355280202899758e-05 7.8777765369508427e-03 0.0000000000000000e+00 0.0000000000000000e+00 0.0000000000000000e+00 0.0000000000000000e+00  7.8981001620845644e-03 5.7834842290844211e-05 0.0000000000000000e+00 5.7834842290844211e-05 7.8963453133411420e-03 0.0000000000000000e+00 0.0000000000000000e+00 0.0000000000000000e+00 0.0000000000000000e+00  7.9123986156637485e-03 -5.8099096701990159e-05 0.0000000000000000e+00 -5.8099096701990159e-05 7.9114157935635653e-03 0.0000000000000000e+00 0.0000000000000000e+00 0.0000000000000000e+00 0.0000000000000000e+00  7.9184386146380834e-03 -2.4279734984401153e-05 0.0000000000000000e+00 -2.4279734984401153e-05 7.8965594646653887e-03 0.0000000000000000e+00 0.0000000000000000e+00 0.0000000000000000e+00 0.0000000000000000e+00  7.9379844423882791e-03 2.7837392188258384e-06 0.0000000000000000e+00 2.7837392188258384e-06 7.8891190830764433e-03 0.0000000000000000e+00 0.0000000000000000e+00 0.0000000000000000e+00 0.0000000000000000e+00  8.1338865521972913e-03 5.3422072272731356e-05 0.0000000000000000e+00 5.3422072272731356e-05 7.6404815866909902e-03 0.0000000000000000e+00 0.0000000000000000e+00 0.0000000000000000e+00 0.0000000000000000e+00  1.3159274749273175e-02 2.5158424593974870e-03 0.0000000000000000e+00 2.5158424593974870e-03 1.0325440935413908e-03 0.0000000000000000e+00 0.0000000000000000e+00 0.0000000000000000e+00 0.0000000000000000e+00  -1.6714058196988138e-01 -3.4966637289449237e-02 0.0000000000000000e+00 -3.4966637289449237e-02 -2.3942106331047092e-01 0.0000000000000000e+00 0.0000000000000000e+00 0.0000000000000000e+00 0.0000000000000000e+00  -3.9769474430069995e-01 2.5188069971042584e-02 0.0000000000000000e+00 2.5188069971042584e-02 -1.3710418502853255e-01 0.0000000000000000e+00 0.0000000000000000e+00 0.0000000000000000e+00 0.0000000000000000e+00  -4.2215622491118911e-02 2.4351221486551142e-02 0.0000000000000000e+00 2.4351221486551142e-02 -8.1377605429128003e-02 0.0000000000000000e+00 0.0000000000000000e+00 0.0000000000000000e+00 0.0000000000000000e+00  -1.0997014045621607e-01 6.3152393116785895e-03 0.0000000000000000e+00 6.3152393116785895e-03 -7.8279056384735507e-02 0.0000000000000000e+00 0.0000000000000000e+00 0.0000000000000000e+00 0.0000000000000000e+00  -1.0070123282614962e-01 3.5415099170172759e-03 0.0000000000000000e+00 3.5415099170172759e-03 -8.2263510071524396e-02 0.0000000000000000e+00 0.0000000000000000e+00 0.0000000000000000e+00 0.0000000000000000e+00  -9.3504515547435968e-02 2.6553674877189790e-03 0.0000000000000000e+00 2.6553674877189790e-03 -8.5812857268065645e-02 0.0000000000000000e+00 0.0000000000000000e+00 0.0000000000000000e+00 0.0000000000000000e+00  -8.9351010301093978e-02 1.6306933483376479e-03 0.0000000000000000e+00 1.6306933483376479e-03 -8.8301329988171098e-02 0.0000000000000000e+00 0.0000000000000000e+00 0.0000000000000000e+00 0.0000000000000000e+00  -8.6807277822190748e-02 7.1996104058492960e-04 0.0000000000000000e+00 7.1996104058492960e-04 -9.0224014941060207e-02 0.0000000000000000e+00 0.0000000000000000e+00 0.0000000000000000e+00 0.0000000000000000e+00  -8.5252561703874075e-02 -1.3878081800120261e-05 0.0000000000000000e+00 -1.3878081800120261e-05 -9.1645237653468492e-02 0.0000000000000000e+00 0.0000000000000000e+00 0.0000000000000000e+00 0.0000000000000000e+00  -8.4277573868343142e-02 -5.8029234858289437e-04 0.0000000000000000e+00 -5.8029234858289437e-04 -9.2668870989144864e-02 0.0000000000000000e+00 0.0000000000000000e+00 0.0000000000000000e+00 0.0000000000000000e+00  -8.3636387657647498e-02 -1.0182101835332249e-03 0.0000000000000000e+00 -1.0182101835332249e-03 -9.3382536358499579e-02 0.0000000000000000e+00 0.0000000000000000e+00 0.0000000000000000e+00 0.0000000000000000e+00  -8.3177191777604603e-02 -1.3682969209275935e-03 0.0000000000000000e+00 -1.3682969209275935e-03 -9.3854828676627436e-02 0.0000000000000000e+00 0.0000000000000000e+00 0.0000000000000000e+00 0.0000000000000000e+00  -8.2805902917178334e-02 -1.6645101979590486e-03 0.0000000000000000e+00 -1.6645101979590486e-03 -9.4136682487270681e-02 0.0000000000000000e+00 0.0000000000000000e+00 0.0000000000000000e+00 0.0000000000000000e+00  -8.2463975403679557e-02 -1.9320254131086243e-03 0.0000000000000000e+00 -1.9320254131086243e-03 -9.4265397584282429e-02 0.0000000000000000e+00 0.0000000000000000e+00 0.0000000000000000e+00 0.0000000000000000e+00  -8.2115282739836010e-02 -2.1884835968371155e-03 0.0000000000000000e+00 -2.1884835968371155e-03 -9.4267683009508052e-02 0.0000000000000000e+00 0.0000000000000000e+00 0.0000000000000000e+00 0.0000000000000000e+00  -8.1737439247217089e-02 -2.4459980129806235e-03 0.0000000000000000e+00 -2.4459980129806235e-03 -9.4162641554342105e-02 0.0000000000000000e+00 0.0000000000000000e+00 0.0000000000000000e+00 0.0000000000000000e+00  -8.1316167343117043e-02 -2.7127546100595657e-03 0.0000000000000000e+00 -2.7127546100595657e-03 -9.3964108626520326e-02 0.0000000000000000e+00 0.0000000000000000e+00 0.0000000000000000e+00 0.0000000000000000e+00  -8.0841606926922910e-02 -2.9939106050136397e-03 0.0000000000000000e+00 -2.9939106050136397e-03 -9.3682339140189419e-02 0.0000000000000000e+00 0.0000000000000000e+00 0.0000000000000000e+00 0.0000000000000000e+00  -8.0306009457785488e-02 -3.2917213411671671e-03 0.0000000000000000e+00 -3.2917213411671671e-03 -9.3325010209454204e-02 0.0000000000000000e+00 0.0000000000000000e+00 0.0000000000000000e+00 0.0000000000000000e+00  -7.9702545066582767e-02 -3.6050528947994286e-03 0.0000000000000000e+00 -3.6050528947994286e-03 -9.2897460655102349e-02 0.0000000000000000e+00 0.0000000000000000e+00 0.0000000000000000e+00 0.0000000000000000e+00  -7.9025032859701277e-02 -3.9285474915546261e-03 0.0000000000000000e+00 -3.9285474915546261e-03 -9.2402160349571730e-02 0.0000000000000000e+00 0.0000000000000000e+00 0.0000000000000000e+00 0.0000000000000000e+00  -7.8268386695922079e-02 -4.2517299691217205e-03 0.0000000000000000e+00 -4.2517299691217205e-03 -9.1837513688665620e-02 0.0000000000000000e+00 0.0000000000000000e+00 0.0000000000000000e+00 0.0000000000000000e+00  -7.7429501980282561e-02 -4.5582646977526640e-03 0.0000000000000000e+00 -4.5582646977526640e-03 -9.1196230118950269e-02 0.0000000000000000e+00 0.0000000000000000e+00 0.0000000000000000e+00 0.0000000000000000e+00  -7.6508273922178363e-02 -4.8254120993610726e-03 0.0000000000000000e+00 -4.8254120993610726e-03 -9.0463563737602851e-02 0.0000000000000000e+00 0.0000000000000000e+00 0.0000000000000000e+00 0.0000000000000000e+00  -7.5508482815880434e-02 -5.0235459379408065e-03 0.0000000000000000e+00 -5.0235459379408065e-03 -8.9615687542932074e-02 0.0000000000000000e+00 0.0000000000000000e+00 0.0000000000000000e+00 0.0000000000000000e+00  -7.4438420472901626e-02 -5.1154454063265763e-03 0.0000000000000000e+00 -5.1154454063265763e-03 -8.8618317318393397e-02 0.0000000000000000e+00 0.0000000000000000e+00 0.0000000000000000e+00 0.0000000000000000e+00  -7.3311338655770886e-02 -5.0550320647880448e-03 0.0000000000000000e+00 -5.0550320647880448e-03 -8.7425470910844474e-02 0.0000000000000000e+00 0.0000000000000000e+00 0.0000000000000000e+00 0.0000000000000000e+00  -7.2146025027716471e-02 -4.7853156752502360e-03 0.0000000000000000e+00 -4.7853156752502360e-03 -8.5978005924549253e-02 0.0000000000000000e+00 0.0000000000000000e+00 0.0000000000000000e+00 0.0000000000000000e+00  -7.0968002788911203e-02 -4.2355449674370332e-03 0.0000000000000000e+00 -4.2355449674370332e-03 -8.4201391793325725e-02 0.0000000000000000e+00 0.0000000000000000e+00 0.0000000000000000e+00 0.0000000000000000e+00  -6.9811976444762572e-02 -3.3179037502341002e-03 0.0000000000000000e+00 -3.3179037502341002e-03 -8.2002088724108413e-02 0.0000000000000000e+00 0.0000000000000000e+00 0.0000000000000000e+00 0.0000000000000000e+00  -6.8726212308208273e-02 -1.9245245366932349e-03 0.0000000000000000e+00 -1.9245245366932349e-03 -7.9261940026942410e-02 0.0000000000000000e+00 0.0000000000000000e+00 0.0000000000000000e+00 0.0000000000000000e+00  -6.7779581203793265e-02 7.3887506270191208e-05 0.0000000000000000e+00 7.3887506270191208e-05 -7.5830127432766112e-02 0.0000000000000000e+00 0.0000000000000000e+00 0.0000000000000000e+00 0.0000000000000000e+00  -6.7072029316838130e-02 2.8258508782145644e-03 0.0000000000000000e+00 2.8258508782145644e-03 -7.1512500732440878e-02 0.0000000000000000e+00 0.0000000000000000e+00 0.0000000000000000e+00 0.0000000000000000e+00  -6.6749289985186311e-02 6.4904354778931948e-03 0.0000000000000000e+00 6.4904354778931948e-03 -6.6058541837580906e-02 0.0000000000000000e+00 0.0000000000000000e+00 0.0000000000000000e+00 0.0000000000000000e+00  -6.7022287750956450e-02 1.1217812343899807e-02 0.0000000000000000e+00 1.1217812343899807e-02 -5.9147344307922692e-02 0.0000000000000000e+00 0.0000000000000000e+00 0.0000000000000000e+00 0.0000000000000000e+00  -6.8191727789343529e-02 1.7113400093232065e-02 0.0000000000000000e+00 1.7113400093232065e-02 -5.0375222153045456e-02 0.0000000000000000e+00 0.0000000000000000e+00 0.0000000000000000e+00 0.0000000000000000e+00  -7.0672469127125159e-02 2.4175563143139761e-02 0.0000000000000000e+00 2.4175563143139761e-02 -3.9255155493059440e-02 0.0000000000000000e+00 0.0000000000000000e+00 0.0000000000000000e+00 0.0000000000000000e+00  -7.5019060015626346e-02 3.2207354468037651e-02 0.0000000000000000e+00 3.2207354468037651e-02 -2.5233542562754566e-02 0.0000000000000000e+00 0.0000000000000000e+00 0.0000000000000000e+00 0.0000000000000000e+00  -8.1909086371076231e-02 4.0654946140966583e-02 0.0000000000000000e+00 4.0654946140966583e-02 -7.7785243425612357e-03 0.0000000000000000e+00 0.0000000000000000e+00 0.0000000000000000e+00 0.0000000000000000e+00  -9.2090881649573311e-02 4.8526248904941706e-02 0.0000000000000000e+00 4.8526248904941706e-02 1.3463716560862796e-02 0.0000000000000000e+00 0.0000000000000000e+00 0.0000000000000000e+00 0.0000000000000000e+00  -1.0622739325144558e-01 5.3920061187001794e-02 0.0000000000000000e+00 5.3920061187001794e-02 3.8359581170931842e-02 0.0000000000000000e+00 0.0000000000000000e+00 0.0000000000000000e+00 0.0000000000000000e+00  -1.2402065280487166e-01 5.4759613851588063e-02 0.0000000000000000e+00 5.4759613851588063e-02 6.5281637823136410e-02 0.0000000000000000e+00 0.0000000000000000e+00 0.0000000000000000e+00 0.0000000000000000e+00  -1.4462953152272959e-01 4.7222647824771695e-02 0.0000000000000000e+00 4.7222647824771695e-02 9.1649479069239370e-02 0.0000000000000000e+00 0.0000000000000000e+00 0.0000000000000000e+00 0.0000000000000000e+00  -1.5686172696054745e-01 3.1625688176056828e-02 0.0000000000000000e+00 3.1625688176056828e-02 1.0742567062283832e-01 0.0000000000000000e+00 0.0000000000000000e+00 0.0000000000000000e+00 0.0000000000000000e+00  -1.0350364145499935e-01 8.9543623302364411e-03 0.0000000000000000e+00 8.9543623302364411e-03 1.1362085089041034e-01 0.0000000000000000e+00 0.0000000000000000e+00 0.0000000000000000e+00 0.0000000000000000e+00  -2.4793734941093171e-01 -6.0490585833319422e-03 0.0000000000000000e+00 -6.0490585833319422e-03 1.0605856692134256e-01 0.0000000000000000e+00 0.0000000000000000e+00 0.0000000000000000e+00 0.0000000000000000e+00  -2.1050431091340169e-01 -1.7612082000229675e-02 0.0000000000000000e+00 -1.7612082000229675e-02 1.3933683473270650e-01 0.0000000000000000e+00 0.0000000000000000e+00 0.0000000000000000e+00 0.0000000000000000e+00  -8.0228888984091196e-02 -3.5832850481110019e-02 0.0000000000000000e+00 -3.5832850481110019e-02 9.4281561316532564e-02 0.0000000000000000e+00 0.0000000000000000e+00 0.0000000000000000e+00 0.0000000000000000e+00  -1.2861685568409700e-01 -4.6780049880874038e-02 0.0000000000000000e+00 -4.6780049880874038e-02 7.8744853270609691e-02 0.0000000000000000e+00 0.0000000000000000e+00 0.0000000000000000e+00 0.0000000000000000e+00  -1.1508041444934441e-01 -5.2166986882807707e-02 0.0000000000000000e+00 -5.2166986882807707e-02 5.4785763643984228e-02 0.0000000000000000e+00 0.0000000000000000e+00 0.0000000000000000e+00 0.0000000000000000e+00  -9.9457263180990879e-02 -5.0503596760420343e-02 0.0000000000000000e+00 -5.0503596760420343e-02 2.9060826797348466e-02 0.0000000000000000e+00 0.0000000000000000e+00 0.0000000000000000e+00 0.0000000000000000e+00  -8.6768712865657738e-02 -4.4767394003324704e-02 0.0000000000000000e+00 -4.4767394003324704e-02 5.1504927089981558e-03 0.0000000000000000e+00 0.0000000000000000e+00 0.0000000000000000e+00 0.0000000000000000e+00  -7.7712260037182165e-02 -3.6866966635381013e-02 0.0000000000000000e+00 -3.6866966635381013e-02 -1.5153029296550760e-02 0.0000000000000000e+00 0.0000000000000000e+00 0.0000000000000000e+00 0.0000000000000000e+00  -7.1754756469646311e-02 -2.8578760357635610e-02 0.0000000000000000e+00 -2.8578760357635610e-02 -3.1705352753996413e-02 0.0000000000000000e+00 0.0000000000000000e+00 0.0000000000000000e+00 0.0000000000000000e+00  -6.8181033441890956e-02 -2.0837326384010917e-02 0.0000000000000000e+00 -2.0837326384010917e-02 -4.4877170943935112e-02 0.0000000000000000e+00 0.0000000000000000e+00 0.0000000000000000e+00 0.0000000000000000e+00  -6.6335145754159774e-02 -1.4139864500824710e-02 0.0000000000000000e+00 -1.4139864500824710e-02 -5.5220457001764450e-02 0.0000000000000000e+00 0.0000000000000000e+00 0.0000000000000000e+00 0.0000000000000000e+00  -6.5679551526353880e-02 -8.6399702649892739e-03 0.0000000000000000e+00 -8.6399702649892739e-03 -6.3299452165716405e-02 0.0000000000000000e+00 0.0000000000000000e+00 0.0000000000000000e+00 0.0000000000000000e+00  -6.5816105971482894e-02 -4.3069437427210901e-03 0.0000000000000000e+00 -4.3069437427210901e-03 -6.9603807766502088e-02 0.0000000000000000e+00 0.0000000000000000e+00 0.0000000000000000e+00 0.0000000000000000e+00  -6.6460671797205245e-02 -1.0138337752252815e-03 0.0000000000000000e+00 -1.0138337752252815e-03 -7.4533367781129303e-02 0.0000000000000000e+00 0.0000000000000000e+00 0.0000000000000000e+00 0.0000000000000000e+00  -6.7417915296316216e-02 1.4020510334258579e-03 0.0000000000000000e+00 1.4020510334258579e-03 -7.8401462989986917e-02 0.0000000000000000e+00 0.0000000000000000e+00 0.0000000000000000e+00 0.0000000000000000e+00  -6.8556011928424754e-02 3.1054753438004624e-03 0.0000000000000000e+00 3.1054753438004624e-03 -8.1449438370799418e-02 0.0000000000000000e+00 0.0000000000000000e+00 0.0000000000000000e+00 0.0000000000000000e+00  -6.9786903720420942e-02 4.2459092032974960e-03 0.0000000000000000e+00 4.2459092032974960e-03 -8.3862111388954164e-02 0.0000000000000000e+00 0.0000000000000000e+00 0.0000000000000000e+00 0.0000000000000000e+00  -7.1051546642027480e-02 4.9506001476665009e-03 0.0000000000000000e+00 4.9506001476665009e-03 -8.5781634118024586e-02 0.0000000000000000e+00 0.0000000000000000e+00 0.0000000000000000e+00 0.0000000000000000e+00  -7.2309596075869675e-02 5.3236962938961524e-03 0.0000000000000000e+00 5.3236962938961524e-03 -8.7318545926468316e-02 0.0000000000000000e+00 0.0000000000000000e+00 0.0000000000000000e+00 0.0000000000000000e+00  -7.3532616657278019e-02 5.4485607186998278e-03 0.0000000000000000e+00 5.4485607186998278e-03 -8.8559920021138355e-02 0.0000000000000000e+00 0.0000000000000000e+00 0.0000000000000000e+00 0.0000000000000000e+00  -7.4699983695596855e-02 5.3913744043826931e-03 0.0000000000000000e+00 5.3913744043826931e-03 -8.9574913894243033e-02 0.0000000000000000e+00 0.0000000000000000e+00 0.0000000000000000e+00 0.0000000000000000e+00  -7.5796707944154620e-02 5.2048114503076507e-03 0.0000000000000000e+00 5.2048114503076507e-03 -9.0418257001718086e-02 0.0000000000000000e+00 0.0000000000000000e+00 0.0000000000000000e+00 0.0000000000000000e+00  -7.6812474759144572e-02 4.9310840380858189e-03 0.0000000000000000e+00 4.9310840380858189e-03 -9.1132320241307643e-02 0.0000000000000000e+00 0.0000000000000000e+00 0.0000000000000000e+00 0.0000000000000000e+00  -7.7741267738787825e-02 4.6040737242829923e-03 0.0000000000000000e+00 4.6040737242829923e-03 -9.1748423517993588e-02 0.0000000000000000e+00 0.0000000000000000e+00 0.0000000000000000e+00 0.0000000000000000e+00  -7.8581080715395574e-02 4.2505963034030368e-03 0.0000000000000000e+00 4.2505963034030368e-03 -9.2287939637994199e-02 0.0000000000000000e+00 0.0000000000000000e+00 0.0000000000000000e+00 0.0000000000000000e+00  -7.9333416317203947e-02 3.8910672678216553e-03 0.0000000000000000e+00 3.8910672678216553e-03 -9.2763556984034989e-02 0.0000000000000000e+00 0.0000000000000000e+00 0.0000000000000000e+00 0.0000000000000000e+00  -8.0002495330779758e-02 3.5399191059051417e-03 0.0000000000000000e+00 3.5399191059051417e-03 -9.3180815881537163e-02 0.0000000000000000e+00 0.0000000000000000e+00 0.0000000000000000e+00 0.0000000000000000e+00  -8.0594307907503202e-02 3.2060704666138713e-03 0.0000000000000000e+00 3.2060704666138713e-03 -9.3539801946097179e-02 0.0000000000000000e+00 0.0000000000000000e+00 0.0000000000000000e+00 0.0000000000000000e+00  -8.1115775799041501e-02 2.8935950235767652e-03 0.0000000000000000e+00 2.8935950235767652e-03 -9.3836728022658425e-02 0.0000000000000000e+00 0.0000000000000000e+00 0.0000000000000000e+00 0.0000000000000000e+00  -8.1574339405589447e-02 2.6025465927419595e-03 0.0000000000000000e+00 2.6025465927419595e-03 -9.4065099404186087e-02 0.0000000000000000e+00 0.0000000000000000e+00 0.0000000000000000e+00 0.0000000000000000e+00  -8.1978248012513730e-02 2.3297347740917347e-03 0.0000000000000000e+00 2.3297347740917351e-03 -9.4216225760635444e-02 0.0000000000000000e+00 0.0000000000000000e+00 0.0000000000000000e+00 0.0000000000000000e+00  -8.2337764982856790e-02 2.0691655431659068e-03 0.0000000000000000e+00 2.0691655431659063e-03 -9.4278971273912007e-02 0.0000000000000000e+00 0.0000000000000000e+00 0.0000000000000000e+00 0.0000000000000000e+00  -8.2667482742249693e-02 1.8118818150029685e-03 0.0000000000000000e+00 1.8118818150029685e-03 -9.4238744631464227e-02 0.0000000000000000e+00 0.0000000000000000e+00 0.0000000000000000e+00 0.0000000000000000e+00  -8.2990025937430073e-02 1.5450483556048210e-03 0.0000000000000000e+00 1.5450483556048210e-03 -9.4075800926788758e-02 0.0000000000000000e+00 0.0000000000000000e+00 0.0000000000000000e+00 0.0000000000000000e+00  -8.3341710148285911e-02 1.2503509663076096e-03 0.0000000000000000e+00 1.2503509663076096e-03 -9.3762878622204310e-02 0.0000000000000000e+00 0.0000000000000000e+00 0.0000000000000000e+00 0.0000000000000000e+00  -8.3781269691223945e-02 9.0200539159994626e-04 0.0000000000000000e+00 9.0200539159994626e-04 -9.3262171228868318e-02 0.0000000000000000e+00 0.0000000000000000e+00 0.0000000000000000e+00 0.0000000000000000e+00  -8.4403064245594808e-02 4.6553820563901633e-04 0.0000000000000000e+00 4.6553820563901633e-04 -9.2522211901096760e-02 0.0000000000000000e+00 0.0000000000000000e+00 0.0000000000000000e+00 0.0000000000000000e+00  -8.5359394303716946e-02 -1.0009165284586472e-04 0.0000000000000000e+00 -1.0009165284586470e-04 -9.1473768619093801e-02 0.0000000000000000e+00 0.0000000000000000e+00 0.0000000000000000e+00 0.0000000000000000e+00  -8.6897035182273707e-02 -8.3394022156333021e-04 0.0000000000000000e+00 -8.3394022156333021e-04 -9.0028427153509422e-02 0.0000000000000000e+00 0.0000000000000000e+00 0.0000000000000000e+00 0.0000000000000000e+00  -8.9426714724829590e-02 -1.7450675948496614e-03 0.0000000000000000e+00 -1.7450675948496614e-03 -8.8081321643077720e-02 0.0000000000000000e+00 0.0000000000000000e+00 0.0000000000000000e+00 0.0000000000000000e+00  -9.3571593196312322e-02 -2.7690665671255155e-03 0.0000000000000000e+00 -2.7690665671255155e-03 -8.5566852740144334e-02 0.0000000000000000e+00 0.0000000000000000e+00 0.0000000000000000e+00 0.0000000000000000e+00  -1.0076660333288072e-01 -3.6500155074486200e-03 0.0000000000000000e+00 -3.6500155074486200e-03 -8.1990400095423327e-02 0.0000000000000000e+00 0.0000000000000000e+00 0.0000000000000000e+00 0.0000000000000000e+00  -1.1003520777982057e-01 -6.4047376587010327e-03 0.0000000000000000e+00 -6.4047376587010327e-03 -7.7979096996836722e-02 0.0000000000000000e+00 0.0000000000000000e+00 0.0000000000000000e+00 0.0000000000000000e+00  -4.2290130672449279e-02 -2.4400441458879370e-02 0.0000000000000000e+00 -2.4400441458879370e-02 -8.0888286445286006e-02 0.0000000000000000e+00 0.0000000000000000e+00 0.0000000000000000e+00 0.0000000000000000e+00  -3.9893952439324221e-01 -2.5447409324685571e-02 0.0000000000000000e+00 -2.5447409324685571e-02 -1.3762127512006636e-01 0.0000000000000000e+00 0.0000000000000000e+00 0.0000000000000000e+00 0.0000000000000000e+00  -1.6679276702959658e-01 3.4923483466522375e-02 0.0000000000000000e+00 3.4923483466522375e-02 -2.3911063585736808e-01 0.0000000000000000e+00 0.0000000000000000e+00 0.0000000000000000e+00 0.0000000000000000e+00  1.3105308576605234e-02 -2.5091355199024861e-03 0.0000000000000000e+00 -2.5091355199024861e-03 1.0248900512694580e-03 0.0000000000000000e+00 0.0000000000000000e+00 0.0000000000000000e+00 0.0000000000000000e+00  8.0869216021358329e-03 -5.6887557080207572e-05 0.0000000000000000e+00 -5.6887557080207572e-05 7.6033788893005187e-03 0.0000000000000000e+00 0.0000000000000000e+00 0.0000000000000000e+00 0.0000000000000000e+00  7.8834078888316665e-03 -5.9914579043907176e-06 0.0000000000000000e+00 -5.9914579043907159e-06 7.8330126008847208e-03 0.0000000000000000e+00 0.0000000000000000e+00 0.0000000000000000e+00 0.0000000000000000e+00  7.8631519362634614e-03 2.7110191241194328e-05 0.0000000000000000e+00 2.7110191241194328e-05 7.8445480806811404e-03 0.0000000000000000e+00 0.0000000000000000e+00 0.0000000000000000e+00 0.0000000000000000e+00  7.8579254711680247e-03 6.4990393277168047e-05 0.0000000000000000e+00 6.4990393277168047e-05 7.8574081899770703e-03 0.0000000000000000e+00 0.0000000000000000e+00 0.0000000000000000e+00 0.0000000000000000e+00  7.8758950149907664e-03 -6.1922310469194645e-05 0.0000000000000000e+00 -6.1922310469194645e-05 7.8760733734756228e-03 0.0000000000000000e+00 0.0000000000000000e+00 0.0000000000000000e+00 0.0000000000000000e+00  7.8787988906072765e-03 -3.1267917115922875e-05 0.0000000000000000e+00 -3.1267917115922875e-05 7.8646371285720999e-03 0.0000000000000000e+00 0.0000000000000000e+00 0.0000000000000000e+00 0.0000000000000000e+00  7.8912918217856533e-03 2.3327142997062103e-05 0.0000000000000000e+00 2.3327142997062103e-05 7.8580827045839890e-03 0.0000000000000000e+00 0.0000000000000000e+00 0.0000000000000000e+00 0.0000000000000000e+00  8.0957748797070433e-03 -1.1421932064684500e-04 0.0000000000000000e+00 -1.1421932064684500e-04 7.7198409728625583e-03 0.0000000000000000e+00 0.0000000000000000e+00 0.0000000000000000e+00 0.0000000000000000e+00  9.6543244682425564e-03 3.5741641825581638e-03 0.0000000000000000e+00 3.5741641825581638e-03 2.6682489916529488e-03 0.0000000000000000e+00 0.0000000000000000e+00 0.0000000000000000e+00 0.0000000000000000e+00  -3.3088437587825939e-02 -4.6847392467785826e-02 0.0000000000000000e+00 -4.6847392467785826e-02 -1.1754672633190903e-01 0.0000000000000000e+00 0.0000000000000000e+00 0.0000000000000000e+00 0.0000000000000000e+00  -6.4316013853359766e-01 5.8196274397870687e-02 0.0000000000000000e+00 5.8196274397870687e-02 -2.9345169858700759e-01 0.0000000000000000e+00 0.0000000000000000e+00 0.0000000000000000e+00 0.0000000000000000e+00  -5.6793676878945419e-03 -1.8394941916410657e-02 0.0000000000000000e+00 -1.8394941916410657e-02 -2.1399557956221189e-02 0.0000000000000000e+00 0.0000000000000000e+00 0.0000000000000000e+00 0.0000000000000000e+00  -9.3428833084079635e-02 -1.2968004383803787e-02 0.0000000000000000e+00 -1.2968004383803787e-02 -8.3285107097466449e-02 0.0000000000000000e+00 0.0000000000000000e+00 0.0000000000000000e+00 0.0000000000000000e+00  -9.5839134408834098e-02 -4.6510917623480896e-03 0.0000000000000000e+00 -4.6510917623480896e-03 -8.5471863078429688e-02 0.0000000000000000e+00 0.0000000000000000e+00 0.0000000000000000e+00 0.0000000000000000e+00  -9.3297747377731124e-02 -2.4159400490167656e-03 0.0000000000000000e+00 -2.4159400490167656e-03 -8.6049517410882362e-02 0.0000000000000000e+00 0.0000000000000000e+00 0.0000000000000000e+00 0.0000000000000000e+00  -9.0024924057077904e-02 -1.7140323063339199e-03 0.0000000000000000e+00 -1.7140323063339199e-03 -8.7993711553265852e-02 0.0000000000000000e+00 0.0000000000000000e+00 0.0000000000000000e+00 0.0000000000000000e+00  -8.7700926065730059e-02 -1.5266320630673233e-03 0.0000000000000000e+00 -1.5266320630673233e-03 -8.9791259667296230e-02 0.0000000000000000e+00 0.0000000000000000e+00 0.0000000000000000e+00 0.0000000000000000e+00  -8.6151825244016766e-02 -1.5573889758346998e-03 0.0000000000000000e+00 -1.5573889758346998e-03 -9.1204880335448504e-02 0.0000000000000000e+00 0.0000000000000000e+00 0.0000000000000000e+00 0.0000000000000000e+00  -8.5116939846332881e-02 -1.6837117876432751e-03 0.0000000000000000e+00 -1.6837117876432751e-03 -9.2258200228581638e-02 0.0000000000000000e+00 0.0000000000000000e+00 0.0000000000000000e+00 0.0000000000000000e+00  -8.4410124193680783e-02 -1.8507978270113090e-03 0.0000000000000000e+00 -1.8507978270113090e-03 -9.3004607467245412e-02 0.0000000000000000e+00 0.0000000000000000e+00 0.0000000000000000e+00 0.0000000000000000e+00  -8.3901382845778846e-02 -2.0405970685709878e-03 0.0000000000000000e+00 -2.0405970685709878e-03 -9.3498633721287028e-02 0.0000000000000000e+00 0.0000000000000000e+00 0.0000000000000000e+00 0.0000000000000000e+00  -8.3499898255360791e-02 -2.2479348243466474e-03 0.0000000000000000e+00 -2.2479348243466474e-03 -9.3791061310834950e-02 0.0000000000000000e+00 0.0000000000000000e+00 0.0000000000000000e+00 0.0000000000000000e+00  -8.3146588573858413e-02 -2.4721580339957046e-03 0.0000000000000000e+00 -2.4721580339957046e-03 -9.3921002534835651e-02 0.0000000000000000e+00 0.0000000000000000e+00 0.0000000000000000e+00 0.0000000000000000e+00  -8.2803721062686519e-02 -2.7146413317885032e-03 0.0000000000000000e+00 -2.7146413317885032e-03 -9.3917227019716831e-02 0.0000000000000000e+00 0.0000000000000000e+00 0.0000000000000000e+00 0.0000000000000000e+00  -8.2447550797399183e-02 -2.9775878434323095e-03 0.0000000000000000e+00 -2.9775878434323095e-03 -9.3800431605248688e-02 0.0000000000000000e+00 0.0000000000000000e+00 0.0000000000000000e+00 0.0000000000000000e+00  -8.2062834523002545e-02 -3.2636837069670199e-03 0.0000000000000000e+00 -3.2636837069670199e-03 -9.3585673207762454e-02 0.0000000000000000e+00 0.0000000000000000e+00 0.0000000000000000e+00 0.0000000000000000e+00  -8.1638740505196969e-02 -3.5755294659453912e-03 0.0000000000000000e+00 -3.5755294659453912e-03 -9.3284650211805598e-02 0.0000000000000000e+00 0.0000000000000000e+00 0.0000000000000000e+00 0.0000000000000000e+00  -8.1166075317323075e-02 -3.9145699050887779e-03 0.0000000000000000e+00 -3.9145699050887779e-03 -9.2907291675456957e-02 0.0000000000000000e+00 0.0000000000000000e+00 0.0000000000000000e+00 0.0000000000000000e+00  -8.0635732935675664e-02 -4.2795444670871369e-03 0.0000000000000000e+00 -4.2795444670871369e-03 -9.2462406649766765e-02 0.0000000000000000e+00 0.0000000000000000e+00 0.0000000000000000e+00 0.0000000000000000e+00  -8.0038312709397902e-02 -4.6647451150204329e-03 0.0000000000000000e+00 -4.6647451150204329e-03 -9.1957235670426574e-02 0.0000000000000000e+00 0.0000000000000000e+00 0.0000000000000000e+00 0.0000000000000000e+00  -7.9364689438251673e-02 -5.0584839616405076e-03 0.0000000000000000e+00 -5.0584839616405076e-03 -9.1396022870866123e-02 0.0000000000000000e+00 0.0000000000000000e+00 0.0000000000000000e+00 0.0000000000000000e+00  -7.8607135513657528e-02 -5.4420850375948883e-03 0.0000000000000000e+00 -5.4420850375948883e-03 -9.0777988145497576e-02 0.0000000000000000e+00 0.0000000000000000e+00 0.0000000000000000e+00 0.0000000000000000e+00  -7.7760480903851070e-02 -5.7894701815985892e-03 0.0000000000000000e+00 -5.7894701815985892e-03 -9.0095236188441785e-02 0.0000000000000000e+00 0.0000000000000000e+00 0.0000000000000000e+00 0.0000000000000000e+00  -7.6822833019327352e-02 -6.0670936986976561e-03 0.0000000000000000e+00 -6.0670936986976561e-03 -8.9331104309260514e-02 0.0000000000000000e+00 0.0000000000000000e+00 0.0000000000000000e+00 0.0000000000000000e+00  -7.5795583031077959e-02 -6.2337177569742868e-03 0.0000000000000000e+00 -6.2337177569742868e-03 -8.8459209327535107e-02 0.0000000000000000e+00 0.0000000000000000e+00 0.0000000000000000e+00 0.0000000000000000e+00  -7.4682749595352316e-02 -6.2394163541602266e-03 0.0000000000000000e+00 -6.2394163541602266e-03 -8.7443068069602337e-02 0.0000000000000000e+00 0.0000000000000000e+00 0.0000000000000000e+00 0.0000000000000000e+00  -7.3490065143553218e-02 -6.0233031851764617e-03 0.0000000000000000e+00 -6.0233031851764617e-03 -8.6235748878137980e-02 0.0000000000000000e+00 0.0000000000000000e+00 0.0000000000000000e+00 0.0000000000000000e+00  -7.2224502745719413e-02 -5.5097818075167931e-03 0.0000000000000000e+00 -5.5097818075167931e-03 -8.4778679617193223e-02 0.0000000000000000e+00 0.0000000000000000e+00 0.0000000000000000e+00 0.0000000000000000e+00  -7.0895123636893528e-02 -4.6035469656262786e-03 0.0000000000000000e+00 -4.6035469656262786e-03 -8.2998562562714887e-02 0.0000000000000000e+00 0.0000000000000000e+00 0.0000000000000000e+00 0.0000000000000000e+00  -6.9516218030630378e-02 -3.1840410898253181e-03 0.0000000000000000e+00 -3.1840410898253181e-03 -8.0801325790030132e-02 0.0000000000000000e+00 0.0000000000000000e+00 0.0000000000000000e+00 0.0000000000000000e+00  -6.8113808180800262e-02 -1.1005684901955175e-03 0.0000000000000000e+00 -1.1005684901955175e-03 -7.8062101674716930e-02 0.0000000000000000e+00 0.0000000000000000e+00 0.0000000000000000e+00 0.0000000000000000e+00  -6.6736802157987968e-02 1.8301646291051107e-03 0.0000000000000000e+00 1.8301646291051107e-03 -7.4610295264811277e-02 0.0000000000000000e+00 0.0000000000000000e+00 0.0000000000000000e+00 0.0000000000000000e+00  -6.5474509739886222e-02 5.8214035782698723e-03 0.0000000000000000e+00 5.8214035782698731e-03 -7.0208879130089663e-02 0.0000000000000000e+00 0.0000000000000000e+00 0.0000000000000000e+00 0.0000000000000000e+00  -6.4483095666160867e-02 1.1104528001799030e-02 0.0000000000000000e+00 1.1104528001799029e-02 -6.4527178934136509e-02 0.0000000000000000e+00 0.0000000000000000e+00 0.0000000000000000e+00 0.0000000000000000e+00  -6.4022286767595055e-02 1.7900786813106067e-02 0.0000000000000000e+00 1.7900786813106067e-02 -5.7109122074937804e-02 0.0000000000000000e+00 0.0000000000000000e+00 0.0000000000000000e+00 0.0000000000000000e+00  -6.4511932288709550e-02 2.6369306118352882e-02 0.0000000000000000e+00 2.6369306118352882e-02 -4.7334046696875944e-02 0.0000000000000000e+00 0.0000000000000000e+00 0.0000000000000000e+00 0.0000000000000000e+00  -6.6577704172701771e-02 3.6496083833679173e-02 0.0000000000000000e+00 3.6496083833679173e-02 -3.4412333895921965e-02 0.0000000000000000e+00 0.0000000000000000e+00 0.0000000000000000e+00 0.0000000000000000e+00  -7.1174869246874606e-02 4.7996608011811472e-02 0.0000000000000000e+00 4.7996608011811472e-02 -1.7339927938022085e-02 0.0000000000000000e+00 0.0000000000000000e+00 0.0000000000000000e+00 0.0000000000000000e+00  -7.9500600374148689e-02 5.9811000205576885e-02 0.0000000000000000e+00 5.9811000205576885e-02 4.8437073884504186e-03 0.0000000000000000e+00 0.0000000000000000e+00 0.0000000000000000e+00 0.0000000000000000e+00  -9.3102416328861112e-02 7.0658032828428100e-02 0.0000000000000000e+00 7.0658032828428100e-02 3.2945039315490754e-02 0.0000000000000000e+00 0.0000000000000000e+00 0.0000000000000000e+00 0.0000000000000000e+00  -1.1407520550406892e-01 7.5738578819850091e-02 0.0000000000000000e+00 7.5738578819850091e-02 6.7301837469706277e-02 0.0000000000000000e+00 0.0000000000000000e+00 0.0000000000000000e+00 0.0000000000000000e+00  -1.3978090926258888e-01 7.3607803842915362e-02 0.0000000000000000e+00 7.3607803842915362e-02 1.0231927316976051e-01 0.0000000000000000e+00 0.0000000000000000e+00 0.0000000000000000e+00 0.0000000000000000e+00  -1.6985156284780095e-01 4.9189322353818475e-02 0.0000000000000000e+00 4.9189322353818475e-02 1.3609598155260663e-01 0.0000000000000000e+00 0.0000000000000000e+00 0.0000000000000000e+00 0.0000000000000000e+00  -1.2003579254148238e-01 1.6141461666677528e-02 0.0000000000000000e+00 1.6141461666677528e-02 1.4956017607680219e-01 0.0000000000000000e+00 0.0000000000000000e+00 0.0000000000000000e+00 0.0000000000000000e+00  -2.9479181086778800e-01 -1.2943067321991041e-02 0.0000000000000000e+00 -1.2943067321991041e-02 1.2123366715013735e-01 0.0000000000000000e+00 0.0000000000000000e+00 0.0000000000000000e+00 0.0000000000000000e+00  -2.0866984618192483e-01 -2.3921016996993831e-02 0.0000000000000000e+00 -2.3921016996993831e-02 1.6965905965377651e-01 0.0000000000000000e+00 0.0000000000000000e+00 0.0000000000000000e+00 0.0000000000000000e+00  -9.2644257703300842e-02 -4.8167196877822380e-02 0.0000000000000000e+00 -4.8167196877822380e-02 1.2028831979703551e-01 0.0000000000000000e+00 0.0000000000000000e+00 0.0000000000000000e+00 0.0000000000000000e+00  -1.2434115807074204e-01 -6.8489982404427191e-02 0.0000000000000000e+00 -6.8489982404427191e-02 8.5780162654804121e-02 0.0000000000000000e+00 0.0000000000000000e+00 0.0000000000000000e+00 0.0000000000000000e+00  -1.0670398383063419e-01 -7.0830157893511408e-02 0.0000000000000000e+00 -7.0830157893511408e-02 5.6136029342532957e-02 0.0000000000000000e+00 0.0000000000000000e+00 0.0000000000000000e+00 0.0000000000000000e+00  -8.7782565944660843e-02 -6.5581826173384400e-02 0.0000000000000000e+00 -6.5581826173384400e-02 2.3429235950513872e-02 0.0000000000000000e+00 0.0000000000000000e+00 0.0000000000000000e+00 0.0000000000000000e+00  -7.5369716092642633e-02 -5.4855866386140956e-02 0.0000000000000000e+00 -5.4855866386140956e-02 -3.4697855554017597e-03 0.0000000000000000e+00 0.0000000000000000e+00 0.0000000000000000e+00 0.0000000000000000e+00  -6.8079458588427469e-02 -4.3221909983970026e-02 0.0000000000000000e+00 -4.3221909983970026e-02 -2.4534815527758221e-02 0.0000000000000000e+00 0.0000000000000000e+00 0.0000000000000000e+00 0.0000000000000000e+00  -6.4324403530848728e-02 -3.2066324374778583e-02 0.0000000000000000e+00 -3.2066324374778583e-02 -4.0560937418421171e-02 0.0000000000000000e+00 0.0000000000000000e+00 0.0000000000000000e+00 0.0000000000000000e+00  -6.2933831105271093e-02 -2.2384940059598384e-02 0.0000000000000000e+00 -2.2384940059598384e-02 -5.2546082400805570e-02 0.0000000000000000e+00 0.0000000000000000e+00 0.0000000000000000e+00 0.0000000000000000e+00  -6.2971306635296612e-02 -1.4416165364285215e-02 0.0000000000000000e+00 -1.4416165364285215e-02 -6.1504153636382002e-02 0.0000000000000000e+00 0.0000000000000000e+00 0.0000000000000000e+00 0.0000000000000000e+00  -6.3833185187803856e-02 -8.1298690591798811e-03 0.0000000000000000e+00 -8.1298690591798811e-03 -6.8226660893943566e-02 0.0000000000000000e+00 0.0000000000000000e+00 0.0000000000000000e+00 0.0000000000000000e+00  -6.5123033781004605e-02 -3.3348640639384373e-03 0.0000000000000000e+00 -3.3348640639384373e-03 -7.3325168726580292e-02 0.0000000000000000e+00 0.0000000000000000e+00 0.0000000000000000e+00 0.0000000000000000e+00  -6.6603275221541441e-02 2.0999937637656286e-04 0.0000000000000000e+00 2.0999937637656286e-04 -7.7241448414450867e-02 0.0000000000000000e+00 0.0000000000000000e+00 0.0000000000000000e+00 0.0000000000000000e+00  -6.8136853690120333e-02 2.7461261797276006e-03 0.0000000000000000e+00 2.7461261797276006e-03 -8.0290413946440903e-02 0.0000000000000000e+00 0.0000000000000000e+00 0.0000000000000000e+00 0.0000000000000000e+00  -6.9650033563450522e-02 4.4896093763374095e-03 0.0000000000000000e+00 4.4896093763374095e-03 -8.2694127032340609e-02 0.0000000000000000e+00 0.0000000000000000e+00 0.0000000000000000e+00 0.0000000000000000e+00  -7.1106032741185363e-02 5.6219412653155916e-03 0.0000000000000000e+00 5.6219412653155916e-03 -8.4610146563713143e-02 0.0000000000000000e+00 0.0000000000000000e+00 0.0000000000000000e+00 0.0000000000000000e+00  -7.2487960567305276e-02 6.2893385751628230e-03 0.0000000000000000e+00 6.2893385751628230e-03 -8.6152579602971971e-02 0.0000000000000000e+00 0.0000000000000000e+00 0.0000000000000000e+00 0.0000000000000000e+00  -7.3788223245637469e-02 6.6066221937297548e-03 0.0000000000000000e+00 6.6066221937297548e-03 -8.7406933287715996e-02 0.0000000000000000e+00 0.0000000000000000e+00 0.0000000000000000e+00 0.0000000000000000e+00  -7.5002572008786059e-02 6.6630440305747987e-03 0.0000000000000000e+00 6.6630440305747987e-03 -8.8439847990391882e-02 0.0000000000000000e+00 0.0000000000000000e+00 0.0000000000000000e+00 0.0000000000000000e+00  -7.6127443390540575e-02 6.5284039805593962e-03 0.0000000000000000e+00 6.5284039805593962e-03 -8.9304790198857689e-02 0.0000000000000000e+00 0.0000000000000000e+00 0.0000000000000000e+00 0.0000000000000000e+00  -7.7159503152246650e-02 6.2583580632953589e-03 0.0000000000000000e+00 6.2583580632953589e-03 -9.0044790205540792e-02 0.0000000000000000e+00 0.0000000000000000e+00 0.0000000000000000e+00 0.0000000000000000e+00  -7.8096422150585890e-02 5.8982998036198938e-03 0.0000000000000000e+00 5.8982998036198921e-03 -9.0693331238626801e-02 0.0000000000000000e+00 0.0000000000000000e+00 0.0000000000000000e+00 0.0000000000000000e+00  -7.8938015304073628e-02 5.4856513345529758e-03 0.0000000000000000e+00 5.4856513345529767e-03 -9.1274451644207930e-02 0.0000000000000000e+00 0.0000000000000000e+00 0.0000000000000000e+00 0.0000000000000000e+00  -7.9687060204451959e-02 5.0508123953485525e-03 0.0000000000000000e+00 5.0508123953485525e-03 -9.1802933790099253e-02 0.0000000000000000e+00 0.0000000000000000e+00 0.0000000000000000e+00 0.0000000000000000e+00  -8.0349404372885139e-02 4.6173033000086140e-03 0.0000000000000000e+00 4.6173033000086140e-03 -9.2285115660317163e-02 0.0000000000000000e+00 0.0000000000000000e+00 0.0000000000000000e+00 0.0000000000000000e+00  -8.0933322207820818e-02 4.2017342509378950e-03 0.0000000000000000e+00 4.2017342509378950e-03 -9.2720442353798296e-02 0.0000000000000000e+00 0.0000000000000000e+00 0.0000000000000000e+00 0.0000000000000000e+00  -8.1448404453432238e-02 3.8141215508764510e-03 0.0000000000000000e+00 3.8141215508764510e-03 -9.3103489285710633e-02 0.0000000000000000e+00 0.0000000000000000e+00 0.0000000000000000e+00 0.0000000000000000e+00  -8.1904465225292045e-02 3.4588036463598314e-03 0.0000000000000000e+00 3.4588036463598314e-03 -9.3425948357288652e-02 0.0000000000000000e+00 0.0000000000000000e+00 0.0000000000000000e+00 0.0000000000000000e+00  -8.2310986076396142e-02 3.1358916065403661e-03 0.0000000000000000e+00 3.1358916065403661e-03 -9.3678034556554338e-02 0.0000000000000000e+00 0.0000000000000000e+00 0.0000000000000000e+00 0.0000000000000000e+00  -8.2677501122754793e-02 2.8429427567761602e-03 0.0000000000000000e+00 2.8429427567761593e-03 -9.3848928727247427e-02 0.0000000000000000e+00 0.0000000000000000e+00 0.0000000000000000e+00 0.0000000000000000e+00  -8.3015143356371057e-02 2.5764578335135493e-03 0.0000000000000000e+00 2.5764578335135497e-03 -9.3926133595049546e-02 0.0000000000000000e+00 0.0000000000000000e+00 0.0000000000000000e+00 0.0000000000000000e+00  -8.3339409270115475e-02 2.3329184381131788e-03 0.0000000000000000e+00 2.3329184381131788e-03 -9.3893895869761809e-02 0.0000000000000000e+00 0.0000000000000000e+00 0.0000000000000000e+00 0.0000000000000000e+00  -8.3674242420890083e-02 2.1093462029108685e-03 0.0000000000000000e+00 2.1093462029108685e-03 -9.3730934744101449e-02 0.0000000000000000e+00 0.0000000000000000e+00 0.0000000000000000e+00 0.0000000000000000e+00  -8.4057523537135651e-02 1.9036678319673246e-03 0.0000000000000000e+00 1.9036678319673246e-03 -9.3408008023651110e-02 0.0000000000000000e+00 0.0000000000000000e+00 0.0000000000000000e+00 0.0000000000000000e+00  -8.4548463808503421e-02 1.7159575455633976e-03 0.0000000000000000e+00 1.7159575455633976e-03 -9.2885613003908074e-02 0.0000000000000000e+00 0.0000000000000000e+00 0.0000000000000000e+00 0.0000000000000000e+00  -8.5238045347817190e-02 1.5509991907009283e-03 0.0000000000000000e+00 1.5509991907009283e-03 -9.2112617308203457e-02 0.0000000000000000e+00 0.0000000000000000e+00 0.0000000000000000e+00 0.0000000000000000e+00  -8.6256577568747939e-02 1.4267104906615649e-03 0.0000000000000000e+00 1.4267104906615646e-03 -9.1034083636514537e-02 0.0000000000000000e+00 0.0000000000000000e+00 0.0000000000000000e+00 0.0000000000000000e+00  -8.7790728624568576e-02 1.3980523447357524e-03 0.0000000000000000e+00 1.3980523447357524e-03 -8.9596190274731743e-02 0.0000000000000000e+00 0.0000000000000000e+00 0.0000000000000000e+00 0.0000000000000000e+00  -9.0101540112999354e-02 1.5882296034132033e-03 0.0000000000000000e+00 1.5882296034132033e-03 -8.7775296370881634e-02 0.0000000000000000e+00 0.0000000000000000e+00 0.0000000000000000e+00 0.0000000000000000e+00  -9.3363140040451972e-02 2.2953792733208939e-03 0.0000000000000000e+00 2.2953792733208939e-03 -8.5808642500068449e-02 0.0000000000000000e+00 0.0000000000000000e+00 0.0000000000000000e+00 0.0000000000000000e+00  -9.5893487735712615e-02 4.5404316590176167e-03 0.0000000000000000e+00 4.5404316590176167e-03 -8.5210651290490713e-02 0.0000000000000000e+00 0.0000000000000000e+00 0.0000000000000000e+00 0.0000000000000000e+00  -9.3433499526041949e-02 1.2877102212924093e-02 0.0000000000000000e+00 1.2877102212924093e-02 -8.3031582068275364e-02 0.0000000000000000e+00 0.0000000000000000e+00 0.0000000000000000e+00 0.0000000000000000e+00  -5.7002439442616765e-03 1.8380688797101738e-02 0.0000000000000000e+00 1.8380688797101738e-02 -2.0939685591858114e-02 0.0000000000000000e+00 0.0000000000000000e+00 0.0000000000000000e+00 0.0000000000000000e+00  -6.4375202470596182e-01 -5.8294312095448643e-02 0.0000000000000000e+00 -5.8294312095448643e-02 -2.9374412572602887e-01 0.0000000000000000e+00 0.0000000000000000e+00 0.0000000000000000e+00 0.0000000000000000e+00  -3.3159534267681832e-02 4.6717565807512670e-02 0.0000000000000000e+00 4.6717565807512670e-02 -1.1750628480224905e-01 0.0000000000000000e+00 0.0000000000000000e+00 0.0000000000000000e+00 0.0000000000000000e+00  9.6225934019935448e-03 -3.5594762901911231e-03 0.0000000000000000e+00 -3.5594762901911231e-03 2.6747896155144891e-03 0.0000000000000000e+00 0.0000000000000000e+00 0.0000000000000000e+00 0.0000000000000000e+00  8.0383458405792509e-03 1.1299889622445526e-04 0.0000000000000000e+00 1.1299889622445526e-04 7.6676749027080699e-03 0.0000000000000000e+00 0.0000000000000000e+00 0.0000000000000000e+00 0.0000000000000000e+00  7.8310277332472207e-03 -2.3634130979984445e-05 0.0000000000000000e+00 -2.3634130979984445e-05 7.7980427756582484e-03 0.0000000000000000e+00 0.0000000000000000e+00 0.0000000000000000e+00 0.0000000000000000e+00  7.8185888898285490e-03 3.3369186512441463e-05 0.0000000000000000e+00 3.3369186512441463e-05 7.8096878059995597e-03 0.0000000000000000e+00 0.0000000000000000e+00 0.0000000000000000e+00 0.0000000000000000e+00  7.8172595846149016e-03 6.7230269468763714e-05 0.0000000000000000e+00 6.7230269468763714e-05 7.8177007665569363e-03 0.0000000000000000e+00 0.0000000000000000e+00 0.0000000000000000e+00 0.0000000000000000e+00  7.8395822264799263e-03 -6.4919564183125504e-05 0.0000000000000000e+00 -6.4919564183125504e-05 7.8399265207355212e-03 0.0000000000000000e+00 0.0000000000000000e+00 0.0000000000000000e+00 0.0000000000000000e+00  7.8430992587675448e-03 -3.0360109334020889e-05 0.0000000000000000e+00 -3.0360109334020889e-05 7.8365004070933015e-03 0.0000000000000000e+00 0.0000000000000000e+00 0.0000000000000000e+00 0.0000000000000000e+00  7.8353325429007976e-03 -1.1237284245607008e-05 0.0000000000000000e+00 -1.1237284245607008e-05 7.8054768576569702e-03 0.0000000000000000e+00 0.0000000000000000e+00 0.0000000000000000e+00 0.0000000000000000e+00  8.1159413916314718e-03 1.3922301518506060e-04 0.0000000000000000e+00 1.3922301518506060e-04 7.9004990944256202e-03 0.0000000000000000e+00 0.0000000000000000e+00 0.0000000000000000e+00 0.0000000000000000e+00  6.6647589691244237e-03 1.0514531142676484e-04 0.0000000000000000e+00 1.0514531142676484e-04 3.1207528775824877e-03 0.0000000000000000e+00 0.0000000000000000e+00 0.0000000000000000e+00 0.0000000000000000e+00  4.1019307574989262e-02 -1.1367226659651014e-02 0.0000000000000000e+00 -1.1367226659651014e-02 -2.0052409179401126e-02 0.0000000000000000e+00 0.0000000000000000e+00 0.0000000000000000e+00 0.0000000000000000e+00  -6.2718111845804414e-01 4.6884782270777213e-02 0.0000000000000000e+00 4.6884782270777213e-02 -3.7107192821690305e-01 0.0000000000000000e+00 0.0000000000000000e+00 0.0000000000000000e+00 0.0000000000000000e+00  5.9410106668479963e-02 -5.6728666483628273e-02 0.0000000000000000e+00 -5.6728666483628273e-02 3.5023721343892013e-02 0.0000000000000000e+00 0.0000000000000000e+00 0.0000000000000000e+00 0.0000000000000000e+00  -5.1937690608760294e-02 -5.7318349390963570e-03 0.0000000000000000e+00 -5.7318349390963570e-03 -1.1424303203360152e-01 0.0000000000000000e+00 0.0000000000000000e+00 0.0000000000000000e+00 0.0000000000000000e+00  -8.9479038562917182e-02 -5.1847964252715144e-03 0.0000000000000000e+00 -5.1847964252715144e-03 -8.8693245073097796e-02 0.0000000000000000e+00 0.0000000000000000e+00 0.0000000000000000e+00 0.0000000000000000e+00  -9.1036966693887306e-02 -5.2096425731130297e-03 0.0000000000000000e+00 -5.2096425731130297e-03 -8.6982522193047848e-02 0.0000000000000000e+00 0.0000000000000000e+00 0.0000000000000000e+00 0.0000000000000000e+00  -8.9003023198284306e-02 -4.1476072658867286e-03 0.0000000000000000e+00 -4.1476072658867286e-03 -8.8703735799592856e-02 0.0000000000000000e+00 0.0000000000000000e+00 0.0000000000000000e+00 0.0000000000000000e+00  -8.7549947161219166e-02 -3.3746434341322333e-03 0.0000000000000000e+00 -3.3746434341322333e-03 -9.0075415271644227e-02 0.0000000000000000e+00 0.0000000000000000e+00 0.0000000000000000e+00 0.0000000000000000e+00  -8.6429288806928045e-02 -2.9489806970071034e-03 0.0000000000000000e+00 -2.9489806970071034e-03 -9.1234586895400649e-02 0.0000000000000000e+00 0.0000000000000000e+00 0.0000000000000000e+00 0.0000000000000000e+00  -8.5595084479858891e-02 -2.7323117281122938e-03 0.0000000000000000e+00 -2.7323117281122938e-03 -9.2155879613302405e-02 0.0000000000000000e+00 0.0000000000000000e+00 0.0000000000000000e+00 0.0000000000000000e+00  -8.4996146572622680e-02 -2.6657880367581448e-03 0.0000000000000000e+00 -2.6657880367581448e-03 -9.2810881090233777e-02 0.0000000000000000e+00 0.0000000000000000e+00 0.0000000000000000e+00 0.0000000000000000e+00  -8.4543889181062190e-02 -2.7074685484242038e-03 0.0000000000000000e+00 -2.7074685484242038e-03 -9.3243558544280236e-02 0.0000000000000000e+00 0.0000000000000000e+00 0.0000000000000000e+00 0.0000000000000000e+00  -8.4177033831990017e-02 -2.8252337561733582e-03 0.0000000000000000e+00 -2.8252337561733582e-03 -9.3491906637944808e-02 0.0000000000000000e+00 0.0000000000000000e+00 0.0000000000000000e+00 0.0000000000000000e+00  -8.3852096006279367e-02 -2.9995387461101823e-03 0.0000000000000000e+00 -2.9995387461101823e-03 -9.3587524960777324e-02 0.0000000000000000e+00 0.0000000000000000e+00 0.0000000000000000e+00 0.0000000000000000e+00  -8.3540124022976531e-02 -3.2179859032602184e-03 0.0000000000000000e+00 -3.2179859032602184e-03 -9.3554687505895531e-02 0.0000000000000000e+00 0.0000000000000000e+00 0.0000000000000000e+00 0.0000000000000000e+00  -8.3223083202867004e-02 -3.4740884539738942e-03 0.0000000000000000e+00 -3.4740884539738942e-03 -9.3410467621318147e-02 0.0000000000000000e+00 0.0000000000000000e+00 0.0000000000000000e+00 0.0000000000000000e+00  -8.2889385363606724e-02 -3.7658938466546437e-03 0.0000000000000000e+00 -3.7658938466546437e-03 -9.3167440178378830e-02 0.0000000000000000e+00 0.0000000000000000e+00 0.0000000000000000e+00 0.0000000000000000e+00  -8.2530258973939147e-02 -4.0944701465565328e-03 0.0000000000000000e+00 -4.0944701465565328e-03 -9.2836193807613140e-02 0.0000000000000000e+00 0.0000000000000000e+00 0.0000000000000000e+00 0.0000000000000000e+00  -8.2136810852994679e-02 -4.4617635964040950e-03 0.0000000000000000e+00 -4.4617635964040950e-03 -9.2427539589789234e-02 0.0000000000000000e+00 0.0000000000000000e+00 0.0000000000000000e+00 0.0000000000000000e+00  -8.1698345756184509e-02 -4.8678007857913663e-03 0.0000000000000000e+00 -4.8678007857913663e-03 -9.1953519155956107e-02 0.0000000000000000e+00 0.0000000000000000e+00 0.0000000000000000e+00 0.0000000000000000e+00  -8.1202141900315494e-02 -5.3077458161552996e-03 0.0000000000000000e+00 -5.3077458161552996e-03 -9.1426838916287778e-02 0.0000000000000000e+00 0.0000000000000000e+00 0.0000000000000000e+00 0.0000000000000000e+00  -8.0634533287096952e-02 -5.7694927895641616e-03 0.0000000000000000e+00 -5.7694927895641616e-03 -9.0858811132806971e-02 0.0000000000000000e+00 0.0000000000000000e+00 0.0000000000000000e+00 0.0000000000000000e+00  -7.9982736190940290e-02 -6.2323676746908188e-03 0.0000000000000000e+00 -6.2323676746908188e-03 -9.0256403892143205e-02 0.0000000000000000e+00 0.0000000000000000e+00 0.0000000000000000e+00 0.0000000000000000e+00  -7.9236587522401550e-02 -6.6670983996143058e-03 0.0000000000000000e+00 -6.6670983996143058e-03 -8.9619329627667735e-02 0.0000000000000000e+00 0.0000000000000000e+00 0.0000000000000000e+00 0.0000000000000000e+00  -7.8389371706060418e-02 -7.0366677842451479e-03 0.0000000000000000e+00 -7.0366677842451479e-03 -8.8938084947844068e-02 0.0000000000000000e+00 0.0000000000000000e+00 0.0000000000000000e+00 0.0000000000000000e+00  -7.7437218304872435e-02 -7.2971967419093410e-03 0.0000000000000000e+00 -7.2971967419093410e-03 -8.8193471621429931e-02 0.0000000000000000e+00 0.0000000000000000e+00 0.0000000000000000e+00 0.0000000000000000e+00  -7.6377065382103482e-02 -7.3977997013568901e-03 0.0000000000000000e+00 -7.3977997013568901e-03 -8.7357491166025342e-02 0.0000000000000000e+00 0.0000000000000000e+00 0.0000000000000000e+00 0.0000000000000000e+00  -7.5203736884145805e-02 -7.2784941703813314e-03 0.0000000000000000e+00 -7.2784941703813314e-03 -8.6394817554229689e-02 0.0000000000000000e+00 0.0000000000000000e+00 0.0000000000000000e+00 0.0000000000000000e+00  -7.3907106681500495e-02 -6.8656882980627386e-03 0.0000000000000000e+00 -6.8656882980627386e-03 -8.5263523403282651e-02 0.0000000000000000e+00 0.0000000000000000e+00 0.0000000000000000e+00 0.0000000000000000e+00  -7.2470522522171454e-02 -6.0653615126086873e-03 0.0000000000000000e+00 -6.0653615126086873e-03 -8.3913488272483516e-02 0.0000000000000000e+00 0.0000000000000000e+00 0.0000000000000000e+00 0.0000000000000000e+00  -7.0871668363555865e-02 -4.7546200783302383e-03 0.0000000000000000e+00 -4.7546200783302383e-03 -8.2280935664179516e-02 0.0000000000000000e+00 0.0000000000000000e+00 0.0000000000000000e+00 0.0000000000000000e+00  -6.9087017883256677e-02 -2.7726968906845490e-03 0.0000000000000000e+00 -2.7726968906845490e-03 -8.0277667684632820e-02 0.0000000000000000e+00 0.0000000000000000e+00 0.0000000000000000e+00 0.0000000000000000e+00  -6.7101272361564573e-02 8.7179680977195179e-05 0.0000000000000000e+00 8.7179680977195382e-05 -7.7773503446347314e-02 0.0000000000000000e+00 0.0000000000000000e+00 0.0000000000000000e+00 0.0000000000000000e+00  -6.4923804091244902e-02 4.0833027249821208e-03 0.0000000000000000e+00 4.0833027249821199e-03 -7.4570186259991178e-02 0.0000000000000000e+00 0.0000000000000000e+00 0.0000000000000000e+00 0.0000000000000000e+00  -6.2615544781617696e-02 9.5252140877530207e-03 0.0000000000000000e+00 9.5252140877530207e-03 -7.0364189939415844e-02 0.0000000000000000e+00 0.0000000000000000e+00 0.0000000000000000e+00 0.0000000000000000e+00  -6.0333561196359957e-02 1.6762586366073376e-02 0.0000000000000000e+00 1.6762586366073376e-02 -6.4694294669773680e-02 0.0000000000000000e+00 0.0000000000000000e+00 0.0000000000000000e+00 0.0000000000000000e+00  -5.8387225622529494e-02 2.6149125047396152e-02 0.0000000000000000e+00 2.6149125047396152e-02 -5.6884460857234267e-02 0.0000000000000000e+00 0.0000000000000000e+00 0.0000000000000000e+00 0.0000000000000000e+00  -5.7387368895907641e-02 3.7989788420539926e-02 0.0000000000000000e+00 3.7989788420539926e-02 -4.5914876907906535e-02 0.0000000000000000e+00 0.0000000000000000e+00 0.0000000000000000e+00 0.0000000000000000e+00  -5.8193267336204627e-02 5.2267268275715588e-02 0.0000000000000000e+00 5.2267268275715588e-02 -3.0555102832187951e-02 0.0000000000000000e+00 0.0000000000000000e+00 0.0000000000000000e+00 0.0000000000000000e+00  -6.2663693630766418e-02 6.8985081546142024e-02 0.0000000000000000e+00 6.8985081546142024e-02 -8.7075248928979287e-03 0.0000000000000000e+00 0.0000000000000000e+00 0.0000000000000000e+00 0.0000000000000000e+00  -7.2522752113758887e-02 8.5311809085388463e-02 0.0000000000000000e+00 8.5311809085388463e-02 2.0864067097895306e-02 0.0000000000000000e+00 0.0000000000000000e+00 0.0000000000000000e+00 0.0000000000000000e+00  -9.1244596640579489e-02 1.0347895323103388e-01 0.0000000000000000e+00 1.0347895323103388e-01 6.0066691235676907e-02 0.0000000000000000e+00 0.0000000000000000e+00 0.0000000000000000e+00 0.0000000000000000e+00  -1.2877876604147559e-01 1.0364966883797384e-01 0.0000000000000000e+00 1.0364966883797384e-01 1.1401430197760959e-01 0.0000000000000000e+00 0.0000000000000000e+00 0.0000000000000000e+00 0.0000000000000000e+00  -1.5822810478251170e-01 1.0341088282924503e-01 0.0000000000000000e+00 1.0341088282924503e-01 1.5175837916482185e-01 0.0000000000000000e+00 0.0000000000000000e+00 0.0000000000000000e+00 0.0000000000000000e+00  -1.7486712002325125e-01 -8.2732728360374388e-03 0.0000000000000000e+00 -8.2732728360374388e-03 2.2519496843788075e-01 0.0000000000000000e+00 0.0000000000000000e+00 0.0000000000000000e+00 0.0000000000000000e+00  -3.7650353985824125e-01 -6.0754377024009716e-02 0.0000000000000000e+00 -6.0754377024009716e-02 3.5532013462972617e-01 0.0000000000000000e+00 0.0000000000000000e+00 0.0000000000000000e+00 0.0000000000000000e+00  -2.5402417559489221e-01 4.4171824379316431e-02 0.0000000000000000e+00 4.4171824379316431e-02 3.1624429716346714e-01 0.0000000000000000e+00 0.0000000000000000e+00 0.0000000000000000e+00 0.0000000000000000e+00  -8.2949095423397151e-02 -8.1792545503063807e-02 0.0000000000000000e+00 -8.1792545503063807e-02 1.1174183552928653e-01 0.0000000000000000e+00 0.0000000000000000e+00 0.0000000000000000e+00 0.0000000000000000e+00  -1.2056345387433362e-01 -9.6928100422179211e-02 0.0000000000000000e+00 -9.6928100422179211e-02 9.9114544574045449e-02 0.0000000000000000e+00 0.0000000000000000e+00 0.0000000000000000e+00 0.0000000000000000e+00  -8.7993163622681017e-02 -9.6550214966505551e-02 0.0000000000000000e+00 -9.6550214966505551e-02 4.9722105716506496e-02 0.0000000000000000e+00 0.0000000000000000e+00 0.0000000000000000e+00 0.0000000000000000e+00  -6.8971207240355659e-02 -7.9315201230366672e-02 0.0000000000000000e+00 -7.9315201230366672e-02 1.1521542262400068e-02 0.0000000000000000e+00 0.0000000000000000e+00 0.0000000000000000e+00 0.0000000000000000e+00  -6.0122398896436835e-02 -6.2979651240796589e-02 0.0000000000000000e+00 -6.2979651240796589e-02 -1.6834478866788620e-02 0.0000000000000000e+00 0.0000000000000000e+00 0.0000000000000000e+00 0.0000000000000000e+00  -5.6491296670179506e-02 -4.6651799217903467e-02 0.0000000000000000e+00 -4.6651799217903467e-02 -3.7372555806738025e-02 0.0000000000000000e+00 0.0000000000000000e+00 0.0000000000000000e+00 0.0000000000000000e+00  -5.6375906152266418e-02 -3.2883441449534014e-02 0.0000000000000000e+00 -3.2883441449534014e-02 -5.1574827882287885e-02 0.0000000000000000e+00 0.0000000000000000e+00 0.0000000000000000e+00 0.0000000000000000e+00  -5.7899499448375101e-02 -2.1648862072356459e-02 0.0000000000000000e+00 -2.1648862072356459e-02 -6.1538614346000345e-02 0.0000000000000000e+00 0.0000000000000000e+00 0.0000000000000000e+00 0.0000000000000000e+00  -6.0218369104977847e-02 -1.2900846977698509e-02 0.0000000000000000e+00 -1.2900846977698509e-02 -6.8514394178362109e-02 0.0000000000000000e+00 0.0000000000000000e+00 0.0000000000000000e+00 0.0000000000000000e+00  -6.2749278296077488e-02 -6.2846558080704249e-03 0.0000000000000000e+00 -6.2846558080704249e-03 -7.3510469744571733e-02 0.0000000000000000e+00 0.0000000000000000e+00 0.0000000000000000e+00 0.0000000000000000e+00  -6.5214166766030646e-02 -1.4156665798406840e-03 0.0000000000000000e+00 -1.4156665798406840e-03 -7.7179243690761332e-02 0.0000000000000000e+00 0.0000000000000000e+00 0.0000000000000000e+00 0.0000000000000000e+00  -6.7482813292757834e-02 2.0721642168455181e-03 0.0000000000000000e+00 2.0721642168455181e-03 -7.9955816361257176e-02 0.0000000000000000e+00 0.0000000000000000e+00 0.0000000000000000e+00 0.0000000000000000e+00  -6.9515733048217621e-02 4.4937113551438935e-03 0.0000000000000000e+00 4.4937113551438935e-03 -8.2119240824428272e-02 0.0000000000000000e+00 0.0000000000000000e+00 0.0000000000000000e+00 0.0000000000000000e+00  -7.1319350575785034e-02 6.1056346839020647e-03 0.0000000000000000e+00 6.1056346839020647e-03 -8.3847216974970495e-02 0.0000000000000000e+00 0.0000000000000000e+00 0.0000000000000000e+00 0.0000000000000000e+00  -7.2920017583861282e-02 7.1090674010681650e-03 0.0000000000000000e+00 7.1090674010681650e-03 -8.5253676166610975e-02 0.0000000000000000e+00 0.0000000000000000e+00 0.0000000000000000e+00 0.0000000000000000e+00  -7.4348594470885140e-02 7.6572654138680873e-03 0.0000000000000000e+00 7.6572654138680873e-03 -8.6414554470339092e-02 0.0000000000000000e+00 0.0000000000000000e+00 0.0000000000000000e+00 0.0000000000000000e+00  -7.5632007208866800e-02 7.8651167725960307e-03 0.0000000000000000e+00 7.8651167725960307e-03 -8.7384684763935058e-02 0.0000000000000000e+00 0.0000000000000000e+00 0.0000000000000000e+00 0.0000000000000000e+00  -7.6789621707077788e-02 7.8189682638961314e-03 0.0000000000000000e+00 7.8189682638961314e-03 -8.8207830208496749e-02 0.0000000000000000e+00 0.0000000000000000e+00 0.0000000000000000e+00 0.0000000000000000e+00  -7.7833025465511158e-02 7.5855065625580293e-03 0.0000000000000000e+00 7.5855065625580293e-03 -8.8921475089725838e-02 0.0000000000000000e+00 0.0000000000000000e+00 0.0000000000000000e+00 0.0000000000000000e+00  -7.8768075772612481e-02 7.2187581191987373e-03 0.0000000000000000e+00 7.2187581191987373e-03 -8.9557858370545917e-02 0.0000000000000000e+00 0.0000000000000000e+00 0.0000000000000000e+00 0.0000000000000000e+00  -7.9598065681438457e-02 6.7646243312276507e-03 0.0000000000000000e+00 6.7646243312276507e-03 -9.0142812950698592e-02 0.0000000000000000e+00 0.0000000000000000e+00 0.0000000000000000e+00 0.0000000000000000e+00  -8.0326867065438942e-02 6.2629055669783740e-03 0.0000000000000000e+00 6.2629055669783740e-03 -9.0693970750562208e-02 0.0000000000000000e+00 0.0000000000000000e+00 0.0000000000000000e+00 0.0000000000000000e+00  -8.0961107891530951e-02 5.7473350625408719e-03 0.0000000000000000e+00 5.7473350625408719e-03 -9.1219638636120953e-02 0.0000000000000000e+00 0.0000000000000000e+00 0.0000000000000000e+00 0.0000000000000000e+00  -8.1510859493510474e-02 5.2445682507733229e-03 0.0000000000000000e+00 5.2445682507733229e-03 -9.1719120296898049e-02 0.0000000000000000e+00 0.0000000000000000e+00 0.0000000000000000e+00 0.0000000000000000e+00  -8.1988856656309839e-02 4.7732013946228825e-03 0.0000000000000000e+00 4.7732013946228825e-03 -9.2184574074184317e-02 0.0000000000000000e+00 0.0000000000000000e+00 0.0000000000000000e+00 0.0000000000000000e+00  -8.2408780608126453e-02 4.3436808089308077e-03 0.0000000000000000e+00 4.3436808089308077e-03 -9.2603863163139635e-02 0.0000000000000000e+00 0.0000000000000000e+00 0.0000000000000000e+00 0.0000000000000000e+00  -8.2783436531358653e-02 3.9594927402092743e-03 0.0000000000000000e+00 3.9594927402092743e-03 -9.2963475150140432e-02 0.0000000000000000e+00 0.0000000000000000e+00 0.0000000000000000e+00 0.0000000000000000e+00  -8.3123663293291780e-02 3.6194775758368017e-03 0.0000000000000000e+00 3.6194775758368017e-03 -9.3250573644492088e-02 0.0000000000000000e+00 0.0000000000000000e+00 0.0000000000000000e+00 0.0000000000000000e+00  -8.3438541336156649e-02 3.3206957835655040e-03 0.0000000000000000e+00 3.3206957835655040e-03 -9.3453574549177312e-02 0.0000000000000000e+00 0.0000000000000000e+00 0.0000000000000000e+00 0.0000000000000000e+00  -8.3737049347140630e-02 3.0611674583356867e-03 0.0000000000000000e+00 3.0611674583356867e-03 -9.3561162555921285e-02 0.0000000000000000e+00 0.0000000000000000e+00 0.0000000000000000e+00 0.0000000000000000e+00  -8.4030972509392995e-02 2.8419784709406331e-03 0.0000000000000000e+00 2.8419784709406331e-03 -9.3560117909416110e-02 0.0000000000000000e+00 0.0000000000000000e+00 0.0000000000000000e+00 0.0000000000000000e+00  -8.4338498240915188e-02 2.6687896297884978e-03 0.0000000000000000e+00 2.6687896297884978e-03 -9.3432844951331431e-02 0.0000000000000000e+00 0.0000000000000000e+00 0.0000000000000000e+00 0.0000000000000000e+00  -8.4688657534160230e-02 2.5532426130586102e-03 0.0000000000000000e+00 2.5532426130586102e-03 -9.3154702478705567e-02 0.0000000000000000e+00 0.0000000000000000e+00 0.0000000000000000e+00 0.0000000000000000e+00  -8.5124925094528764e-02 2.5142854394758531e-03 0.0000000000000000e+00 2.5142854394758531e-03 -9.2693892563160935e-02 0.0000000000000000e+00 0.0000000000000000e+00 0.0000000000000000e+00 0.0000000000000000e+00  -8.5708550571328077e-02 2.5836805261032787e-03 0.0000000000000000e+00 2.5836805261032787e-03 -9.2012306870757635e-02 0.0000000000000000e+00 0.0000000000000000e+00 0.0000000000000000e+00 0.0000000000000000e+00  -8.6528036907261976e-02 2.8033683172622348e-03 0.0000000000000000e+00 2.8033683172622348e-03 -9.1065995297653995e-02 0.0000000000000000e+00 0.0000000000000000e+00 0.0000000000000000e+00 0.0000000000000000e+00  -8.7634818347943469e-02 3.2325873361213706e-03 0.0000000000000000e+00 3.2325873361213706e-03 -8.9883061862473232e-02 0.0000000000000000e+00 0.0000000000000000e+00 0.0000000000000000e+00 0.0000000000000000e+00  -8.9075365613084614e-02 4.0096561155402565e-03 0.0000000000000000e+00 4.0096561155402565e-03 -8.8488620426004513e-02 0.0000000000000000e+00 0.0000000000000000e+00 0.0000000000000000e+00 0.0000000000000000e+00  -9.1094885423924132e-02 5.0761671341437659e-03 0.0000000000000000e+00 5.0761671341437659e-03 -8.6749280434798431e-02 0.0000000000000000e+00 0.0000000000000000e+00 0.0000000000000000e+00 0.0000000000000000e+00  -8.9522790133715877e-02 5.0590221503002035e-03 0.0000000000000000e+00 5.0590221503002035e-03 -8.8441894186017625e-02 0.0000000000000000e+00 0.0000000000000000e+00 0.0000000000000000e+00 0.0000000000000000e+00  -5.1916589976910579e-02 5.6018587033293439e-03 0.0000000000000000e+00 5.6018587033293439e-03 -1.1398976359144694e-01 0.0000000000000000e+00 0.0000000000000000e+00 0.0000000000000000e+00 0.0000000000000000e+00  5.9351750645918772e-02 5.6628218179509006e-02 0.0000000000000000e+00 5.6628218179509006e-02 3.5338152132097067e-02 0.0000000000000000e+00 0.0000000000000000e+00 0.0000000000000000e+00 0.0000000000000000e+00  -6.2729501664634790e-01 -4.6876170159957653e-02 0.0000000000000000e+00 -4.6876170159957653e-02 -3.7115766334195716e-01 0.0000000000000000e+00 0.0000000000000000e+00 0.0000000000000000e+00 0.0000000000000000e+00  4.0816410844202393e-02 1.1327370928705335e-02 0.0000000000000000e+00 1.1327370928705335e-02 -2.0113288061540675e-02 0.0000000000000000e+00 0.0000000000000000e+00 0.0000000000000000e+00 0.0000000000000000e+00  6.6357644817808988e-03 -9.9953849345694697e-05 0.0000000000000000e+00 -9.9953849345694697e-05 3.1272800958330907e-03 0.0000000000000000e+00 0.0000000000000000e+00 0.0000000000000000e+00 0.0000000000000000e+00  8.0501008733283065e-03 -1.3997547914444781e-04 0.0000000000000000e+00 -1.3997547914444781e-04 7.8311616385593405e-03 0.0000000000000000e+00 0.0000000000000000e+00 0.0000000000000000e+00 0.0000000000000000e+00  7.7736733878379293e-03 1.1439984501426663e-05 0.0000000000000000e+00 1.1439984501426663e-05 7.7477843906328999e-03 0.0000000000000000e+00 0.0000000000000000e+00 0.0000000000000000e+00 0.0000000000000000e+00  7.7815146433683003e-03 3.1781407045997561e-05 0.0000000000000000e+00 3.1781407045997561e-05 7.7779450372387699e-03 0.0000000000000000e+00 0.0000000000000000e+00 0.0000000000000000e+00 0.0000000000000000e+00  7.7786211399221896e-03 6.8614408883825429e-05 0.0000000000000000e+00 6.8614408883825429e-05 7.7793311618766610e-03 0.0000000000000000e+00 0.0000000000000000e+00 0.0000000000000000e+00 0.0000000000000000e+00  7.8071791072186324e-03 -6.4650595021551276e-05 0.0000000000000000e+00 -6.4650595021551276e-05 7.8077959008752921e-03 0.0000000000000000e+00 0.0000000000000000e+00 0.0000000000000000e+00 0.0000000000000000e+00  7.8067397288071284e-03 -3.4406678221410432e-05 0.0000000000000000e+00 -3.4406678221410432e-05 7.8029718965569204e-03 0.0000000000000000e+00 0.0000000000000000e+00 0.0000000000000000e+00 0.0000000000000000e+00  7.8234023837632019e-03 -8.5338096521316359e-06 0.0000000000000000e+00 -8.5338096521316359e-06 7.7994293385243796e-03 0.0000000000000000e+00 0.0000000000000000e+00 0.0000000000000000e+00 0.0000000000000000e+00  7.7959745097226666e-03 1.0422437098727314e-04 0.0000000000000000e+00 1.0422437098727314e-04 7.7314241039738597e-03 0.0000000000000000e+00 0.0000000000000000e+00 0.0000000000000000e+00 0.0000000000000000e+00  8.2579708282586369e-03 -1.1113651341774196e-03 0.0000000000000000e+00 -1.1113651341774196e-03 6.1408099186665271e-03 0.0000000000000000e+00 0.0000000000000000e+00 0.0000000000000000e+00 0.0000000000000000e+00  2.6988741069455525e-02 1.4951044304735076e-02 0.0000000000000000e+00 1.4951044304735076e-02 5.2180775847584871e-03 0.0000000000000000e+00 0.0000000000000000e+00 0.0000000000000000e+00 0.0000000000000000e+00  -2.7985763779342177e-01 -4.4098127991657278e-02 0.0000000000000000e+00 -4.4098127991657278e-02 -2.6457351534648232e-01 0.0000000000000000e+00 0.0000000000000000e+00 0.0000000000000000e+00 0.0000000000000000e+00  -1.3756873224356378e-01 -1.3390003975889807e-02 0.0000000000000000e+00 -1.3390003975889807e-02 -2.8520266128059233e-03 0.0000000000000000e+00 0.0000000000000000e+00 0.0000000000000000e+00 0.0000000000000000e+00  -1.9092397811439225e-02 1.5047337442767183e-02 0.0000000000000000e+00 1.5047337442767183e-02 -1.2601352127128493e-01 0.0000000000000000e+00 0.0000000000000000e+00 0.0000000000000000e+00 0.0000000000000000e+00  -9.0297476917826525e-02 -6.1103853772711374e-03 0.0000000000000000e+00 -6.1103853772711374e-03 -8.1570266053320045e-02 0.0000000000000000e+00 0.0000000000000000e+00 0.0000000000000000e+00 0.0000000000000000e+00  -8.7763641994977520e-02 -6.8018033442216724e-03 0.0000000000000000e+00 -6.8018033442216724e-03 -8.8569603835841421e-02 0.0000000000000000e+00 0.0000000000000000e+00 0.0000000000000000e+00 0.0000000000000000e+00  -8.7463860035764687e-02 -5.3058269969322724e-03 0.0000000000000000e+00 -5.3058269969322724e-03 -8.9821251147206432e-02 0.0000000000000000e+00 0.0000000000000000e+00 0.0000000000000000e+00 0.0000000000000000e+00  -8.7053272315677360e-02 -4.5774739663544646e-03 0.0000000000000000e+00 -4.5774739663544646e-03 -9.0576957742884656e-02 0.0000000000000000e+00 0.0000000000000000e+00 0.0000000000000000e+00 0.0000000000000000e+00  -8.6358217067519435e-02 -3.9646926014237534e-03 0.0000000000000000e+00 -3.9646926014237534e-03 -9.1573450438327528e-02 0.0000000000000000e+00 0.0000000000000000e+00 0.0000000000000000e+00 0.0000000000000000e+00  -8.5869591035728443e-02 -3.5556195980480758e-03 0.0000000000000000e+00 -3.5556195980480758e-03 -9.2261831334747982e-02 0.0000000000000000e+00 0.0000000000000000e+00 0.0000000000000000e+00 0.0000000000000000e+00  -8.5468733831565363e-02 -3.3551697109069907e-03 0.0000000000000000e+00 -3.3551697109069907e-03 -9.2751982140749617e-02 0.0000000000000000e+00 0.0000000000000000e+00 0.0000000000000000e+00 0.0000000000000000e+00  -8.5134820520583132e-02 -3.2990494589002083e-03 0.0000000000000000e+00 -3.2990494589002083e-03 -9.3068402328905064e-02 0.0000000000000000e+00 0.0000000000000000e+00 0.0000000000000000e+00 0.0000000000000000e+00  -8.4843766812061322e-02 -3.3533007878752308e-03 0.0000000000000000e+00 -3.3533007878752308e-03 -9.3231828075413303e-02 0.0000000000000000e+00 0.0000000000000000e+00 0.0000000000000000e+00 0.0000000000000000e+00  -8.4572364327130459e-02 -3.4874090065418113e-03 0.0000000000000000e+00 -3.4874090065418113e-03 -9.3266592926514930e-02 0.0000000000000000e+00 0.0000000000000000e+00 0.0000000000000000e+00 0.0000000000000000e+00  -8.4307361129634245e-02 -3.6810030267542871e-03 0.0000000000000000e+00 -3.6810030267542871e-03 -9.3187180434719408e-02 0.0000000000000000e+00 0.0000000000000000e+00 0.0000000000000000e+00 0.0000000000000000e+00  -8.4040733405875576e-02 -3.9222001600664911e-03 0.0000000000000000e+00 -3.9222001600664911e-03 -9.3003612181709411e-02 0.0000000000000000e+00 0.0000000000000000e+00 0.0000000000000000e+00 0.0000000000000000e+00  -8.3768311966985032e-02 -4.2066679736278015e-03 0.0000000000000000e+00 -4.2066679736278015e-03 -9.2722414359085348e-02 0.0000000000000000e+00 0.0000000000000000e+00 0.0000000000000000e+00 0.0000000000000000e+00  -8.3486129972725143e-02 -4.5362439958316443e-03 0.0000000000000000e+00 -4.5362439958316443e-03 -9.2350353592780043e-02 0.0000000000000000e+00 0.0000000000000000e+00 0.0000000000000000e+00 0.0000000000000000e+00  -8.3187243103241354e-02 -4.9158637904201325e-03 0.0000000000000000e+00 -4.9158637904201325e-03 -9.1897597457082300e-02 0.0000000000000000e+00 0.0000000000000000e+00 0.0000000000000000e+00 0.0000000000000000e+00  -8.2859830072880850e-02 -5.3492992540341566e-03 0.0000000000000000e+00 -5.3492992540341566e-03 -9.1379350352846930e-02 0.0000000000000000e+00 0.0000000000000000e+00 0.0000000000000000e+00 0.0000000000000000e+00  -8.2487303663081976e-02 -5.8345085741907969e-03 0.0000000000000000e+00 -5.8345085741907969e-03 -9.0815032418677374e-02 0.0000000000000000e+00 0.0000000000000000e+00 0.0000000000000000e+00 0.0000000000000000e+00  -8.2050411128255937e-02 -6.3599274147138540e-03 0.0000000000000000e+00 -6.3599274147138540e-03 -9.0225013863406603e-02 0.0000000000000000e+00 0.0000000000000000e+00 0.0000000000000000e+00 0.0000000000000000e+00  -8.1530484145316870e-02 -6.9027832051265234e-03 0.0000000000000000e+00 -6.9027832051265234e-03 -8.9625888734829892e-02 0.0000000000000000e+00 0.0000000000000000e+00 0.0000000000000000e+00 0.0000000000000000e+00  -8.0912481667667138e-02 -7.4298121313444649e-03 0.0000000000000000e+00 -7.4298121313444649e-03 -8.9025892337628018e-02 0.0000000000000000e+00 0.0000000000000000e+00 0.0000000000000000e+00 0.0000000000000000e+00  -8.0186420049280047e-02 -7.8998011330247194e-03 0.0000000000000000e+00 -7.8998011330247194e-03 -8.8422098386642306e-02 0.0000000000000000e+00 0.0000000000000000e+00 0.0000000000000000e+00 0.0000000000000000e+00  -7.9346267755429911e-02 -8.2665535705820272e-03 0.0000000000000000e+00 -8.2665535705820272e-03 -8.7800408859542170e-02 0.0000000000000000e+00 0.0000000000000000e+00 0.0000000000000000e+00 0.0000000000000000e+00  -7.8386215660390501e-02 -8.4805048617248562e-03 0.0000000000000000e+00 -8.4805048617248562e-03 -8.7138286813137580e-02 0.0000000000000000e+00 0.0000000000000000e+00 0.0000000000000000e+00 0.0000000000000000e+00  -7.7295119737393850e-02 -8.4874321962329687e-03 0.0000000000000000e+00 -8.4874321962329687e-03 -8.6409046755537997e-02 0.0000000000000000e+00 0.0000000000000000e+00 0.0000000000000000e+00 0.0000000000000000e+00  -7.6050543443328969e-02 -8.2234200337416175e-03 0.0000000000000000e+00 -8.2234200337416175e-03 -8.5585685938783448e-02 0.0000000000000000e+00 0.0000000000000000e+00 0.0000000000000000e+00 0.0000000000000000e+00  -7.4614001207484681e-02 -7.6061818150473430e-03 0.0000000000000000e+00 -7.6061818150473430e-03 -8.4641955282190207e-02 0.0000000000000000e+00 0.0000000000000000e+00 0.0000000000000000e+00 0.0000000000000000e+00  -7.2928762414900580e-02 -6.5235944842411669e-03 0.0000000000000000e+00 -6.5235944842411669e-03 -8.3548589784340960e-02 0.0000000000000000e+00 0.0000000000000000e+00 0.0000000000000000e+00 0.0000000000000000e+00  -7.0921157788232228e-02 -4.8207068578840330e-03 0.0000000000000000e+00 -4.8207068578840330e-03 -8.2263054711039341e-02 0.0000000000000000e+00 0.0000000000000000e+00 0.0000000000000000e+00 0.0000000000000000e+00  -6.8506119630003012e-02 -2.2861093946343557e-03 0.0000000000000000e+00 -2.2861093946343557e-03 -8.0711399029091233e-02 0.0000000000000000e+00 0.0000000000000000e+00 0.0000000000000000e+00 0.0000000000000000e+00  -6.5598698370872649e-02 1.3611973392408897e-03 0.0000000000000000e+00 1.3611973392408897e-03 -7.8759730033768044e-02 0.0000000000000000e+00 0.0000000000000000e+00 0.0000000000000000e+00 0.0000000000000000e+00  -6.2133607215457479e-02 6.4844677555949935e-03 0.0000000000000000e+00 6.4844677555949935e-03 -7.6172934951464585e-02 0.0000000000000000e+00 0.0000000000000000e+00 0.0000000000000000e+00 0.0000000000000000e+00  -5.8100854983591597e-02 1.3537812174677248e-02 0.0000000000000000e+00 1.3537812174677248e-02 -7.2551428375636190e-02 0.0000000000000000e+00 0.0000000000000000e+00 0.0000000000000000e+00 0.0000000000000000e+00  -5.3618625341673457e-02 2.3063924253977384e-02 0.0000000000000000e+00 2.3063924253977384e-02 -6.7232074457877267e-02 0.0000000000000000e+00 0.0000000000000000e+00 0.0000000000000000e+00 0.0000000000000000e+00  -4.8943212638166547e-02 3.5651735612073472e-02 0.0000000000000000e+00 3.5651735612073472e-02 -5.9249403081518728e-02 0.0000000000000000e+00 0.0000000000000000e+00 0.0000000000000000e+00 0.0000000000000000e+00  -4.5113430716303221e-02 5.2012059470720351e-02 0.0000000000000000e+00 5.2012059470720351e-02 -4.6672891890774455e-02 0.0000000000000000e+00 0.0000000000000000e+00 0.0000000000000000e+00 0.0000000000000000e+00  -4.2382486998146972e-02 7.1669138800193613e-02 0.0000000000000000e+00 7.1669138800193613e-02 -2.8515576376086583e-02 0.0000000000000000e+00 0.0000000000000000e+00 0.0000000000000000e+00 0.0000000000000000e+00  -4.6247212250969852e-02 9.7944614325934598e-02 0.0000000000000000e+00 9.7944614325934598e-02 1.8298661312682850e-03 0.0000000000000000e+00 0.0000000000000000e+00 0.0000000000000000e+00 0.0000000000000000e+00  -5.5107504529053185e-02 1.1571698541444610e-01 0.0000000000000000e+00 1.1571698541444610e-01 3.9676895271727707e-02 0.0000000000000000e+00 0.0000000000000000e+00 0.0000000000000000e+00 0.0000000000000000e+00  -8.0901743611232216e-02 1.6732694619744026e-01 0.0000000000000000e+00 1.6732694619744026e-01 8.7645959701815199e-02 0.0000000000000000e+00 0.0000000000000000e+00 0.0000000000000000e+00 0.0000000000000000e+00  -1.9102254499613869e-01 1.2812032355311687e-01 0.0000000000000000e+00 1.2812032355311687e-01 1.6586401914609350e-01 0.0000000000000000e+00 0.0000000000000000e+00 0.0000000000000000e+00 0.0000000000000000e+00  -2.5554692786567895e-01 1.6120987811632750e-01 0.0000000000000000e+00 1.6120987811632750e-01 2.6993204294321910e-01 0.0000000000000000e+00 0.0000000000000000e+00 0.0000000000000000e+00 0.0000000000000000e+00  -5.3891065636914059e-01 -1.3182011397290658e-01 0.0000000000000000e+00 -1.3182011397290658e-01 -1.8281616584360202e-01 0.0000000000000000e+00 0.0000000000000000e+00 0.0000000000000000e+00 0.0000000000000000e+00  -3.1233654641793979e-01 2.5574202046813439e-02 0.0000000000000000e+00 2.5574202046813439e-02 1.5205669500202482e-01 0.0000000000000000e+00 0.0000000000000000e+00 0.0000000000000000e+00 0.0000000000000000e+00  -1.7881981841117581e-01 -1.3294381640712552e-01 0.0000000000000000e+00 -1.3294381640712552e-01 1.2559840803370506e-01 0.0000000000000000e+00 0.0000000000000000e+00 0.0000000000000000e+00 0.0000000000000000e+00  -8.9648617502644273e-02 -1.6023856627345567e-01 0.0000000000000000e+00 -1.6023856627345567e-01 7.6045484265336999e-02 0.0000000000000000e+00 0.0000000000000000e+00 0.0000000000000000e+00 0.0000000000000000e+00  -5.1075575714077670e-02 -1.1101181116514816e-01 0.0000000000000000e+00 -1.1101181116514816e-01 2.8885821968473651e-02 0.0000000000000000e+00 0.0000000000000000e+00 0.0000000000000000e+00 0.0000000000000000e+00  -4.4723318874109817e-02 -9.0680455302626722e-02 0.0000000000000000e+00 -9.0680455302626722e-02 -7.8163808293545880e-03 0.0000000000000000e+00 0.0000000000000000e+00 0.0000000000000000e+00 0.0000000000000000e+00  -4.1573693358127196e-02 -6.4907408208805292e-02 0.0000000000000000e+00 -6.4907408208805292e-02 -3.6246927987054325e-02 0.0000000000000000e+00 0.0000000000000000e+00 0.0000000000000000e+00 0.0000000000000000e+00  -4.5016387576319754e-02 -4.5719460483329172e-02 0.0000000000000000e+00 -4.5719460483329172e-02 -5.2971515873407336e-02 0.0000000000000000e+00 0.0000000000000000e+00 0.0000000000000000e+00 0.0000000000000000e+00  -4.9351349431167563e-02 -3.0039627854634363e-02 0.0000000000000000e+00 -3.0039627854634363e-02 -6.4253487679995031e-02 0.0000000000000000e+00 0.0000000000000000e+00 0.0000000000000000e+00 0.0000000000000000e+00  -5.4355952714114419e-02 -1.8228843110713086e-02 0.0000000000000000e+00 -1.8228843110713086e-02 -7.1177152422866971e-02 0.0000000000000000e+00 0.0000000000000000e+00 0.0000000000000000e+00 0.0000000000000000e+00  -5.9005690775084274e-02 -9.4761556629299366e-03 0.0000000000000000e+00 -9.4761556629299366e-03 -7.5676752772007444e-02 0.0000000000000000e+00 0.0000000000000000e+00 0.0000000000000000e+00 0.0000000000000000e+00  -6.3096565804892937e-02 -3.1432826250220713e-03 0.0000000000000000e+00 -3.1432826250220713e-03 -7.8676797746722774e-02 0.0000000000000000e+00 0.0000000000000000e+00 0.0000000000000000e+00 0.0000000000000000e+00  -6.6548149615110214e-02 1.3407322535498229e-03 0.0000000000000000e+00 1.3407322535498229e-03 -8.0799358223291956e-02 0.0000000000000000e+00 0.0000000000000000e+00 0.0000000000000000e+00 0.0000000000000000e+00  -6.9401553397039698e-02 4.4387249330177670e-03 0.0000000000000000e+00 4.4387249330177670e-03 -8.2403702229609258e-02 0.0000000000000000e+00 0.0000000000000000e+00 0.0000000000000000e+00 0.0000000000000000e+00  -7.1743381490431468e-02 6.5122210672878718e-03 0.0000000000000000e+00 6.5122210672878718e-03 -8.3692138438487676e-02 0.0000000000000000e+00 0.0000000000000000e+00 0.0000000000000000e+00 0.0000000000000000e+00  -7.3672491705751700e-02 7.8345330835218035e-03 0.0000000000000000e+00 7.8345330835218035e-03 -8.4773247842144378e-02 0.0000000000000000e+00 0.0000000000000000e+00 0.0000000000000000e+00 0.0000000000000000e+00  -7.5282128197952686e-02 8.6068206224190983e-03 0.0000000000000000e+00 8.6068206224190983e-03 -8.5702607553607327e-02 0.0000000000000000e+00 0.0000000000000000e+00 0.0000000000000000e+00 0.0000000000000000e+00  -7.6650152676974892e-02 8.9732176956693003e-03 0.0000000000000000e+00 8.9732176956693003e-03 -8.6509988788513861e-02 0.0000000000000000e+00 0.0000000000000000e+00 0.0000000000000000e+00 0.0000000000000000e+00  -7.7834864164795889e-02 9.0356168963152197e-03 0.0000000000000000e+00 9.0356168963152197e-03 -8.7216168205796266e-02 0.0000000000000000e+00 0.0000000000000000e+00 0.0000000000000000e+00 0.0000000000000000e+00  -7.8874724066943222e-02 8.8672300746334316e-03 0.0000000000000000e+00 8.8672300746334316e-03 -8.7841980553154633e-02 0.0000000000000000e+00 0.0000000000000000e+00 0.0000000000000000e+00 0.0000000000000000e+00  -7.9791278634670074e-02 8.5242589343613659e-03 0.0000000000000000e+00 8.5242589343613659e-03 -8.8411116886163640e-02 0.0000000000000000e+00 0.0000000000000000e+00 0.0000000000000000e+00 0.0000000000000000e+00  -8.0594399950161225e-02 8.0545644366409076e-03 0.0000000000000000e+00 8.0545644366409076e-03 -8.8948315153845242e-02 0.0000000000000000e+00 0.0000000000000000e+00 0.0000000000000000e+00 0.0000000000000000e+00  -8.1288545897261102e-02 7.5025802365116688e-03 0.0000000000000000e+00 7.5025802365116688e-03 -8.9474996276835278e-02 0.0000000000000000e+00 0.0000000000000000e+00 0.0000000000000000e+00 0.0000000000000000e+00  -8.1878491880785498e-02 6.9104339100007125e-03 0.0000000000000000e+00 6.9104339100007125e-03 -9.0004605999882775e-02 0.0000000000000000e+00 0.0000000000000000e+00 0.0000000000000000e+00 0.0000000000000000e+00  -8.2373150369247874e-02 6.3161511402905395e-03 0.0000000000000000e+00 6.3161511402905395e-03 -9.0539638109116402e-02 0.0000000000000000e+00 0.0000000000000000e+00 0.0000000000000000e+00 0.0000000000000000e+00  -8.2786713214045682e-02 5.7505173832580270e-03 0.0000000000000000e+00 5.7505173832580270e-03 -9.1071489756141502e-02 0.0000000000000000e+00 0.0000000000000000e+00 0.0000000000000000e+00 0.0000000000000000e+00  -8.3137226814547063e-02 5.2343786255840442e-03 0.0000000000000000e+00 5.2343786255840442e-03 -9.1583172643795285e-02 0.0000000000000000e+00 0.0000000000000000e+00 0.0000000000000000e+00 0.0000000000000000e+00  -8.3443535642459751e-02 4.7777853696340600e-03 0.0000000000000000e+00 4.7777853696340600e-03 -9.2053849046085712e-02 0.0000000000000000e+00 0.0000000000000000e+00 0.0000000000000000e+00 0.0000000000000000e+00  -8.3722007379855273e-02 4.3815584276450008e-03 0.0000000000000000e+00 4.3815584276450008e-03 -9.2463544139684758e-02 0.0000000000000000e+00 0.0000000000000000e+00 0.0000000000000000e+00 0.0000000000000000e+00  -8.3984400984816271e-02 4.0408967637824500e-03 0.0000000000000000e+00 4.0408967637824500e-03 -9.2796421671355836e-02 0.0000000000000000e+00 0.0000000000000000e+00 0.0000000000000000e+00 0.0000000000000000e+00  -8.4237719749929343e-02 3.7499449083896958e-03 0.0000000000000000e+00 3.7499449083896958e-03 -9.3041633265027734e-02 0.0000000000000000e+00 0.0000000000000000e+00 0.0000000000000000e+00 0.0000000000000000e+00  -8.4486069849400283e-02 3.5059891297992891e-03 0.0000000000000000e+00 3.5059891297992891e-03 -9.3191726883019424e-02 0.0000000000000000e+00 0.0000000000000000e+00 0.0000000000000000e+00 0.0000000000000000e+00  -8.4733789721631231e-02 3.3124865155067323e-03 0.0000000000000000e+00 3.3124865155067323e-03 -9.3239547989080088e-02 0.0000000000000000e+00 0.0000000000000000e+00 0.0000000000000000e+00 0.0000000000000000e+00  -8.4989037609636692e-02 3.1804280910239357e-03 0.0000000000000000e+00 3.1804280910239357e-03 -9.3174582528153888e-02 0.0000000000000000e+00 0.0000000000000000e+00 0.0000000000000000e+00 0.0000000000000000e+00  -8.5265088587114540e-02 3.1293287545793571e-03 0.0000000000000000e+00 3.1293287545793571e-03 -9.2982076212931114e-02 0.0000000000000000e+00 0.0000000000000000e+00 0.0000000000000000e+00 0.0000000000000000e+00  -8.5585001796122787e-02 3.1889461073641547e-03 0.0000000000000000e+00 3.1889461073641547e-03 -9.2637703403654362e-02 0.0000000000000000e+00 0.0000000000000000e+00 0.0000000000000000e+00 0.0000000000000000e+00  -8.5972447240554875e-02 3.3928816054476342e-03 0.0000000000000000e+00 3.3928816054476342e-03 -9.2121057518964711e-02 0.0000000000000000e+00 0.0000000000000000e+00 0.0000000000000000e+00 0.0000000000000000e+00  -8.6448073459623492e-02 3.8053805235214603e-03 0.0000000000000000e+00 3.8053805235214603e-03 -9.1407723822257272e-02 0.0000000000000000e+00 0.0000000000000000e+00 0.0000000000000000e+00 0.0000000000000000e+00  -8.7129424478590567e-02 4.4220699561554012e-03 0.0000000000000000e+00 4.4220699561554012e-03 -9.0388981241849867e-02 0.0000000000000000e+00 0.0000000000000000e+00 0.0000000000000000e+00 0.0000000000000000e+00  -8.7527259442426161e-02 5.1565850753732961e-03 0.0000000000000000e+00 5.1565850753732961e-03 -8.9610909356680660e-02 0.0000000000000000e+00 0.0000000000000000e+00 0.0000000000000000e+00 0.0000000000000000e+00  -8.7819173934039582e-02 6.6561624475885098e-03 0.0000000000000000e+00 6.6561624475885098e-03 -8.8334059673973134e-02 0.0000000000000000e+00 0.0000000000000000e+00 0.0000000000000000e+00 0.0000000000000000e+00  -9.0328226631238046e-02 5.9633252817548419e-03 0.0000000000000000e+00 5.9633252817548419e-03 -8.1340020266017943e-02 0.0000000000000000e+00 0.0000000000000000e+00 0.0000000000000000e+00 0.0000000000000000e+00  -1.9139306812602692e-02 -1.5182849741012819e-02 0.0000000000000000e+00 -1.5182849741012819e-02 -1.2570833139649154e-01 0.0000000000000000e+00 0.0000000000000000e+00 0.0000000000000000e+00 0.0000000000000000e+00  -1.3754137252287571e-01 1.3289190504166137e-02 0.0000000000000000e+00 1.3289190504166137e-02 -2.6674359378900847e-03 0.0000000000000000e+00 0.0000000000000000e+00 0.0000000000000000e+00 0.0000000000000000e+00  -2.8017032817983689e-01 4.3980386930980359e-02 0.0000000000000000e+00 4.3980386930980359e-02 -2.6486886282286948e-01 0.0000000000000000e+00 0.0000000000000000e+00 0.0000000000000000e+00 0.0000000000000000e+00  2.6966163966863816e-02 -1.4890171152995825e-02 0.0000000000000000e+00 -1.4890171152995825e-02 5.2542691716511653e-03 0.0000000000000000e+00 0.0000000000000000e+00 0.0000000000000000e+00 0.0000000000000000e+00  8.2250829726417795e-03 1.1073646336070486e-03 0.0000000000000000e+00 1.1073646336070486e-03 6.1310472769032110e-03 0.0000000000000000e+00 0.0000000000000000e+00 0.0000000000000000e+00 0.0000000000000000e+00  7.7360245877878377e-03 -1.0787916578762251e-04 0.0000000000000000e+00 -1.0787916578762251e-04 7.6652437615793330e-03 0.0000000000000000e+00 0.0000000000000000e+00 0.0000000000000000e+00 0.0000000000000000e+00  7.7625726901410803e-03 8.1506422309097782e-06 0.0000000000000000e+00 8.1506422309097782e-06 7.7392292934462328e-03 0.0000000000000000e+00 0.0000000000000000e+00 0.0000000000000000e+00 0.0000000000000000e+00  7.7444413431254876e-03 3.5806137349041194e-05 0.0000000000000000e+00 3.5806137349041194e-05 7.7424803260405465e-03 0.0000000000000000e+00 0.0000000000000000e+00 0.0000000000000000e+00 0.0000000000000000e+00  7.7452037420856342e-03 6.7328438779635282e-05 0.0000000000000000e+00 6.7328438779635282e-05 7.7459007220253735e-03 0.0000000000000000e+00 0.0000000000000000e+00 0.0000000000000000e+00 0.0000000000000000e+00  7.7761975651847379e-03 -6.4404734228421635e-05 0.0000000000000000e+00 -6.4404734228421635e-05 7.7767098662263091e-03 0.0000000000000000e+00 0.0000000000000000e+00 0.0000000000000000e+00 0.0000000000000000e+00  7.7773498767016247e-03 -3.6261637943935027e-05 0.0000000000000000e+00 -3.6261637943935027e-05 7.7760511472412652e-03 0.0000000000000000e+00 0.0000000000000000e+00 0.0000000000000000e+00 0.0000000000000000e+00  7.7830268420340425e-03 -7.5536446347774372e-06 0.0000000000000000e+00 -7.5536446347774372e-06 7.7686893692002898e-03 0.0000000000000000e+00 0.0000000000000000e+00 0.0000000000000000e+00 0.0000000000000000e+00  7.7512398872221326e-03 -5.9321223823582742e-06 0.0000000000000000e+00 -5.9321223823582742e-06 7.7088808394723410e-03 0.0000000000000000e+00 0.0000000000000000e+00 0.0000000000000000e+00 0.0000000000000000e+00  8.7375374555020233e-03 -2.5248860673165034e-05 0.0000000000000000e+00 -2.5248860673165034e-05 7.8377790634213025e-03 0.0000000000000000e+00 0.0000000000000000e+00 0.0000000000000000e+00 0.0000000000000000e+00  4.9162685021578688e-03 7.6798474584368554e-03 0.0000000000000000e+00 7.6798474584368554e-03 1.0097399727506254e-03 0.0000000000000000e+00 0.0000000000000000e+00 0.0000000000000000e+00 0.0000000000000000e+00  1.5515809046742334e-02 -6.9736979778898464e-02 0.0000000000000000e+00 -6.9736979778898464e-02 -9.5891288977059966e-02 0.0000000000000000e+00 0.0000000000000000e+00 0.0000000000000000e+00 0.0000000000000000e+00  -5.5607409970532551e-01 6.5604183015965364e-02 0.0000000000000000e+00 6.5604183015965364e-02 -2.1448999660454393e-01 0.0000000000000000e+00 0.0000000000000000e+00 0.0000000000000000e+00 0.0000000000000000e+00  3.3219770421805059e-02 -8.5407041950703276e-03 0.0000000000000000e+00 -8.5407041950703276e-03 -5.3766338379855311e-02 0.0000000000000000e+00 0.0000000000000000e+00 0.0000000000000000e+00 0.0000000000000000e+00  -8.0343819815115750e-02 -1.2438863138066742e-02 0.0000000000000000e+00 -1.2438863138066742e-02 -8.8239652405459196e-02 0.0000000000000000e+00 0.0000000000000000e+00 0.0000000000000000e+00 0.0000000000000000e+00  -8.3300674682608752e-02 -5.1664908099417700e-03 0.0000000000000000e+00 -5.1664908099417700e-03 -9.3011102234026297e-02 0.0000000000000000e+00 0.0000000000000000e+00 0.0000000000000000e+00 0.0000000000000000e+00  -8.7397353352924936e-02 -5.8522375032801621e-03 0.0000000000000000e+00 -5.8522375032801621e-03 -8.9443644426014490e-02 0.0000000000000000e+00 0.0000000000000000e+00 0.0000000000000000e+00 0.0000000000000000e+00  -8.6400346971772374e-02 -5.2749353173442990e-03 0.0000000000000000e+00 -5.2749353173442990e-03 -9.1385147742202702e-02 0.0000000000000000e+00 0.0000000000000000e+00 0.0000000000000000e+00 0.0000000000000000e+00  -8.6329241593203557e-02 -4.5065807504664048e-03 0.0000000000000000e+00 -4.5065807504664048e-03 -9.2001302968021267e-02 0.0000000000000000e+00 0.0000000000000000e+00 0.0000000000000000e+00 0.0000000000000000e+00  -8.6155835009385465e-02 -4.1205505114845081e-03 0.0000000000000000e+00 -4.1205505114845081e-03 -9.2435179787334315e-02 0.0000000000000000e+00 0.0000000000000000e+00 0.0000000000000000e+00 0.0000000000000000e+00  -8.5939882581144558e-02 -3.8727108000354135e-03 0.0000000000000000e+00 -3.8727108000354135e-03 -9.2758853846500303e-02 0.0000000000000000e+00 0.0000000000000000e+00 0.0000000000000000e+00 0.0000000000000000e+00  -8.5736613961254773e-02 -3.7857398910865234e-03 0.0000000000000000e+00 -3.7857398910865234e-03 -9.2926773618108166e-02 0.0000000000000000e+00 0.0000000000000000e+00 0.0000000000000000e+00 0.0000000000000000e+00  -8.5523936204131915e-02 -3.8127305882322423e-03 0.0000000000000000e+00 -3.8127305882322423e-03 -9.2990063633331191e-02 0.0000000000000000e+00 0.0000000000000000e+00 0.0000000000000000e+00 0.0000000000000000e+00  -8.5309793963556771e-02 -3.9234811983169960e-03 0.0000000000000000e+00 -3.9234811983169960e-03 -9.2950862116109423e-02 0.0000000000000000e+00 0.0000000000000000e+00 0.0000000000000000e+00 0.0000000000000000e+00  -8.5093028400457585e-02 -4.0959079020766627e-03 0.0000000000000000e+00 -4.0959079020766627e-03 -9.2817648506561184e-02 0.0000000000000000e+00 0.0000000000000000e+00 0.0000000000000000e+00 0.0000000000000000e+00  -8.4877865683045201e-02 -4.3152709707776522e-03 0.0000000000000000e+00 -4.3152709707776522e-03 -9.2590140393661050e-02 0.0000000000000000e+00 0.0000000000000000e+00 0.0000000000000000e+00 0.0000000000000000e+00  -8.4669822859660474e-02 -4.5776461362647463e-03 0.0000000000000000e+00 -4.5776461362647463e-03 -9.2265734492927159e-02 0.0000000000000000e+00 0.0000000000000000e+00 0.0000000000000000e+00 0.0000000000000000e+00  -8.4472106594870283e-02 -4.8885984439688999e-03 0.0000000000000000e+00 -4.8885984439688999e-03 -9.1844266793662033e-02 0.0000000000000000e+00 0.0000000000000000e+00 0.0000000000000000e+00 0.0000000000000000e+00  -8.4281218710365771e-02 -5.2597789139650734e-03 0.0000000000000000e+00 -5.2597789139650734e-03 -9.1333464088448377e-02 0.0000000000000000e+00 0.0000000000000000e+00 0.0000000000000000e+00 0.0000000000000000e+00  -8.4084216073487178e-02 -5.7024850514424061e-03 0.0000000000000000e+00 -5.7024850514424061e-03 -9.0751979475022518e-02 0.0000000000000000e+00 0.0000000000000000e+00 0.0000000000000000e+00 0.0000000000000000e+00  -8.3859226446401314e-02 -6.2203648562276252e-03 0.0000000000000000e+00 -6.2203648562276252e-03 -9.0128258929517105e-02 0.0000000000000000e+00 0.0000000000000000e+00 0.0000000000000000e+00 0.0000000000000000e+00  -8.3579222685259066e-02 -6.8035505161220524e-03 0.0000000000000000e+00 -6.8035505161220524e-03 -8.9495228474355162e-02 0.0000000000000000e+00 0.0000000000000000e+00 0.0000000000000000e+00 0.0000000000000000e+00  -8.3217816754043245e-02 -7.4262975333514265e-03 0.0000000000000000e+00 -7.4262975333514265e-03 -8.8882378658563396e-02 0.0000000000000000e+00 0.0000000000000000e+00 0.0000000000000000e+00 0.0000000000000000e+00  -8.2754783603458754e-02 -8.0489442259668552e-03 0.0000000000000000e+00 -8.0489442259668552e-03 -8.8308055963416662e-02 0.0000000000000000e+00 0.0000000000000000e+00 0.0000000000000000e+00 0.0000000000000000e+00  -8.2178925180527912e-02 -8.6233241336910130e-03 0.0000000000000000e+00 -8.6233241336910130e-03 -8.7774862012717503e-02 0.0000000000000000e+00 0.0000000000000000e+00 0.0000000000000000e+00 0.0000000000000000e+00  -8.1486678034547635e-02 -9.0993248037347010e-03 0.0000000000000000e+00 -9.0993248037347010e-03 -8.7270022852401194e-02 0.0000000000000000e+00 0.0000000000000000e+00 0.0000000000000000e+00 0.0000000000000000e+00  -8.0676262321063952e-02 -9.4296391990715996e-03 0.0000000000000000e+00 -9.4296391990715996e-03 -8.6770788875239271e-02 0.0000000000000000e+00 0.0000000000000000e+00 0.0000000000000000e+00 0.0000000000000000e+00  -7.9738635777434758e-02 -9.5701314913957756e-03 0.0000000000000000e+00 -9.5701314913957756e-03 -8.6253018163789691e-02 0.0000000000000000e+00 0.0000000000000000e+00 0.0000000000000000e+00 0.0000000000000000e+00  -7.8647502504753358e-02 -9.4744867107739352e-03 0.0000000000000000e+00 -9.4744867107739352e-03 -8.5699765077715886e-02 0.0000000000000000e+00 0.0000000000000000e+00 0.0000000000000000e+00 0.0000000000000000e+00  -7.7350785313800949e-02 -9.0834148040300957e-03 0.0000000000000000e+00 -9.0834148040300957e-03 -8.5106368616456735e-02 0.0000000000000000e+00 0.0000000000000000e+00 0.0000000000000000e+00 0.0000000000000000e+00  -7.5765194422969417e-02 -8.3100184445918344e-03 0.0000000000000000e+00 -8.3100184445918344e-03 -8.4479286780501955e-02 0.0000000000000000e+00 0.0000000000000000e+00 0.0000000000000000e+00 0.0000000000000000e+00  -7.3774423919027277e-02 -7.0230857745919046e-03 0.0000000000000000e+00 -7.0230857745919046e-03 -8.3827050413991980e-02 0.0000000000000000e+00 0.0000000000000000e+00 0.0000000000000000e+00 0.0000000000000000e+00  -7.1230523564807177e-02 -5.0301332595006154e-03 0.0000000000000000e+00 -5.0301332595006154e-03 -8.3142530385216476e-02 0.0000000000000000e+00 0.0000000000000000e+00 0.0000000000000000e+00 0.0000000000000000e+00  -6.7957132787172511e-02 -2.0581759514128732e-03 0.0000000000000000e+00 -2.0581759514128732e-03 -8.2376200193018098e-02 0.0000000000000000e+00 0.0000000000000000e+00 0.0000000000000000e+00 0.0000000000000000e+00  -6.3759901662834934e-02 2.2650522694764455e-03 0.0000000000000000e+00 2.2650522694764455e-03 -8.1391997986477421e-02 0.0000000000000000e+00 0.0000000000000000e+00 0.0000000000000000e+00 0.0000000000000000e+00  -5.8432538985987409e-02 8.4393602244390437e-03 0.0000000000000000e+00 8.4393602244390437e-03 -7.9915989059333253e-02 0.0000000000000000e+00 0.0000000000000000e+00 0.0000000000000000e+00 0.0000000000000000e+00  -5.1808525432506719e-02 1.7125004638482395e-02 0.0000000000000000e+00 1.7125004638482395e-02 -7.7410866244794957e-02 0.0000000000000000e+00 0.0000000000000000e+00 0.0000000000000000e+00 0.0000000000000000e+00  -4.3885577298993485e-02 2.9124451314547231e-02 0.0000000000000000e+00 2.9124451314547231e-02 -7.2892687105678006e-02 0.0000000000000000e+00 0.0000000000000000e+00 0.0000000000000000e+00 0.0000000000000000e+00  -3.4218056624964924e-02 4.5390889711306559e-02 0.0000000000000000e+00 4.5390889711306559e-02 -6.5421043477695590e-02 0.0000000000000000e+00 0.0000000000000000e+00 0.0000000000000000e+00 0.0000000000000000e+00  -2.6192206588232136e-02 6.7981026941847600e-02 0.0000000000000000e+00 6.7981026941847600e-02 -4.9177250292313124e-02 0.0000000000000000e+00 0.0000000000000000e+00 0.0000000000000000e+00 0.0000000000000000e+00  -1.1941639219557123e-02 9.1006762203840949e-02 0.0000000000000000e+00 9.1006762203840949e-02 -3.2966811517182282e-02 0.0000000000000000e+00 0.0000000000000000e+00 0.0000000000000000e+00 0.0000000000000000e+00  -2.3206444227432288e-02 1.4404605153113287e-01 0.0000000000000000e+00 1.4404605153113287e-01 2.0173356165069361e-02 0.0000000000000000e+00 0.0000000000000000e+00 0.0000000000000000e+00 0.0000000000000000e+00  -3.8710892757803116e-02 1.1886356063444575e-01 0.0000000000000000e+00 1.1886356063444575e-01 9.7147775448482333e-03 0.0000000000000000e+00 0.0000000000000000e+00 0.0000000000000000e+00 0.0000000000000000e+00  -2.0636322555522252e-01 1.4063258660834060e-01 0.0000000000000000e+00 1.4063258660834060e-01 -5.3101645538073568e-02 0.0000000000000000e+00 0.0000000000000000e+00 0.0000000000000000e+00 0.0000000000000000e+00  -3.1720209845913683e-01 1.5741397387517811e-01 0.0000000000000000e+00 1.5741397387517811e-01 -2.5512076621947466e-01 0.0000000000000000e+00 0.0000000000000000e+00 0.0000000000000000e+00 0.0000000000000000e+00  -2.4536567836920928e-01 1.0432400921416968e-01 0.0000000000000000e+00 1.0432400921416968e-01 5.0425081821363765e-02 0.0000000000000000e+00 0.0000000000000000e+00 0.0000000000000000e+00 0.0000000000000000e+00  -2.8063696764939677e-01 -2.6521522276988851e-01 0.0000000000000000e+00 -2.6521522276988851e-01 -1.7996676258452268e-01 0.0000000000000000e+00 0.0000000000000000e+00 0.0000000000000000e+00 0.0000000000000000e+00  -2.2819779084736613e-01 -9.7626994172442014e-02 0.0000000000000000e+00 -9.7626994172442014e-02 -1.2125661015101810e-01 0.0000000000000000e+00 0.0000000000000000e+00 0.0000000000000000e+00 0.0000000000000000e+00  -8.5509284174352211e-03 -1.1190243276796198e-01 0.0000000000000000e+00 -1.1190243276796198e-01 -2.5023380570547035e-02 0.0000000000000000e+00 0.0000000000000000e+00 0.0000000000000000e+00 0.0000000000000000e+00  -2.5259471364119143e-02 -1.3258014100082355e-01 0.0000000000000000e+00 -1.3258014100082355e-01 6.8908452626158913e-03 0.0000000000000000e+00 0.0000000000000000e+00 0.0000000000000000e+00 0.0000000000000000e+00  -1.1572611435300060e-02 -8.3288798193522667e-02 0.0000000000000000e+00 -8.3288798193522667e-02 -4.2011204175310700e-02 0.0000000000000000e+00 0.0000000000000000e+00 0.0000000000000000e+00 0.0000000000000000e+00  -2.7391026712102383e-02 -6.0526999636721056e-02 0.0000000000000000e+00 -6.0526999636721056e-02 -5.6477051854595034e-02 0.0000000000000000e+00 0.0000000000000000e+00 0.0000000000000000e+00 0.0000000000000000e+00  -3.5855184717527556e-02 -3.8558663184022186e-02 0.0000000000000000e+00 -3.8558663184022186e-02 -7.1050316022589863e-02 0.0000000000000000e+00 0.0000000000000000e+00 0.0000000000000000e+00 0.0000000000000000e+00  -4.5873371432574674e-02 -2.3237999759474340e-02 0.0000000000000000e+00 -2.3237999759474340e-02 -7.7038250658104851e-02 0.0000000000000000e+00 0.0000000000000000e+00 0.0000000000000000e+00 0.0000000000000000e+00  -5.3839076866072290e-02 -1.2186932832102558e-02 0.0000000000000000e+00 -1.2186932832102558e-02 -8.0500542897362984e-02 0.0000000000000000e+00 0.0000000000000000e+00 0.0000000000000000e+00 0.0000000000000000e+00  -6.0377210951083581e-02 -4.4005061956219988e-03 0.0000000000000000e+00 -4.4005061956219988e-03 -8.2239698290408059e-02 0.0000000000000000e+00 0.0000000000000000e+00 0.0000000000000000e+00 0.0000000000000000e+00  -6.5533789110588200e-02 9.8091612969341386e-04 0.0000000000000000e+00 9.8091612969341386e-04 -8.3187269069391820e-02 0.0000000000000000e+00 0.0000000000000000e+00 0.0000000000000000e+00 0.0000000000000000e+00  -6.9526792630854942e-02 4.6286073315763652e-03 0.0000000000000000e+00 4.6286073315763652e-03 -8.3809670656333032e-02 0.0000000000000000e+00 0.0000000000000000e+00 0.0000000000000000e+00 0.0000000000000000e+00  -7.2591196592055679e-02 7.0401581376020672e-03 0.0000000000000000e+00 7.0401581376020672e-03 -8.4328903325934013e-02 0.0000000000000000e+00 0.0000000000000000e+00 0.0000000000000000e+00 0.0000000000000000e+00  -7.4939287915933947e-02 8.5763016651640295e-03 0.0000000000000000e+00 8.5763016651640295e-03 -8.4840943441505001e-02 0.0000000000000000e+00 0.0000000000000000e+00 0.0000000000000000e+00 0.0000000000000000e+00  -7.6756335940028453e-02 9.4953875859402244e-03 0.0000000000000000e+00 9.4953875859402244e-03 -8.5367278876971764e-02 0.0000000000000000e+00 0.0000000000000000e+00 0.0000000000000000e+00 0.0000000000000000e+00  -7.8193529850867430e-02 9.9748489981905906e-03 0.0000000000000000e+00 9.9748489981905906e-03 -8.5896195223669772e-02 0.0000000000000000e+00 0.0000000000000000e+00 0.0000000000000000e+00 0.0000000000000000e+00  -7.9366826715495636e-02 1.0132025419053904e-02 0.0000000000000000e+00 1.0132025419053904e-02 -8.6407262606061477e-02 0.0000000000000000e+00 0.0000000000000000e+00 0.0000000000000000e+00 0.0000000000000000e+00  -8.0357178085896888e-02 1.0041806061004178e-02 0.0000000000000000e+00 1.0041806061004178e-02 -8.6887004551252686e-02 0.0000000000000000e+00 0.0000000000000000e+00 0.0000000000000000e+00 0.0000000000000000e+00  -8.1213404569177555e-02 9.7535189997683125e-03 0.0000000000000000e+00 9.7535189997683125e-03 -8.7336326915798568e-02 0.0000000000000000e+00 0.0000000000000000e+00 0.0000000000000000e+00 0.0000000000000000e+00  -8.1958318218291679e-02 9.3054599645579165e-03 0.0000000000000000e+00 9.3054599645579165e-03 -8.7770469511732285e-02 0.0000000000000000e+00 0.0000000000000000e+00 0.0000000000000000e+00 0.0000000000000000e+00  -8.2597655210489021e-02 8.7354495295998130e-03 0.0000000000000000e+00 8.7354495295998130e-03 -8.8213060111303532e-02 0.0000000000000000e+00 0.0000000000000000e+00 0.0000000000000000e+00 0.0000000000000000e+00  -8.3130275378235863e-02 8.0859021707072962e-03 0.0000000000000000e+00 8.0859021707072962e-03 -8.8686949030597748e-02 0.0000000000000000e+00 0.0000000000000000e+00 0.0000000000000000e+00 0.0000000000000000e+00  -8.3557290560721975e-02 7.4031873748452645e-03 0.0000000000000000e+00 7.4031873748452645e-03 -8.9205255832113819e-02 0.0000000000000000e+00 0.0000000000000000e+00 0.0000000000000000e+00 0.0000000000000000e+00  -8.3887925085325180e-02 6.7326356409029096e-03 0.0000000000000000e+00 6.7326356409029096e-03 -8.9765742612462424e-02 0.0000000000000000e+00 0.0000000000000000e+00 0.0000000000000000e+00 0.0000000000000000e+00  -8.4140880404964050e-02 6.1117721795868017e-03 0.0000000000000000e+00 6.1117721795868017e-03 -9.0350313080332617e-02 0.0000000000000000e+00 0.0000000000000000e+00 0.0000000000000000e+00 0.0000000000000000e+00  -8.4341426444709031e-02 5.5647285041326485e-03 0.0000000000000000e+00 5.5647285041326485e-03 -9.0929544955592453e-02 0.0000000000000000e+00 0.0000000000000000e+00 0.0000000000000000e+00 0.0000000000000000e+00  -8.4515825782663367e-02 5.1001337605042401e-03 0.0000000000000000e+00 5.1001337605042401e-03 -9.1470374133372764e-02 0.0000000000000000e+00 0.0000000000000000e+00 0.0000000000000000e+00 0.0000000000000000e+00  -8.4685484712645490e-02 4.7133505157258169e-03 0.0000000000000000e+00 4.7133505157258169e-03 -9.1944017597699587e-02 0.0000000000000000e+00 0.0000000000000000e+00 0.0000000000000000e+00 0.0000000000000000e+00  -8.4863124462672551e-02 4.3922385823228008e-03 0.0000000000000000e+00 4.3922385823228008e-03 -9.2331315962032992e-02 0.0000000000000000e+00 0.0000000000000000e+00 0.0000000000000000e+00 0.0000000000000000e+00  -8.5052213579619632e-02 4.1243667325543219e-03 0.0000000000000000e+00 4.1243667325543219e-03 -9.2623912089646487e-02 0.0000000000000000e+00 0.0000000000000000e+00 0.0000000000000000e+00 0.0000000000000000e+00  -8.5249656453710437e-02 3.9033833556928674e-03 0.0000000000000000e+00 3.9033833556928674e-03 -9.2821275667382824e-02 0.0000000000000000e+00 0.0000000000000000e+00 0.0000000000000000e+00 0.0000000000000000e+00  -8.5450127443537929e-02 3.7323562110987253e-03 0.0000000000000000e+00 3.7323562110987253e-03 -9.2925333113621181e-02 0.0000000000000000e+00 0.0000000000000000e+00 0.0000000000000000e+00 0.0000000000000000e+00  -8.5649583896516432e-02 3.6250752157675386e-03 0.0000000000000000e+00 3.6250752157675386e-03 -9.2935825371854269e-02 0.0000000000000000e+00 0.0000000000000000e+00 0.0000000000000000e+00 0.0000000000000000e+00  -8.5849229843591598e-02 3.6025539864917720e-03 0.0000000000000000e+00 3.6025539864917720e-03 -9.2844031291679258e-02 0.0000000000000000e+00 0.0000000000000000e+00 0.0000000000000000e+00 0.0000000000000000e+00  -8.6040868349892927e-02 3.6940652936296469e-03 0.0000000000000000e+00 3.6940652936296469e-03 -9.2648000543480852e-02 0.0000000000000000e+00 0.0000000000000000e+00 0.0000000000000000e+00 0.0000000000000000e+00  -8.6245982280897304e-02 3.9455380903578568e-03 0.0000000000000000e+00 3.9455380903578568e-03 -9.2297331484598011e-02 0.0000000000000000e+00 0.0000000000000000e+00 0.0000000000000000e+00 0.0000000000000000e+00  -8.6407697127160080e-02 4.3349694746856963e-03 0.0000000000000000e+00 4.3349694746856963e-03 -9.1839145204594894e-02 0.0000000000000000e+00 0.0000000000000000e+00 0.0000000000000000e+00 0.0000000000000000e+00  -8.6467889211338689e-02 5.1062947723629201e-03 0.0000000000000000e+00 5.1062947723629201e-03 -9.1199056573703349e-02 0.0000000000000000e+00 0.0000000000000000e+00 0.0000000000000000e+00 0.0000000000000000e+00  -8.7445273238752688e-02 5.6873430602622259e-03 0.0000000000000000e+00 5.6873430602622259e-03 -8.9245224481989002e-02 0.0000000000000000e+00 0.0000000000000000e+00 0.0000000000000000e+00 0.0000000000000000e+00  -8.3341360112937760e-02 5.0215152227697513e-03 0.0000000000000000e+00 5.0215152227697513e-03 -9.2781025160657588e-02 0.0000000000000000e+00 0.0000000000000000e+00 0.0000000000000000e+00 0.0000000000000000e+00  -8.0385369539254098e-02 1.2283537313182071e-02 0.0000000000000000e+00 1.2283537313182071e-02 -8.7955606732156771e-02 0.0000000000000000e+00 0.0000000000000000e+00 0.0000000000000000e+00 0.0000000000000000e+00  3.3100096120730504e-02 8.3744127456191527e-03 0.0000000000000000e+00 8.3744127456191527e-03 -5.3588982034386300e-02 0.0000000000000000e+00 0.0000000000000000e+00 0.0000000000000000e+00 0.0000000000000000e+00  -5.5608169870684743e-01 -6.5636072435322185e-02 0.0000000000000000e+00 -6.5636072435322185e-02 -2.1422924996908058e-01 0.0000000000000000e+00 0.0000000000000000e+00 0.0000000000000000e+00 0.0000000000000000e+00  1.5047201052033776e-02 6.9707377810885401e-02 0.0000000000000000e+00 6.9707377810885401e-02 -9.6349489705335134e-02 0.0000000000000000e+00 0.0000000000000000e+00 0.0000000000000000e+00 0.0000000000000000e+00  4.9845111170773388e-03 -7.6578592532734737e-03 0.0000000000000000e+00 -7.6578592532734737e-03 1.1266101068469489e-03 0.0000000000000000e+00 0.0000000000000000e+00 0.0000000000000000e+00 0.0000000000000000e+00  8.6961308115200107e-03 2.9057015658048144e-05 0.0000000000000000e+00 2.9057015658048144e-05 7.8016856616186904e-03 0.0000000000000000e+00 0.0000000000000000e+00 0.0000000000000000e+00 0.0000000000000000e+00  7.6827418401676298e-03 2.6532872273681061e-06 0.0000000000000000e+00 2.6532872273681061e-06 7.6401604944659239e-03 0.0000000000000000e+00 0.0000000000000000e+00 0.0000000000000000e+00 0.0000000000000000e+00  7.7177397795570495e-03 8.7869681569799434e-06 0.0000000000000000e+00 8.7869681569799434e-06 7.7084714133534571e-03 0.0000000000000000e+00 0.0000000000000000e+00 0.0000000000000000e+00 0.0000000000000000e+00  7.7137738111772124e-03 3.7583643468639919e-05 0.0000000000000000e+00 3.7583643468639919e-05 7.7148353229861437e-03 0.0000000000000000e+00 0.0000000000000000e+00 0.0000000000000000e+00 0.0000000000000000e+00  7.7132520105451059e-03 6.6438085260712217e-05 0.0000000000000000e+00 6.6438085260712217e-05 7.7138558479377161e-03 0.0000000000000000e+00 0.0000000000000000e+00 0.0000000000000000e+00 0.0000000000000000e+00  7.7480439678033614e-03 -6.3085485126861531e-05 0.0000000000000000e+00 -6.3085485126861531e-05 7.7486200421389073e-03 0.0000000000000000e+00 0.0000000000000000e+00 0.0000000000000000e+00 0.0000000000000000e+00  7.7474562558511161e-03 -3.7527729772359589e-05 0.0000000000000000e+00 -3.7527729772359589e-05 7.7499282344699796e-03 0.0000000000000000e+00 0.0000000000000000e+00 0.0000000000000000e+00 0.0000000000000000e+00  7.7476431197699442e-03 -1.0150790087342533e-05 0.0000000000000000e+00 -1.0150790087342533e-05 7.7460692530168683e-03 0.0000000000000000e+00 0.0000000000000000e+00 0.0000000000000000e+00 0.0000000000000000e+00  7.7617637165967191e-03 -3.0368878054985574e-05 0.0000000000000000e+00 -3.0368878054985574e-05 7.7123164801315754e-03 0.0000000000000000e+00 0.0000000000000000e+00 0.0000000000000000e+00 0.0000000000000000e+00  7.9677511473313870e-03 5.8705517867124832e-04 0.0000000000000000e+00 5.8705517867124832e-04 7.9604005945267953e-03 0.0000000000000000e+00 0.0000000000000000e+00 0.0000000000000000e+00 0.0000000000000000e+00  5.1317170096854617e-03 -3.6355475308865975e-03 0.0000000000000000e+00 -3.6355475308865975e-03 1.2768852098050995e-03 0.0000000000000000e+00 0.0000000000000000e+00 0.0000000000000000e+00 0.0000000000000000e+00  6.5542162088573983e-02 1.8672581337207849e-02 0.0000000000000000e+00 1.8672581337207849e-02 1.1502482528354004e-02 0.0000000000000000e+00 0.0000000000000000e+00 0.0000000000000000e+00 0.0000000000000000e+00  -4.4281130837426796e-01 -2.2285570492648562e-02 0.0000000000000000e+00 -2.2285570492648562e-02 -2.8117539099312144e-01 0.0000000000000000e+00 0.0000000000000000e+00 0.0000000000000000e+00 0.0000000000000000e+00  -2.1784095537192100e-02 -3.4387074010289481e-02 0.0000000000000000e+00 -3.4387074010289481e-02 2.8237444409426958e-02 0.0000000000000000e+00 0.0000000000000000e+00 0.0000000000000000e+00 0.0000000000000000e+00  -4.1421624887149615e-02 7.3695200296773431e-03 0.0000000000000000e+00 7.3695200296773431e-03 -1.4106806814435685e-01 0.0000000000000000e+00 0.0000000000000000e+00 0.0000000000000000e+00 0.0000000000000000e+00  -9.0283042834353372e-02 -4.9607714150467297e-03 0.0000000000000000e+00 -4.9607714150467297e-03 -8.1502021424589469e-02 0.0000000000000000e+00 0.0000000000000000e+00 0.0000000000000000e+00 0.0000000000000000e+00  -8.5675240638627082e-02 -7.1961345211640198e-03 0.0000000000000000e+00 -7.1961345211640198e-03 -9.1519065404521996e-02 0.0000000000000000e+00 0.0000000000000000e+00 0.0000000000000000e+00 0.0000000000000000e+00  -8.6309256560222605e-02 -4.9457798826165250e-03 0.0000000000000000e+00 -4.9457798826165250e-03 -9.2213859632680764e-02 0.0000000000000000e+00 0.0000000000000000e+00 0.0000000000000000e+00 0.0000000000000000e+00  -8.6728172322061148e-02 -4.8724213154940632e-03 0.0000000000000000e+00 -4.8724213154940632e-03 -9.2191964185450948e-02 0.0000000000000000e+00 0.0000000000000000e+00 0.0000000000000000e+00 0.0000000000000000e+00  -8.6576358859017405e-02 -4.4330976500836427e-03 0.0000000000000000e+00 -4.4330976500836427e-03 -9.2662633380305295e-02 0.0000000000000000e+00 0.0000000000000000e+00 0.0000000000000000e+00 0.0000000000000000e+00  -8.6547898983674001e-02 -4.2492352411294138e-03 0.0000000000000000e+00 -4.2492352411294138e-03 -9.2726052171624399e-02 0.0000000000000000e+00 0.0000000000000000e+00 0.0000000000000000e+00 0.0000000000000000e+00  -8.6401183458574282e-02 -4.1841034286904354e-03 0.0000000000000000e+00 -4.1841034286904354e-03 -9.2784138218705292e-02 0.0000000000000000e+00 0.0000000000000000e+00 0.0000000000000000e+00 0.0000000000000000e+00  -8.6243814467264937e-02 -4.2103692462166619e-03 0.0000000000000000e+00 -4.2103692462166619e-03 -9.2741965276401911e-02 0.0000000000000000e+00 0.0000000000000000e+00 0.0000000000000000e+00 0.0000000000000000e+00  -8.6067000000265431e-02 -4.3141267485314119e-03 0.0000000000000000e+00 -4.3141267485314119e-03 -9.2632200280426721e-02 0.0000000000000000e+00 0.0000000000000000e+00 0.0000000000000000e+00 0.0000000000000000e+00  -8.5884189099781585e-02 -4.4674402508789596e-03 0.0000000000000000e+00 -4.4674402508789596e-03 -9.2449202032318448e-02 0.0000000000000000e+00 0.0000000000000000e+00 0.0000000000000000e+00 0.0000000000000000e+00  -8.5709525926066454e-02 -4.6560251951210819e-03 0.0000000000000000e+00 -4.6560251951210819e-03 -9.2182916416067823e-02 0.0000000000000000e+00 0.0000000000000000e+00 0.0000000000000000e+00 0.0000000000000000e+00  -8.5559810698739053e-02 -4.8768101253973987e-03 0.0000000000000000e+00 -4.8768101253973987e-03 -9.1817609091707622e-02 0.0000000000000000e+00 0.0000000000000000e+00 0.0000000000000000e+00 0.0000000000000000e+00  -8.5448281563441114e-02 -5.1426376505228763e-03 0.0000000000000000e+00 -5.1426376505228763e-03 -9.1341605276138757e-02 0.0000000000000000e+00 0.0000000000000000e+00 0.0000000000000000e+00 0.0000000000000000e+00  -8.5376472757659916e-02 -5.4769790790515499e-03 0.0000000000000000e+00 -5.4769790790515499e-03 -9.0757644030476342e-02 0.0000000000000000e+00 0.0000000000000000e+00 0.0000000000000000e+00 0.0000000000000000e+00  -8.5329881525408408e-02 -5.9043842706407524e-03 0.0000000000000000e+00 -5.9043842706407524e-03 -9.0088452668192237e-02 0.0000000000000000e+00 0.0000000000000000e+00 0.0000000000000000e+00 0.0000000000000000e+00  -8.5278539250168928e-02 -6.4386430104122483e-03 0.0000000000000000e+00 -6.4386430104122483e-03 -8.9375586417253489e-02 0.0000000000000000e+00 0.0000000000000000e+00 0.0000000000000000e+00 0.0000000000000000e+00  -8.5183480626823821e-02 -7.0731172528234994e-03 0.0000000000000000e+00 -7.0731172528234994e-03 -8.8670689709950040e-02 0.0000000000000000e+00 0.0000000000000000e+00 0.0000000000000000e+00 0.0000000000000000e+00  -8.5006843216167569e-02 -7.7770458625595999e-03 0.0000000000000000e+00 -7.7770458625595999e-03 -8.8022035224263259e-02 0.0000000000000000e+00 0.0000000000000000e+00 0.0000000000000000e+00 0.0000000000000000e+00  -8.4721780232469152e-02 -8.4994319632938874e-03 0.0000000000000000e+00 -8.4994319632938874e-03 -8.7461200891534321e-02 0.0000000000000000e+00 0.0000000000000000e+00 0.0000000000000000e+00 0.0000000000000000e+00  -8.4318094446070635e-02 -9.1791690894560060e-03 0.0000000000000000e+00 -9.1791690894560060e-03 -8.6995017984513548e-02 0.0000000000000000e+00 0.0000000000000000e+00 0.0000000000000000e+00 0.0000000000000000e+00  -8.3800889768024342e-02 -9.7575610614146421e-03 0.0000000000000000e+00 -9.7575610614146421e-03 -8.6606117129714985e-02 0.0000000000000000e+00 0.0000000000000000e+00 0.0000000000000000e+00 0.0000000000000000e+00  -8.3181892839432878e-02 -1.0188305135783315e-02 0.0000000000000000e+00 -1.0188305135783315e-02 -8.6262313170777885e-02 0.0000000000000000e+00 0.0000000000000000e+00 0.0000000000000000e+00 0.0000000000000000e+00  -8.2465550101735272e-02 -1.0440661207500529e-02 0.0000000000000000e+00 -1.0440661207500529e-02 -8.5931833625089188e-02 0.0000000000000000e+00 0.0000000000000000e+00 0.0000000000000000e+00 0.0000000000000000e+00  -8.1633687319179971e-02 -1.0493705783704113e-02 0.0000000000000000e+00 -1.0493705783704113e-02 -8.5599145779091015e-02 0.0000000000000000e+00 0.0000000000000000e+00 0.0000000000000000e+00 0.0000000000000000e+00  -8.0632615470788066e-02 -1.0322481347639361e-02 0.0000000000000000e+00 -1.0322481347639361e-02 -8.5275820011807640e-02 0.0000000000000000e+00 0.0000000000000000e+00 0.0000000000000000e+00 0.0000000000000000e+00  -7.9365256417280539e-02 -9.8790611489425560e-03 0.0000000000000000e+00 -9.8790611489425560e-03 -8.5002311657003074e-02 0.0000000000000000e+00 0.0000000000000000e+00 0.0000000000000000e+00 0.0000000000000000e+00  -7.7687849082117705e-02 -9.0727806983122890e-03 0.0000000000000000e+00 -9.0727806983122890e-03 -8.4839704295202864e-02 0.0000000000000000e+00 0.0000000000000000e+00 0.0000000000000000e+00 0.0000000000000000e+00  -7.5409454139568760e-02 -7.7501536938348334e-03 0.0000000000000000e+00 -7.7501536938348334e-03 -8.4851827877405001e-02 0.0000000000000000e+00 0.0000000000000000e+00 0.0000000000000000e+00 0.0000000000000000e+00  -7.2291176663393880e-02 -5.6804032043666457e-03 0.0000000000000000e+00 -5.6804032043666457e-03 -8.5078433659273339e-02 0.0000000000000000e+00 0.0000000000000000e+00 0.0000000000000000e+00 0.0000000000000000e+00  -6.8033379862406082e-02 -2.5238085770542453e-03 0.0000000000000000e+00 -2.5238085770542453e-03 -8.5507498019333550e-02 0.0000000000000000e+00 0.0000000000000000e+00 0.0000000000000000e+00 0.0000000000000000e+00  -6.2300765295036913e-02 2.1774607471391027e-03 0.0000000000000000e+00 2.1774607471391027e-03 -8.5984710522425192e-02 0.0000000000000000e+00 0.0000000000000000e+00 0.0000000000000000e+00 0.0000000000000000e+00  -5.4590553968376219e-02 9.0703559087509308e-03 0.0000000000000000e+00 9.0703559087509308e-03 -8.6266581218263153e-02 0.0000000000000000e+00 0.0000000000000000e+00 0.0000000000000000e+00 0.0000000000000000e+00  -4.4577940343455184e-02 1.9140848099909472e-02 0.0000000000000000e+00 1.9140848099909472e-02 -8.5432542557994345e-02 0.0000000000000000e+00 0.0000000000000000e+00 0.0000000000000000e+00 0.0000000000000000e+00  -3.1978895740354958e-02 3.3052073081470131e-02 0.0000000000000000e+00 3.3052073081470131e-02 -8.2030599040376712e-02 0.0000000000000000e+00 0.0000000000000000e+00 0.0000000000000000e+00 0.0000000000000000e+00  -1.2505575435309450e-02 5.2643649431896776e-02 0.0000000000000000e+00 5.2643649431896776e-02 -7.8332274053215648e-02 0.0000000000000000e+00 0.0000000000000000e+00 0.0000000000000000e+00 0.0000000000000000e+00  -2.9617899549192247e-03 8.5034048224611317e-02 0.0000000000000000e+00 8.5034048224611317e-02 -4.3813402725149685e-02 0.0000000000000000e+00 0.0000000000000000e+00 0.0000000000000000e+00 0.0000000000000000e+00  4.6538021737067732e-02 8.2109971468632637e-02 0.0000000000000000e+00 8.2109971468632637e-02 -8.6092159329912071e-02 0.0000000000000000e+00 0.0000000000000000e+00 0.0000000000000000e+00 0.0000000000000000e+00  -5.0478442386846694e-03 1.2290860078446868e-01 0.0000000000000000e+00 1.2290860078446868e-01 -6.3298584801190980e-02 0.0000000000000000e+00 0.0000000000000000e+00 0.0000000000000000e+00 0.0000000000000000e+00  -2.0819423359216260e-01 1.6115950505358051e-01 0.0000000000000000e+00 1.6115950505358051e-01 -1.8774524843137586e-01 0.0000000000000000e+00 0.0000000000000000e+00 0.0000000000000000e+00 0.0000000000000000e+00  1.1492650495820911e-01 4.4138208378000140e-03 0.0000000000000000e+00 4.4138208378000148e-03 1.2267254530151572e-01 0.0000000000000000e+00 0.0000000000000000e+00 0.0000000000000000e+00 0.0000000000000000e+00  -6.3857635847653724e-03 -3.1971683849145408e-02 0.0000000000000000e+00 -3.1971683849145421e-02 -3.4232242752688165e-02 0.0000000000000000e+00 0.0000000000000000e+00 0.0000000000000000e+00 0.0000000000000000e+00  1.2662202158059782e-01 7.5652866869641289e-02 0.0000000000000000e+00 7.5652866869641289e-02 9.8490951995295617e-02 0.0000000000000000e+00 0.0000000000000000e+00 0.0000000000000000e+00 0.0000000000000000e+00  -1.9245783364122843e-01 -2.0617505232444852e-01 0.0000000000000000e+00 -2.0617505232444852e-01 -1.4748981900248695e-01 0.0000000000000000e+00 0.0000000000000000e+00 0.0000000000000000e+00 0.0000000000000000e+00  -3.3368501486709660e-02 -1.0108204774188309e-01 0.0000000000000000e+00 -1.0108204774188309e-01 -7.2473142143659228e-02 0.0000000000000000e+00 0.0000000000000000e+00 0.0000000000000000e+00 0.0000000000000000e+00  6.5708836901799211e-02 -7.0547907430033530e-02 0.0000000000000000e+00 -7.0547907430033530e-02 -1.0359637167864046e-01 0.0000000000000000e+00 0.0000000000000000e+00 0.0000000000000000e+00 0.0000000000000000e+00  -6.4943053186533543e-03 -7.6452797689204530e-02 0.0000000000000000e+00 -7.6452797689204530e-02 -5.1519689653225807e-02 0.0000000000000000e+00 0.0000000000000000e+00 0.0000000000000000e+00 0.0000000000000000e+00  -1.5277513980265325e-02 -4.4215933904500564e-02 0.0000000000000000e+00 -4.4215933904500564e-02 -8.5536877191429675e-02 0.0000000000000000e+00 0.0000000000000000e+00 0.0000000000000000e+00 0.0000000000000000e+00  -3.5815022277128260e-02 -2.6034651812745259e-02 0.0000000000000000e+00 -2.6034651812745259e-02 -8.6499650354709010e-02 0.0000000000000000e+00 0.0000000000000000e+00 0.0000000000000000e+00 0.0000000000000000e+00  -4.8173591900822259e-02 -1.3269159460332185e-02 0.0000000000000000e+00 -1.3269159460332185e-02 -8.8549624596010665e-02 0.0000000000000000e+00 0.0000000000000000e+00 0.0000000000000000e+00 0.0000000000000000e+00  -5.7903645769438697e-02 -4.3406541892153224e-03 0.0000000000000000e+00 -4.3406541892153224e-03 -8.8352866307243733e-02 0.0000000000000000e+00 0.0000000000000000e+00 0.0000000000000000e+00 0.0000000000000000e+00  -6.5204277488235929e-02 1.5764682550137934e-03 0.0000000000000000e+00 1.5764682550137934e-03 -8.7436711993625654e-02 0.0000000000000000e+00 0.0000000000000000e+00 0.0000000000000000e+00 0.0000000000000000e+00  -7.0516473138821326e-02 5.4569425426312101e-03 0.0000000000000000e+00 5.4569425426312101e-03 -8.6564635025001738e-02 0.0000000000000000e+00 0.0000000000000000e+00 0.0000000000000000e+00 0.0000000000000000e+00  -7.4372864767082381e-02 7.9464700219091487e-03 0.0000000000000000e+00 7.9464700219091487e-03 -8.5905602594343822e-02 0.0000000000000000e+00 0.0000000000000000e+00 0.0000000000000000e+00 0.0000000000000000e+00  -7.7132438443357945e-02 9.4830805650550701e-03 0.0000000000000000e+00 9.4830805650550701e-03 -8.5548500491102270e-02 0.0000000000000000e+00 0.0000000000000000e+00 0.0000000000000000e+00 0.0000000000000000e+00  -7.9102782304115035e-02 1.0385035791948348e-02 0.0000000000000000e+00 1.0385035791948348e-02 -8.5462899977450157e-02 0.0000000000000000e+00 0.0000000000000000e+00 0.0000000000000000e+00 0.0000000000000000e+00  -8.0523773558385012e-02 1.0861701887307599e-02 0.0000000000000000e+00 1.0861701887307599e-02 -8.5580773359910919e-02 0.0000000000000000e+00 0.0000000000000000e+00 0.0000000000000000e+00 0.0000000000000000e+00  -8.1582651765294834e-02 1.1047500343291172e-02 0.0000000000000000e+00 1.1047500343291172e-02 -8.5821184472432727e-02 0.0000000000000000e+00 0.0000000000000000e+00 0.0000000000000000e+00 0.0000000000000000e+00  -8.2417228376578736e-02 1.1017074923240543e-02 0.0000000000000000e+00 1.1017074923240543e-02 -8.6113534616566970e-02 0.0000000000000000e+00 0.0000000000000000e+00 0.0000000000000000e+00 0.0000000000000000e+00  -8.3117811221694884e-02 1.0805463403128301e-02 0.0000000000000000e+00 1.0805463403128301e-02 -8.6412873640209734e-02 0.0000000000000000e+00 0.0000000000000000e+00 0.0000000000000000e+00 0.0000000000000000e+00  -8.3731428851653592e-02 1.0427582937555621e-02 0.0000000000000000e+00 1.0427582937555621e-02 -8.6706205772255684e-02 0.0000000000000000e+00 0.0000000000000000e+00 0.0000000000000000e+00 0.0000000000000000e+00  -8.4270215704915524e-02 9.8967175812788247e-03 0.0000000000000000e+00 9.8967175812788247e-03 -8.7009355444443312e-02 0.0000000000000000e+00 0.0000000000000000e+00 0.0000000000000000e+00 0.0000000000000000e+00  -8.4724535727956643e-02 9.2378930913005839e-03 0.0000000000000000e+00 9.2378930913005839e-03 -8.7355212543030428e-02 0.0000000000000000e+00 0.0000000000000000e+00 0.0000000000000000e+00 0.0000000000000000e+00  -8.5078371314489587e-02 8.4931899705646199e-03 0.0000000000000000e+00 8.4931899705646199e-03 -8.7777354462869411e-02 0.0000000000000000e+00 0.0000000000000000e+00 0.0000000000000000e+00 0.0000000000000000e+00  -8.5323174469093779e-02 7.7182158010412529e-03 0.0000000000000000e+00 7.7182158010412529e-03 -8.8294498096081850e-02 0.0000000000000000e+00 0.0000000000000000e+00 0.0000000000000000e+00 0.0000000000000000e+00  -8.5466450967606578e-02 6.9718397281200344e-03 0.0000000000000000e+00 6.9718397281200344e-03 -8.8900940483856300e-02 0.0000000000000000e+00 0.0000000000000000e+00 0.0000000000000000e+00 0.0000000000000000e+00  -8.5533006911117621e-02 6.3034517875316196e-03 0.0000000000000000e+00 6.3034517875316196e-03 -8.9565924210070411e-02 0.0000000000000000e+00 0.0000000000000000e+00 0.0000000000000000e+00 0.0000000000000000e+00  -8.5559219982370371e-02 5.7426585389996586e-03 0.0000000000000000e+00 5.7426585389996586e-03 -9.0241653161760166e-02 0.0000000000000000e+00 0.0000000000000000e+00 0.0000000000000000e+00 0.0000000000000000e+00  -8.5583039423258386e-02 5.2952467851057703e-03 0.0000000000000000e+00 5.2952467851057703e-03 -9.0876617232183751e-02 0.0000000000000000e+00 0.0000000000000000e+00 0.0000000000000000e+00 0.0000000000000000e+00  -8.5633803976713663e-02 4.9467556056772078e-03 0.0000000000000000e+00 4.9467556056772078e-03 -9.1429085125678128e-02 0.0000000000000000e+00 0.0000000000000000e+00 0.0000000000000000e+00 0.0000000000000000e+00  -8.5725696202185106e-02 4.6720465639221156e-03 0.0000000000000000e+00 4.6720465639221156e-03 -9.1875895689208065e-02 0.0000000000000000e+00 0.0000000000000000e+00 0.0000000000000000e+00 0.0000000000000000e+00  -8.5857107603846433e-02 4.4470686381902569e-03 0.0000000000000000e+00 4.4470686381902569e-03 -9.2213678803568261e-02 0.0000000000000000e+00 0.0000000000000000e+00 0.0000000000000000e+00 0.0000000000000000e+00  -8.6014923358261525e-02 4.2583351221556348e-03 0.0000000000000000e+00 4.2583351221556348e-03 -9.2453344847187854e-02 0.0000000000000000e+00 0.0000000000000000e+00 0.0000000000000000e+00 0.0000000000000000e+00  -8.6182610011389299e-02 4.1081475061236529e-03 0.0000000000000000e+00 4.1081475061236529e-03 -9.2609819672225063e-02 0.0000000000000000e+00 0.0000000000000000e+00 0.0000000000000000e+00 0.0000000000000000e+00  -8.6346357927124001e-02 4.0097669426391348e-03 0.0000000000000000e+00 4.0097669426391348e-03 -9.2692440698268222e-02 0.0000000000000000e+00 0.0000000000000000e+00 0.0000000000000000e+00 0.0000000000000000e+00  -8.6492936913920890e-02 3.9899327162329279e-03 0.0000000000000000e+00 3.9899327162329279e-03 -9.2706434194726545e-02 0.0000000000000000e+00 0.0000000000000000e+00 0.0000000000000000e+00 0.0000000000000000e+00  -8.6630957611975160e-02 4.0608337226941951e-03 0.0000000000000000e+00 4.0608337226941951e-03 -9.2619499843349579e-02 0.0000000000000000e+00 0.0000000000000000e+00 0.0000000000000000e+00 0.0000000000000000e+00  -8.6652044356969410e-02 4.2492760501554186e-03 0.0000000000000000e+00 4.2492760501554186e-03 -9.2527457657560958e-02 0.0000000000000000e+00 0.0000000000000000e+00 0.0000000000000000e+00 0.0000000000000000e+00  -8.6796285962969677e-02 4.6887251040512385e-03 0.0000000000000000e+00 4.6887251040512385e-03 -9.2030763156465509e-02 0.0000000000000000e+00 0.0000000000000000e+00 0.0000000000000000e+00 0.0000000000000000e+00  -8.6362382026414497e-02 4.7660413617333919e-03 0.0000000000000000e+00 4.7660413617333919e-03 -9.2035319213835648e-02 0.0000000000000000e+00 0.0000000000000000e+00 0.0000000000000000e+00 0.0000000000000000e+00  -8.5728139422745528e-02 7.0155607805079548e-03 0.0000000000000000e+00 7.0155607805079548e-03 -9.1303276299142588e-02 0.0000000000000000e+00 0.0000000000000000e+00 0.0000000000000000e+00 0.0000000000000000e+00  -9.0271599732436023e-02 4.7720464363320697e-03 0.0000000000000000e+00 4.7720464363320697e-03 -8.1346970938972571e-02 0.0000000000000000e+00 0.0000000000000000e+00 0.0000000000000000e+00 0.0000000000000000e+00  -4.1501509244426207e-02 -7.4584454868704252e-03 0.0000000000000000e+00 -7.4584454868704252e-03 -1.4071190017262869e-01 0.0000000000000000e+00 0.0000000000000000e+00 0.0000000000000000e+00 0.0000000000000000e+00  -2.1372980160169065e-02 3.4309243301850520e-02 0.0000000000000000e+00 3.4309243301850520e-02 2.8396402692577101e-02 0.0000000000000000e+00 0.0000000000000000e+00 0.0000000000000000e+00 0.0000000000000000e+00  -4.4378516252252914e-01 2.1888605881117618e-02 0.0000000000000000e+00 2.1888605881117618e-02 -2.8153974971375684e-01 0.0000000000000000e+00 0.0000000000000000e+00 0.0000000000000000e+00 0.0000000000000000e+00  6.5504582936659811e-02 -1.8547230291846042e-02 0.0000000000000000e+00 -1.8547230291846042e-02 1.1395941865218988e-02 0.0000000000000000e+00 0.0000000000000000e+00 0.0000000000000000e+00 0.0000000000000000e+00  5.1357182218413153e-03 3.6355514490501294e-03 0.0000000000000000e+00 3.6355514490501294e-03 1.3277441965803194e-03 0.0000000000000000e+00 0.0000000000000000e+00 0.0000000000000000e+00 0.0000000000000000e+00  7.8893052424319279e-03 -5.8161370833333039e-04 0.0000000000000000e+00 -5.8161370833333039e-04 7.8773548382815722e-03 0.0000000000000000e+00 0.0000000000000000e+00 0.0000000000000000e+00 0.0000000000000000e+00  7.6978368372073421e-03 3.4011111712387818e-05 0.0000000000000000e+00 3.4011111712387818e-05 7.6506252527382499e-03 0.0000000000000000e+00 0.0000000000000000e+00 0.0000000000000000e+00 0.0000000000000000e+00  7.6827670164307249e-03 1.0599436841167404e-05 0.0000000000000000e+00 1.0599436841167404e-05 7.6846763343116700e-03 0.0000000000000000e+00 0.0000000000000000e+00 0.0000000000000000e+00 0.0000000000000000e+00  7.6831983395285594e-03 3.8391505469644635e-05 0.0000000000000000e+00 3.8391505469644635e-05 7.6882143374455286e-03 0.0000000000000000e+00 0.0000000000000000e+00 0.0000000000000000e+00 0.0000000000000000e+00  7.6844346165104967e-03 6.4327063583028066e-05 0.0000000000000000e+00 6.4327063583028066e-05 7.6851168680619813e-03 0.0000000000000000e+00 0.0000000000000000e+00 0.0000000000000000e+00 0.0000000000000000e+00  7.7219720758403979e-03 -6.1050651835037328e-05 0.0000000000000000e+00 -6.1050651835037328e-05 7.7225593827042679e-03 0.0000000000000000e+00 0.0000000000000000e+00 0.0000000000000000e+00 0.0000000000000000e+00  7.7209239501630934e-03 -3.7089080369257700e-05 0.0000000000000000e+00 -3.7089080369257700e-05 7.7268354574337580e-03 0.0000000000000000e+00 0.0000000000000000e+00 0.0000000000000000e+00 0.0000000000000000e+00  7.7191061082452286e-03 -1.8428418258056787e-05 0.0000000000000000e+00 -1.8428418258056787e-05 7.7201336808990521e-03 0.0000000000000000e+00 0.0000000000000000e+00 0.0000000000000000e+00 0.0000000000000000e+00  7.7557222790758974e-03 2.5705871828613665e-05 0.0000000000000000e+00 2.5705871828613665e-05 7.7349673967101861e-03 0.0000000000000000e+00 0.0000000000000000e+00 0.0000000000000000e+00 0.0000000000000000e+00  7.4640738685245083e-03 -4.0035311386206905e-05 0.0000000000000000e+00 -4.0035311386206905e-05 7.4771072788152957e-03 0.0000000000000000e+00 0.0000000000000000e+00 0.0000000000000000e+00 0.0000000000000000e+00  1.0262904201582547e-02 -7.1693561397219517e-04 0.0000000000000000e+00 -7.1693561397219517e-04 7.7778656518846887e-03 0.0000000000000000e+00 0.0000000000000000e+00 0.0000000000000000e+00 0.0000000000000000e+00  4.1806454284898523e-03 1.8537551295871237e-02 0.0000000000000000e+00 1.8537551295871237e-02 3.7217502421524671e-03 0.0000000000000000e+00 0.0000000000000000e+00 0.0000000000000000e+00 0.0000000000000000e+00  8.4912871284684964e-03 -9.9020363410858472e-02 0.0000000000000000e+00 -9.9020363410858472e-02 -9.9838791861920698e-02 0.0000000000000000e+00 0.0000000000000000e+00 0.0000000000000000e+00 0.0000000000000000e+00  -4.3639580166834796e-01 6.1701374018024641e-02 0.0000000000000000e+00 6.1701374018024641e-02 -1.4225373640147793e-01 0.0000000000000000e+00 0.0000000000000000e+00 0.0000000000000000e+00 0.0000000000000000e+00  1.2580324425004131e-02 9.5414368025909888e-03 0.0000000000000000e+00 9.5414368025909888e-03 -8.8993432528711267e-02 0.0000000000000000e+00 0.0000000000000000e+00 0.0000000000000000e+00 0.0000000000000000e+00  -8.6695988629459639e-02 -1.7995952963584805e-02 0.0000000000000000e+00 -1.7995952963584805e-02 -8.9091885963136483e-02 0.0000000000000000e+00 0.0000000000000000e+00 0.0000000000000000e+00 0.0000000000000000e+00  -8.3615570392684621e-02 -2.0265189989142843e-03 0.0000000000000000e+00 -2.0265189989142843e-03 -9.6722052101716471e-02 0.0000000000000000e+00 0.0000000000000000e+00 0.0000000000000000e+00 0.0000000000000000e+00  -8.8432957067535164e-02 -5.9891105942564372e-03 0.0000000000000000e+00 -5.9891105942564372e-03 -9.0545579764730114e-02 0.0000000000000000e+00 0.0000000000000000e+00 0.0000000000000000e+00 0.0000000000000000e+00  -8.7007883658361512e-02 -4.7836056350681454e-03 0.0000000000000000e+00 -4.7836056350681454e-03 -9.3149658713825967e-02 0.0000000000000000e+00 0.0000000000000000e+00 0.0000000000000000e+00 0.0000000000000000e+00  -8.7521137063898108e-02 -4.6535529501940233e-03 0.0000000000000000e+00 -4.6535529501940233e-03 -9.2525620471783185e-02 0.0000000000000000e+00 0.0000000000000000e+00 0.0000000000000000e+00 0.0000000000000000e+00  -8.7288086345046076e-02 -4.5912063184086341e-03 0.0000000000000000e+00 -4.5912063184086341e-03 -9.2700282632287315e-02 0.0000000000000000e+00 0.0000000000000000e+00 0.0000000000000000e+00 0.0000000000000000e+00  -8.7171580037771035e-02 -4.5300092079601255e-03 0.0000000000000000e+00 -4.5300092079601255e-03 -9.2598689150656555e-02 0.0000000000000000e+00 0.0000000000000000e+00 0.0000000000000000e+00 0.0000000000000000e+00  -8.7010067942586006e-02 -4.5812169166086240e-03 0.0000000000000000e+00 -4.5812169166086240e-03 -9.2478618579893090e-02 0.0000000000000000e+00 0.0000000000000000e+00 0.0000000000000000e+00 0.0000000000000000e+00  -8.6838297687922478e-02 -4.6787959440480510e-03 0.0000000000000000e+00 -4.6787959440480510e-03 -9.2307037553142207e-02 0.0000000000000000e+00 0.0000000000000000e+00 0.0000000000000000e+00 0.0000000000000000e+00  -8.6663256224325039e-02 -4.8136691433204662e-03 0.0000000000000000e+00 -4.8136691433204662e-03 -9.2088462129093621e-02 0.0000000000000000e+00 0.0000000000000000e+00 0.0000000000000000e+00 0.0000000000000000e+00  -8.6505353477020680e-02 -4.9576301025402525e-03 0.0000000000000000e+00 -4.9576301025402525e-03 -9.1800797114808111e-02 0.0000000000000000e+00 0.0000000000000000e+00 0.0000000000000000e+00 0.0000000000000000e+00  -8.6397892884709379e-02 -5.1098745024314180e-03 0.0000000000000000e+00 -5.1098745024314180e-03 -9.1406765405592158e-02 0.0000000000000000e+00 0.0000000000000000e+00 0.0000000000000000e+00 0.0000000000000000e+00  -8.6367364291351820e-02 -5.2934518544029557e-03 0.0000000000000000e+00 -5.2934518544029557e-03 -9.0876419648227375e-02 0.0000000000000000e+00 0.0000000000000000e+00 0.0000000000000000e+00 0.0000000000000000e+00  -8.6423524757072309e-02 -5.5509981381595451e-03 0.0000000000000000e+00 -5.5509981381595451e-03 -9.0202491593935313e-02 0.0000000000000000e+00 0.0000000000000000e+00 0.0000000000000000e+00 0.0000000000000000e+00  -8.6549436314465225e-02 -5.9292335236931729e-03 0.0000000000000000e+00 -5.9292335236931729e-03 -8.9412715412200611e-02 0.0000000000000000e+00 0.0000000000000000e+00 0.0000000000000000e+00 0.0000000000000000e+00  -8.6702262721105428e-02 -6.4592414885181644e-03 0.0000000000000000e+00 -6.4592414885181644e-03 -8.8568584126776623e-02 0.0000000000000000e+00 0.0000000000000000e+00 0.0000000000000000e+00 0.0000000000000000e+00  -8.6823749446442972e-02 -7.1400132864472858e-03 0.0000000000000000e+00 -7.1400132864472858e-03 -8.7751138244919286e-02 0.0000000000000000e+00 0.0000000000000000e+00 0.0000000000000000e+00 0.0000000000000000e+00  -8.6857545996459451e-02 -7.9320655511389473e-03 0.0000000000000000e+00 -7.9320655511389473e-03 -8.7037914528575885e-02 0.0000000000000000e+00 0.0000000000000000e+00 0.0000000000000000e+00 0.0000000000000000e+00  -8.6766597228240830e-02 -8.7642878116088018e-03 0.0000000000000000e+00 -8.7642878116088018e-03 -8.6479751379543682e-02 0.0000000000000000e+00 0.0000000000000000e+00 0.0000000000000000e+00 0.0000000000000000e+00  -8.6543633932406383e-02 -9.5517275911198816e-03 0.0000000000000000e+00 -9.5517275911198816e-03 -8.6086493785173759e-02 0.0000000000000000e+00 0.0000000000000000e+00 0.0000000000000000e+00 0.0000000000000000e+00  -8.6210311304745157e-02 -1.0217832757973793e-02 0.0000000000000000e+00 -1.0217832757973793e-02 -8.5827364756826313e-02 0.0000000000000000e+00 0.0000000000000000e+00 0.0000000000000000e+00 0.0000000000000000e+00  -8.5804455472523383e-02 -1.0712939593093463e-02 0.0000000000000000e+00 -1.0712939593093463e-02 -8.5646528750863607e-02 0.0000000000000000e+00 0.0000000000000000e+00 0.0000000000000000e+00 0.0000000000000000e+00  -8.5358935335095462e-02 -1.1021855037122054e-02 0.0000000000000000e+00 -1.1021855037122054e-02 -8.5488904557129111e-02 0.0000000000000000e+00 0.0000000000000000e+00 0.0000000000000000e+00 0.0000000000000000e+00  -8.4878600351044151e-02 -1.1157057236766414e-02 0.0000000000000000e+00 -1.1157057236766414e-02 -8.5327381032203289e-02 0.0000000000000000e+00 0.0000000000000000e+00 0.0000000000000000e+00 0.0000000000000000e+00  -8.4322283002664061e-02 -1.1139262221813393e-02 0.0000000000000000e+00 -1.1139262221813393e-02 -8.5181855341474461e-02 0.0000000000000000e+00 0.0000000000000000e+00 0.0000000000000000e+00 0.0000000000000000e+00  -8.3593407809234285e-02 -1.0971672093122010e-02 0.0000000000000000e+00 -1.0971672093122010e-02 -8.5124346185762020e-02 0.0000000000000000e+00 0.0000000000000000e+00 0.0000000000000000e+00 0.0000000000000000e+00  -8.2540326487351962e-02 -1.0614149901251311e-02 0.0000000000000000e+00 -1.0614149901251311e-02 -8.5267887093749190e-02 0.0000000000000000e+00 0.0000000000000000e+00 0.0000000000000000e+00 0.0000000000000000e+00  -8.0957622634565296e-02 -9.9674277528795999e-03 0.0000000000000000e+00 -9.9674277528795999e-03 -8.5746701679340911e-02 0.0000000000000000e+00 0.0000000000000000e+00 0.0000000000000000e+00 0.0000000000000000e+00  -7.8587472285187546e-02 -8.8478843765548518e-03 0.0000000000000000e+00 -8.8478843765548518e-03 -8.6687568391174447e-02 0.0000000000000000e+00 0.0000000000000000e+00 0.0000000000000000e+00 0.0000000000000000e+00  -7.5117517693159677e-02 -7.0145843678981737e-03 0.0000000000000000e+00 -7.0145843678981737e-03 -8.8170831116094528e-02 0.0000000000000000e+00 0.0000000000000000e+00 0.0000000000000000e+00 0.0000000000000000e+00  -7.0081575077284589e-02 -4.0403624157256688e-03 0.0000000000000000e+00 -4.0403624157256688e-03 -9.0269197657079275e-02 0.0000000000000000e+00 0.0000000000000000e+00 0.0000000000000000e+00 0.0000000000000000e+00  -6.3171598466706780e-02 5.0482655362369853e-04 0.0000000000000000e+00 5.0482655362369853e-04 -9.2592637748993400e-02 0.0000000000000000e+00 0.0000000000000000e+00 0.0000000000000000e+00 0.0000000000000000e+00  -5.2770381725504530e-02 7.3759563547143225e-03 0.0000000000000000e+00 7.3759563547143225e-03 -9.5788535402594507e-02 0.0000000000000000e+00 0.0000000000000000e+00 0.0000000000000000e+00 0.0000000000000000e+00  -4.0460002660325955e-02 1.8893880025666054e-02 0.0000000000000000e+00 1.8893880025666054e-02 -9.5570819341897123e-02 0.0000000000000000e+00 0.0000000000000000e+00 0.0000000000000000e+00 0.0000000000000000e+00  -2.1081668941021550e-02 3.0118783070771250e-02 0.0000000000000000e+00 3.0118783070771250e-02 -9.4155078348440543e-02 0.0000000000000000e+00 0.0000000000000000e+00 0.0000000000000000e+00 0.0000000000000000e+00  1.1951625773339185e-02 5.0220095727311086e-02 0.0000000000000000e+00 5.0220095727311086e-02 -1.1076290401706775e-01 0.0000000000000000e+00 0.0000000000000000e+00 0.0000000000000000e+00 0.0000000000000000e+00  1.4140240011467375e-01 8.1480705661709729e-02 0.0000000000000000e+00 8.1480705661709729e-02 -6.5188825447343654e-02 0.0000000000000000e+00 0.0000000000000000e+00 0.0000000000000000e+00 0.0000000000000000e+00  -3.5917190154796769e-01 1.7919382351551327e-02 0.0000000000000000e+00 1.7919382351551327e-02 -2.2978825926818802e-01 0.0000000000000000e+00 0.0000000000000000e+00 0.0000000000000000e+00 0.0000000000000000e+00  1.1267460169506766e-01 5.1358736814826805e-02 0.0000000000000000e+00 5.1358736814826805e-02 4.3871498505767777e-02 0.0000000000000000e+00 0.0000000000000000e+00 0.0000000000000000e+00 0.0000000000000000e+00  -1.7696389979775042e-02 -1.3530690445897947e-02 0.0000000000000000e+00 -1.3530690445897947e-02 -1.6472046775612405e-02 0.0000000000000000e+00 0.0000000000000000e+00 0.0000000000000000e+00 0.0000000000000000e+00  1.3104014320696392e-02 7.0571554384059260e-03 0.0000000000000000e+00 7.0571554384059286e-03 1.3522296415422481e-02 0.0000000000000000e+00 0.0000000000000000e+00 0.0000000000000000e+00 0.0000000000000000e+00  -2.5394882264810025e-02 -7.3657539604472886e-03 0.0000000000000000e+00 -7.3657539604472886e-03 -1.8904795352060112e-02 0.0000000000000000e+00 0.0000000000000000e+00 0.0000000000000000e+00 0.0000000000000000e+00  1.2074236445265109e-01 -1.2263486927583292e-02 0.0000000000000000e+00 -1.2263486927583292e-02 3.7169155707388414e-02 0.0000000000000000e+00 0.0000000000000000e+00 0.0000000000000000e+00 0.0000000000000000e+00  -4.0961284395009412e-01 -2.5224849122969625e-02 0.0000000000000000e+00 -2.5224849122969625e-02 -2.4499852094008936e-01 0.0000000000000000e+00 0.0000000000000000e+00 0.0000000000000000e+00 0.0000000000000000e+00  1.4732127253823024e-01 -7.9595759530066021e-02 0.0000000000000000e+00 -7.9595759530066021e-02 -5.1759261392455097e-02 0.0000000000000000e+00 0.0000000000000000e+00 0.0000000000000000e+00 0.0000000000000000e+00  1.3178152032118343e-02 -3.7988617129078521e-02 0.0000000000000000e+00 -3.7988617129078521e-02 -1.2544378209130444e-01 0.0000000000000000e+00 0.0000000000000000e+00 0.0000000000000000e+00 0.0000000000000000e+00  -2.8154290146550402e-02 -2.2015658893933462e-02 0.0000000000000000e+00 -2.2015658893933462e-02 -9.8526161000279042e-02 0.0000000000000000e+00 0.0000000000000000e+00 0.0000000000000000e+00 0.0000000000000000e+00  -4.6180657652173870e-02 -1.2013424702460610e-02 0.0000000000000000e+00 -1.2013424702460610e-02 -9.8972446383803855e-02 0.0000000000000000e+00 0.0000000000000000e+00 0.0000000000000000e+00 0.0000000000000000e+00  -5.7973160799298804e-02 -2.0447682152312991e-03 0.0000000000000000e+00 -2.0447682152312991e-03 -9.7586317532819683e-02 0.0000000000000000e+00 0.0000000000000000e+00 0.0000000000000000e+00 0.0000000000000000e+00  -6.7552283285251438e-02 3.6612388350470912e-03 0.0000000000000000e+00 3.6612388350470912e-03 -9.3625233848624770e-02 0.0000000000000000e+00 0.0000000000000000e+00 0.0000000000000000e+00 0.0000000000000000e+00  -7.3735663518879488e-02 7.2188753015962918e-03 0.0000000000000000e+00 7.2188753015962918e-03 -9.0830850461405849e-02 0.0000000000000000e+00 0.0000000000000000e+00 0.0000000000000000e+00 0.0000000000000000e+00  -7.8101628094895653e-02 9.4190595700121161e-03 0.0000000000000000e+00 9.4190595700121161e-03 -8.8517686586682451e-02 0.0000000000000000e+00 0.0000000000000000e+00 0.0000000000000000e+00 0.0000000000000000e+00  -8.0996332026454204e-02 1.0649013213177351e-02 0.0000000000000000e+00 1.0649013213177351e-02 -8.6953704189514994e-02 0.0000000000000000e+00 0.0000000000000000e+00 0.0000000000000000e+00 0.0000000000000000e+00  -8.2883900986679887e-02 1.1306358893666124e-02 0.0000000000000000e+00 1.1306358893666124e-02 -8.6006948809064565e-02 0.0000000000000000e+00 0.0000000000000000e+00 0.0000000000000000e+00 0.0000000000000000e+00  -8.4072839473398886e-02 1.1601633744107638e-02 0.0000000000000000e+00 1.1601633744107638e-02 -8.5553720469199943e-02 0.0000000000000000e+00 0.0000000000000000e+00 0.0000000000000000e+00 0.0000000000000000e+00  -8.4811161888899658e-02 1.1692471846184152e-02 0.0000000000000000e+00 1.1692471846184152e-02 -8.5442502904272466e-02 0.0000000000000000e+00 0.0000000000000000e+00 0.0000000000000000e+00 0.0000000000000000e+00  -8.5292794878070857e-02 1.1656846128706096e-02 0.0000000000000000e+00 1.1656846128706096e-02 -8.5525695330434831e-02 0.0000000000000000e+00 0.0000000000000000e+00 0.0000000000000000e+00 0.0000000000000000e+00  -8.5657517093850444e-02 1.1518250952502395e-02 0.0000000000000000e+00 1.1518250952502395e-02 -8.5684597522192069e-02 0.0000000000000000e+00 0.0000000000000000e+00 0.0000000000000000e+00 0.0000000000000000e+00  -8.5990815034425905e-02 1.1260992988836203e-02 0.0000000000000000e+00 1.1260992988836203e-02 -8.5846103317743547e-02 0.0000000000000000e+00 0.0000000000000000e+00 0.0000000000000000e+00 0.0000000000000000e+00  -8.6324113107903930e-02 1.0855259823326637e-02 0.0000000000000000e+00 1.0855259823326637e-02 -8.5991713612056195e-02 0.0000000000000000e+00 0.0000000000000000e+00 0.0000000000000000e+00 0.0000000000000000e+00  -8.6644385677461827e-02 1.0282107097273179e-02 0.0000000000000000e+00 1.0282107097273179e-02 -8.6151044785826164e-02 0.0000000000000000e+00 0.0000000000000000e+00 0.0000000000000000e+00 0.0000000000000000e+00  -8.6912130892939782e-02 9.5522038300262218e-03 0.0000000000000000e+00 9.5522038300262218e-03 -8.6381966428044119e-02 0.0000000000000000e+00 0.0000000000000000e+00 0.0000000000000000e+00 0.0000000000000000e+00  -8.7084271790235770e-02 8.7120829992807271e-03 0.0000000000000000e+00 8.7120829992807271e-03 -8.6742940425376433e-02 0.0000000000000000e+00 0.0000000000000000e+00 0.0000000000000000e+00 0.0000000000000000e+00  -8.7135070716287302e-02 7.8361541864393307e-03 0.0000000000000000e+00 7.8361541864393307e-03 -8.7266995504410069e-02 0.0000000000000000e+00 0.0000000000000000e+00 0.0000000000000000e+00 0.0000000000000000e+00  -8.7068673983662706e-02 7.0079323278082091e-03 0.0000000000000000e+00 7.0079323278082091e-03 -8.7946076123676525e-02 0.0000000000000000e+00 0.0000000000000000e+00 0.0000000000000000e+00 0.0000000000000000e+00  -8.6919801288512122e-02 6.2975948503421518e-03 0.0000000000000000e+00 6.2975948503421518e-03 -8.8730639346078471e-02 0.0000000000000000e+00 0.0000000000000000e+00 0.0000000000000000e+00 0.0000000000000000e+00  -8.6743123206543093e-02 5.7440383463382063e-03 0.0000000000000000e+00 5.7440383463382063e-03 -8.9543945613469247e-02 0.0000000000000000e+00 0.0000000000000000e+00 0.0000000000000000e+00 0.0000000000000000e+00  -8.6595761197770765e-02 5.3478913590229472e-03 0.0000000000000000e+00 5.3478913590229472e-03 -9.0305276990470640e-02 0.0000000000000000e+00 0.0000000000000000e+00 0.0000000000000000e+00 0.0000000000000000e+00  -8.6519860452473146e-02 5.0777767555266534e-03 0.0000000000000000e+00 5.0777767555266534e-03 -9.0953047219802963e-02 0.0000000000000000e+00 0.0000000000000000e+00 0.0000000000000000e+00 0.0000000000000000e+00  -8.6532010996926242e-02 4.8866826782356645e-03 0.0000000000000000e+00 4.8866826782356645e-03 -9.1459094413093675e-02 0.0000000000000000e+00 0.0000000000000000e+00 0.0000000000000000e+00 0.0000000000000000e+00  -8.6622373196766272e-02 4.7316271563010532e-03 0.0000000000000000e+00 4.7316271563010532e-03 -9.1830006074437767e-02 0.0000000000000000e+00 0.0000000000000000e+00 0.0000000000000000e+00 0.0000000000000000e+00  -8.6764604202117762e-02 4.5891338287386025e-03 0.0000000000000000e+00 4.5891338287386025e-03 -9.2094852681012779e-02 0.0000000000000000e+00 0.0000000000000000e+00 0.0000000000000000e+00 0.0000000000000000e+00  -8.6925788720235403e-02 4.4593627896236752e-03 0.0000000000000000e+00 4.4593627896236752e-03 -9.2289874812673978e-02 0.0000000000000000e+00 0.0000000000000000e+00 0.0000000000000000e+00 0.0000000000000000e+00  -8.7086040814562865e-02 4.3696556356599553e-03 0.0000000000000000e+00 4.3696556356599553e-03 -9.2436122586457448e-02 0.0000000000000000e+00 0.0000000000000000e+00 0.0000000000000000e+00 0.0000000000000000e+00  -8.7239045133011256e-02 4.3274149326526347e-03 0.0000000000000000e+00 4.3274149326526347e-03 -9.2528310780184420e-02 0.0000000000000000e+00 0.0000000000000000e+00 0.0000000000000000e+00 0.0000000000000000e+00  -8.7350366248372197e-02 4.3973196824138193e-03 0.0000000000000000e+00 4.3973196824138193e-03 -9.2599144485482163e-02 0.0000000000000000e+00 0.0000000000000000e+00 0.0000000000000000e+00 0.0000000000000000e+00  -8.7580391527568122e-02 4.4634134001235119e-03 0.0000000000000000e+00 4.4634134001235119e-03 -9.2393586055326063e-02 0.0000000000000000e+00 0.0000000000000000e+00 0.0000000000000000e+00 0.0000000000000000e+00  -8.7065709332556751e-02 4.5981527865731880e-03 0.0000000000000000e+00 4.5981527865731880e-03 -9.2985308269468062e-02 0.0000000000000000e+00 0.0000000000000000e+00 0.0000000000000000e+00 0.0000000000000000e+00  -8.8486337291793379e-02 5.7836068728878949e-03 0.0000000000000000e+00 5.7836068728878949e-03 -9.0360702493362074e-02 0.0000000000000000e+00 0.0000000000000000e+00 0.0000000000000000e+00 0.0000000000000000e+00  -8.3632883245969680e-02 1.8492971297005912e-03 0.0000000000000000e+00 1.8492971297005912e-03 -9.6550013613971003e-02 0.0000000000000000e+00 0.0000000000000000e+00 0.0000000000000000e+00 0.0000000000000000e+00  -8.6760574046954489e-02 1.7785259252558690e-02 0.0000000000000000e+00 1.7785259252558690e-02 -8.8741706492483696e-02 0.0000000000000000e+00 0.0000000000000000e+00 0.0000000000000000e+00 0.0000000000000000e+00  1.2508972982467515e-02 -9.7994196087734468e-03 0.0000000000000000e+00 -9.7994196087734468e-03 -8.9103524366641831e-02 0.0000000000000000e+00 0.0000000000000000e+00 0.0000000000000000e+00 0.0000000000000000e+00  -4.3580770192968876e-01 -6.1678403320540448e-02 0.0000000000000000e+00 -6.1678403320540448e-02 -1.4159483028880607e-01 0.0000000000000000e+00 0.0000000000000000e+00 0.0000000000000000e+00 0.0000000000000000e+00  7.6019329447959650e-03 9.9134640737928229e-02 0.0000000000000000e+00 9.9134640737928229e-02 -1.0054467934371705e-01 0.0000000000000000e+00 0.0000000000000000e+00 0.0000000000000000e+00 0.0000000000000000e+00  4.3322560257117388e-03 -1.8571383703488872e-02 0.0000000000000000e+00 -1.8571383703488872e-02 3.9354874379054884e-03 0.0000000000000000e+00 0.0000000000000000e+00 0.0000000000000000e+00 0.0000000000000000e+00  1.0249522247503374e-02 7.2729542777286963e-04 0.0000000000000000e+00 7.2729542777286963e-04 7.7613983098041633e-03 0.0000000000000000e+00 0.0000000000000000e+00 0.0000000000000000e+00 0.0000000000000000e+00  7.4009564152624410e-03 3.1642621962644927e-05 0.0000000000000000e+00 3.1642621962644927e-05 7.4014995479898607e-03 0.0000000000000000e+00 0.0000000000000000e+00 0.0000000000000000e+00 0.0000000000000000e+00  7.6921303165051044e-03 -2.5873637318726111e-05 0.0000000000000000e+00 -2.5873637318726111e-05 7.6738568883986096e-03 0.0000000000000000e+00 0.0000000000000000e+00 0.0000000000000000e+00 0.0000000000000000e+00  7.6550294150534402e-03 1.8389310093185670e-05 0.0000000000000000e+00 1.8389310093185670e-05 7.6582428504643977e-03 0.0000000000000000e+00 0.0000000000000000e+00 0.0000000000000000e+00 0.0000000000000000e+00  7.6567717195102471e-03 3.7454624215679191e-05 0.0000000000000000e+00 3.7454624215679191e-05 7.6646460929516332e-03 0.0000000000000000e+00 0.0000000000000000e+00 0.0000000000000000e+00 0.0000000000000000e+00  7.6583109356327290e-03 6.1570926772326615e-05 0.0000000000000000e+00 6.1570926772326615e-05 7.6589885158324638e-03 0.0000000000000000e+00 0.0000000000000000e+00 0.0000000000000000e+00 0.0000000000000000e+00  7.6989626832693024e-03 -5.8098706881248717e-05 0.0000000000000000e+00 -5.8098706881248717e-05 7.6995605168364645e-03 0.0000000000000000e+00 0.0000000000000000e+00 0.0000000000000000e+00 0.0000000000000000e+00  7.6967562854293944e-03 -3.7022256777058559e-05 0.0000000000000000e+00 -3.7022256777058559e-05 7.7047753695735728e-03 0.0000000000000000e+00 0.0000000000000000e+00 0.0000000000000000e+00 0.0000000000000000e+00  7.6999472677522140e-03 -1.7662330764383335e-05 0.0000000000000000e+00 -1.7662330764383335e-05 7.7038947539611446e-03 0.0000000000000000e+00 0.0000000000000000e+00 0.0000000000000000e+00 0.0000000000000000e+00  7.6864273302839460e-03 1.1127082126566719e-05 0.0000000000000000e+00 1.1127082126566719e-05 7.6904499516308030e-03 0.0000000000000000e+00 0.0000000000000000e+00 0.0000000000000000e+00 0.0000000000000000e+00  7.7753328146682307e-03 -1.2159505151658344e-04 0.0000000000000000e+00 -1.2159505151658344e-04 7.6363920663989121e-03 0.0000000000000000e+00 0.0000000000000000e+00 0.0000000000000000e+00 0.0000000000000000e+00  7.9859228448733999e-03 1.4147279067670566e-03 0.0000000000000000e+00 1.4147279067670566e-03 8.2797186138930667e-03 0.0000000000000000e+00 0.0000000000000000e+00 0.0000000000000000e+00 0.0000000000000000e+00  3.0078948268693556e-03 -7.6914487153250388e-03 0.0000000000000000e+00 -7.6914487153250388e-03 -1.4938397280738556e-03 0.0000000000000000e+00 0.0000000000000000e+00 0.0000000000000000e+00 0.0000000000000000e+00  7.8328670204236242e-02 3.9398777730452798e-02 0.0000000000000000e+00 3.9398777730452798e-02 2.9464123868317028e-02 0.0000000000000000e+00 0.0000000000000000e+00 0.0000000000000000e+00 0.0000000000000000e+00  -3.5772596020346603e-01 -7.4600268744824116e-02 0.0000000000000000e+00 -7.4600268744824116e-02 -2.3406687127387976e-01 0.0000000000000000e+00 0.0000000000000000e+00 0.0000000000000000e+00 0.0000000000000000e+00  -7.1894434536130827e-02 -2.1263849070017219e-02 0.0000000000000000e+00 -2.1263849070017219e-02 2.3019108459072728e-02 0.0000000000000000e+00 0.0000000000000000e+00 0.0000000000000000e+00 0.0000000000000000e+00  -4.7108031929669010e-02 2.0694185182567649e-02 0.0000000000000000e+00 2.0694185182567649e-02 -1.6152689169444434e-01 0.0000000000000000e+00 0.0000000000000000e+00 0.0000000000000000e+00 0.0000000000000000e+00  -9.6548292700532737e-02 -1.1566164574987400e-02 0.0000000000000000e+00 -1.1566164574987400e-02 -7.5410065230747947e-02 0.0000000000000000e+00 0.0000000000000000e+00 0.0000000000000000e+00 0.0000000000000000e+00  -8.5953388863035593e-02 -4.4380204048420861e-03 0.0000000000000000e+00 -4.4380204048420861e-03 -9.7886376150561630e-02 0.0000000000000000e+00 0.0000000000000000e+00 0.0000000000000000e+00 0.0000000000000000e+00  -8.9670698674609597e-02 -4.7603562171848459e-03 0.0000000000000000e+00 -4.7603562171848459e-03 -9.1383035530072959e-02 0.0000000000000000e+00 0.0000000000000000e+00 0.0000000000000000e+00 0.0000000000000000e+00  -8.8373476234490891e-02 -5.2142041519735085e-03 0.0000000000000000e+00 -5.2142041519735085e-03 -9.2872666712420518e-02 0.0000000000000000e+00 0.0000000000000000e+00 0.0000000000000000e+00 0.0000000000000000e+00  -8.8268901780100426e-02 -4.8741062260886795e-03 0.0000000000000000e+00 -4.8741062260886795e-03 -9.2513347433651749e-02 0.0000000000000000e+00 0.0000000000000000e+00 0.0000000000000000e+00 0.0000000000000000e+00  -8.8007201144811628e-02 -4.9398683411998904e-03 0.0000000000000000e+00 -4.9398683411998904e-03 -9.2416848702382981e-02 0.0000000000000000e+00 0.0000000000000000e+00 0.0000000000000000e+00 0.0000000000000000e+00  -8.7802962151306826e-02 -4.9414567660188121e-03 0.0000000000000000e+00 -4.9414567660188121e-03 -9.2203337700069790e-02 0.0000000000000000e+00 0.0000000000000000e+00 0.0000000000000000e+00 0.0000000000000000e+00  -8.7611420037288432e-02 -5.0520331684430530e-03 0.0000000000000000e+00 -5.0520331684430530e-03 -9.1974595793056779e-02 0.0000000000000000e+00 0.0000000000000000e+00 0.0000000000000000e+00 0.0000000000000000e+00  -8.7403153782668871e-02 -5.1619774551248040e-03 0.0000000000000000e+00 -5.1619774551248040e-03 -9.1748741287068961e-02 0.0000000000000000e+00 0.0000000000000000e+00 0.0000000000000000e+00 0.0000000000000000e+00  -8.7229619545466638e-02 -5.2445841829002852e-03 0.0000000000000000e+00 -5.2445841829002852e-03 -9.1469647094793535e-02 0.0000000000000000e+00 0.0000000000000000e+00 0.0000000000000000e+00 0.0000000000000000e+00  -8.7135594056173646e-02 -5.2915465595421247e-03 0.0000000000000000e+00 -5.2915465595421247e-03 -9.1074648983621220e-02 0.0000000000000000e+00 0.0000000000000000e+00 0.0000000000000000e+00 0.0000000000000000e+00  -8.7173228506234907e-02 -5.3404404702774438e-03 0.0000000000000000e+00 -5.3404404702774438e-03 -9.0498141715968414e-02 0.0000000000000000e+00 0.0000000000000000e+00 0.0000000000000000e+00 0.0000000000000000e+00  -8.7364501323351496e-02 -5.4641602057702498e-03 0.0000000000000000e+00 -5.4641602057702498e-03 -8.9715023301621219e-02 0.0000000000000000e+00 0.0000000000000000e+00 0.0000000000000000e+00 0.0000000000000000e+00  -8.7689762641503494e-02 -5.7457021573479325e-03 0.0000000000000000e+00 -5.7457021573479325e-03 -8.8758387898208696e-02 0.0000000000000000e+00 0.0000000000000000e+00 0.0000000000000000e+00 0.0000000000000000e+00  -8.8085714898949841e-02 -6.2455381780199444e-03 0.0000000000000000e+00 -6.2455381780199444e-03 -8.7720788229960059e-02 0.0000000000000000e+00 0.0000000000000000e+00 0.0000000000000000e+00 0.0000000000000000e+00  -8.8462471242934812e-02 -6.9724951386163133e-03 0.0000000000000000e+00 -6.9724951386163133e-03 -8.6730906941477809e-02 0.0000000000000000e+00 0.0000000000000000e+00 0.0000000000000000e+00 0.0000000000000000e+00  -8.8733002035222164e-02 -7.8723323639790007e-03 0.0000000000000000e+00 -7.8723323639790007e-03 -8.5913818612345177e-02 0.0000000000000000e+00 0.0000000000000000e+00 0.0000000000000000e+00 0.0000000000000000e+00  -8.8842945199574433e-02 -8.8392853879580863e-03 0.0000000000000000e+00 -8.8392853879580863e-03 -8.5350706905516716e-02 0.0000000000000000e+00 0.0000000000000000e+00 0.0000000000000000e+00 0.0000000000000000e+00  -8.8789082101493860e-02 -9.7463086646159339e-03 0.0000000000000000e+00 -9.7463086646159339e-03 -8.5053736021256279e-02 0.0000000000000000e+00 0.0000000000000000e+00 0.0000000000000000e+00 0.0000000000000000e+00  -8.8619496030180059e-02 -1.0482992782301687e-02 0.0000000000000000e+00 -1.0482992782301687e-02 -8.4965709110029000e-02 0.0000000000000000e+00 0.0000000000000000e+00 0.0000000000000000e+00 0.0000000000000000e+00  -8.8414658901844051e-02 -1.0987773671248391e-02 0.0000000000000000e+00 -1.0987773671248391e-02 -8.4985435377973512e-02 0.0000000000000000e+00 0.0000000000000000e+00 0.0000000000000000e+00 0.0000000000000000e+00  -8.8254957611095461e-02 -1.1262476052928209e-02 0.0000000000000000e+00 -1.1262476052928209e-02 -8.5010845853355652e-02 0.0000000000000000e+00 0.0000000000000000e+00 0.0000000000000000e+00 0.0000000000000000e+00  -8.8185568160578279e-02 -1.1362931823965245e-02 0.0000000000000000e+00 -1.1362931823965245e-02 -8.4984800259257365e-02 0.0000000000000000e+00 0.0000000000000000e+00 0.0000000000000000e+00 0.0000000000000000e+00  -8.8190867997595415e-02 -1.1368786983810159e-02 0.0000000000000000e+00 -1.1368786983810159e-02 -8.4926944794983458e-02 0.0000000000000000e+00 0.0000000000000000e+00 0.0000000000000000e+00 0.0000000000000000e+00  -8.8187380266357737e-02 -1.1344384900572589e-02 0.0000000000000000e+00 -1.1344384900572589e-02 -8.4939943211740518e-02 0.0000000000000000e+00 0.0000000000000000e+00 0.0000000000000000e+00 0.0000000000000000e+00  -8.8027638986514944e-02 -1.1306114349507873e-02 0.0000000000000000e+00 -1.1306114349507873e-02 -8.5195790930963008e-02 0.0000000000000000e+00 0.0000000000000000e+00 0.0000000000000000e+00 0.0000000000000000e+00  -8.7525295954411789e-02 -1.1193706314633053e-02 0.0000000000000000e+00 -1.1193706314633053e-02 -8.5894420829448759e-02 0.0000000000000000e+00 0.0000000000000000e+00 0.0000000000000000e+00 0.0000000000000000e+00  -8.6449328519387511e-02 -1.0900902482121921e-02 0.0000000000000000e+00 -1.0900902482121921e-02 -8.7244714767179585e-02 0.0000000000000000e+00 0.0000000000000000e+00 0.0000000000000000e+00 0.0000000000000000e+00  -8.4537917914262933e-02 -1.0156016552861939e-02 0.0000000000000000e+00 -1.0156016552861939e-02 -8.9419576069649120e-02 0.0000000000000000e+00 0.0000000000000000e+00 0.0000000000000000e+00 0.0000000000000000e+00  -8.1547236114416166e-02 -8.9170526981486760e-03 0.0000000000000000e+00 -8.9170526981486760e-03 -9.2463407367263342e-02 0.0000000000000000e+00 0.0000000000000000e+00 0.0000000000000000e+00 0.0000000000000000e+00  -7.6576708353046252e-02 -6.2620332123292976e-03 0.0000000000000000e+00 -6.2620332123292976e-03 -9.6916442276926751e-02 0.0000000000000000e+00 0.0000000000000000e+00 0.0000000000000000e+00 0.0000000000000000e+00  -7.1085557275205741e-02 -2.6838850430556749e-03 0.0000000000000000e+00 -2.6838850430556749e-03 -1.0017680194837594e-01 0.0000000000000000e+00 0.0000000000000000e+00 0.0000000000000000e+00 0.0000000000000000e+00  -5.5590092819580592e-02 2.7677189635602032e-03 0.0000000000000000e+00 2.7677189635602032e-03 -1.1275258204963053e-01 0.0000000000000000e+00 0.0000000000000000e+00 0.0000000000000000e+00 0.0000000000000000e+00  -5.3762267976907412e-02 2.2554551814971124e-02 0.0000000000000000e+00 2.2554551814971124e-02 -9.5208331217990688e-02 0.0000000000000000e+00 0.0000000000000000e+00 0.0000000000000000e+00 0.0000000000000000e+00  5.2987423742314008e-02 2.1553939315910355e-03 0.0000000000000000e+00 2.1553939315910355e-03 -1.5914666780768752e-01 0.0000000000000000e+00 0.0000000000000000e+00 0.0000000000000000e+00 0.0000000000000000e+00  -2.0229056016890959e-01 6.7394395477173583e-03 0.0000000000000000e+00 6.7394395477173583e-03 -8.6415107854738799e-02 0.0000000000000000e+00 0.0000000000000000e+00 0.0000000000000000e+00 0.0000000000000000e+00  -1.2119405678770900e-01 1.3632022864889179e-01 0.0000000000000000e+00 1.3632022864889179e-01 -1.3825181239368259e-01 0.0000000000000000e+00 0.0000000000000000e+00 0.0000000000000000e+00 0.0000000000000000e+00  2.2447338814660694e-02 -4.2662166854549592e-02 0.0000000000000000e+00 -4.2662166854549592e-02 1.2799901355273199e-02 0.0000000000000000e+00 0.0000000000000000e+00 0.0000000000000000e+00 0.0000000000000000e+00  4.5928289471608786e-03 7.4018814644429831e-03 0.0000000000000000e+00 7.4018814644429831e-03 2.3502433715455995e-03 0.0000000000000000e+00 0.0000000000000000e+00 0.0000000000000000e+00 0.0000000000000000e+00  -1.8965553427012386e-03 -1.6420912317832881e-03 0.0000000000000000e+00 -1.6420912317832883e-03 -1.2689323848155377e-03 0.0000000000000000e+00 0.0000000000000000e+00 0.0000000000000000e+00 0.0000000000000000e+00  6.6258585727000247e-03 -2.7886817176669301e-03 0.0000000000000000e+00 -2.7886817176669301e-03 3.0132933411704818e-03 0.0000000000000000e+00 0.0000000000000000e+00 0.0000000000000000e+00 0.0000000000000000e+00  1.2406053122848230e-02 3.2245484496620867e-02 0.0000000000000000e+00 3.2245484496620867e-02 6.9650072106958085e-03 0.0000000000000000e+00 0.0000000000000000e+00 0.0000000000000000e+00 0.0000000000000000e+00  -1.0979547877835417e-01 -1.2157234713101786e-01 0.0000000000000000e+00 -1.2157234713101786e-01 -1.4673290223978158e-01 0.0000000000000000e+00 0.0000000000000000e+00 0.0000000000000000e+00 0.0000000000000000e+00  -2.3718664067391373e-01 5.3123836574758625e-04 0.0000000000000000e+00 5.3123836574758625e-04 -9.3602249402186630e-02 0.0000000000000000e+00 0.0000000000000000e+00 0.0000000000000000e+00 0.0000000000000000e+00  4.7440849395309029e-02 4.5076212472552318e-03 0.0000000000000000e+00 4.5076212472552318e-03 -1.5989613250557580e-01 0.0000000000000000e+00 0.0000000000000000e+00 0.0000000000000000e+00 0.0000000000000000e+00  -6.2063419096990868e-02 -1.4691402928795907e-02 0.0000000000000000e+00 -1.4691402928795907e-02 -9.9912143140124407e-02 0.0000000000000000e+00 0.0000000000000000e+00 0.0000000000000000e+00 0.0000000000000000e+00  -6.3398529391655550e-02 2.6788335483857247e-03 0.0000000000000000e+00 2.6788335483857247e-03 -1.1413865474513038e-01 0.0000000000000000e+00 0.0000000000000000e+00 0.0000000000000000e+00 0.0000000000000000e+00  -7.7258771541023480e-02 7.0598807287556090e-03 0.0000000000000000e+00 7.0598807287556090e-03 -1.0084819670655612e-01 0.0000000000000000e+00 0.0000000000000000e+00 0.0000000000000000e+00 0.0000000000000000e+00  -8.1635561662001935e-02 9.4557469372646280e-03 0.0000000000000000e+00 9.4557469372646280e-03 -9.6874221765558960e-02 0.0000000000000000e+00 0.0000000000000000e+00 0.0000000000000000e+00 0.0000000000000000e+00  -8.5559713187774403e-02 1.1266144156809594e-02 0.0000000000000000e+00 1.1266144156809594e-02 -9.2226925497659859e-02 0.0000000000000000e+00 0.0000000000000000e+00 0.0000000000000000e+00 0.0000000000000000e+00  -8.7708168515959223e-02 1.1852771544116817e-02 0.0000000000000000e+00 1.1852771544116817e-02 -8.9145802111130046e-02 0.0000000000000000e+00 0.0000000000000000e+00 0.0000000000000000e+00 0.0000000000000000e+00  -8.8926014643229051e-02 1.2116880063859548e-02 0.0000000000000000e+00 1.2116880063859548e-02 -8.7045715141771007e-02 0.0000000000000000e+00 0.0000000000000000e+00 0.0000000000000000e+00 0.0000000000000000e+00  -8.9447750943561624e-02 1.2059154965392140e-02 0.0000000000000000e+00 1.2059154965392140e-02 -8.5807740043271824e-02 0.0000000000000000e+00 0.0000000000000000e+00 0.0000000000000000e+00 0.0000000000000000e+00  -8.9513967142683601e-02 1.1917927839381197e-02 0.0000000000000000e+00 1.1917927839381197e-02 -8.5224071538518409e-02 0.0000000000000000e+00 0.0000000000000000e+00 0.0000000000000000e+00 0.0000000000000000e+00  -8.9336545660594777e-02 1.1772156268579727e-02 0.0000000000000000e+00 1.1772156268579727e-02 -8.5065797049212355e-02 0.0000000000000000e+00 0.0000000000000000e+00 0.0000000000000000e+00 0.0000000000000000e+00  -8.9083013563228342e-02 1.1660918760642815e-02 0.0000000000000000e+00 1.1660918760642815e-02 -8.5125283305352378e-02 0.0000000000000000e+00 0.0000000000000000e+00 0.0000000000000000e+00 0.0000000000000000e+00  -8.8883994216285386e-02 1.1552474249344588e-02 0.0000000000000000e+00 1.1552474249344588e-02 -8.5229694734140632e-02 0.0000000000000000e+00 0.0000000000000000e+00 0.0000000000000000e+00 0.0000000000000000e+00  -8.8808492406963604e-02 1.1371798402821367e-02 0.0000000000000000e+00 1.1371798402821367e-02 -8.5279258297402433e-02 0.0000000000000000e+00 0.0000000000000000e+00 0.0000000000000000e+00 0.0000000000000000e+00  -8.8860225194519665e-02 1.1032175511269209e-02 0.0000000000000000e+00 1.1032175511269209e-02 -8.5258755562764868e-02 0.0000000000000000e+00 0.0000000000000000e+00 0.0000000000000000e+00 0.0000000000000000e+00  -8.8984555835930595e-02 1.0473254695112033e-02 0.0000000000000000e+00 1.0473254695112033e-02 -8.5230011175556120e-02 0.0000000000000000e+00 0.0000000000000000e+00 0.0000000000000000e+00 0.0000000000000000e+00  -8.9093765991683602e-02 9.6904052096707018e-03 0.0000000000000000e+00 9.6904052096707018e-03 -8.5299388604749019e-02 0.0000000000000000e+00 0.0000000000000000e+00 0.0000000000000000e+00 0.0000000000000000e+00  -8.9101795138827725e-02 8.7434854815234362e-03 0.0000000000000000e+00 8.7434854815234362e-03 -8.5571722893640109e-02 0.0000000000000000e+00 0.0000000000000000e+00 0.0000000000000000e+00 0.0000000000000000e+00  -8.8956330403580683e-02 7.7419024629304294e-03 0.0000000000000000e+00 7.7419024629304294e-03 -8.6107157941890028e-02 0.0000000000000000e+00 0.0000000000000000e+00 0.0000000000000000e+00 0.0000000000000000e+00  -8.8657401728607907e-02 6.8121723527754087e-03 0.0000000000000000e+00 6.8121723527754087e-03 -8.6895809774443347e-02 0.0000000000000000e+00 0.0000000000000000e+00 0.0000000000000000e+00 0.0000000000000000e+00  -8.8257001617467579e-02 6.0598705780206576e-03 0.0000000000000000e+00 6.0598705780206576e-03 -8.7858136385193908e-02 0.0000000000000000e+00 0.0000000000000000e+00 0.0000000000000000e+00 0.0000000000000000e+00  -8.7840474206799843e-02 5.5392788101261562e-03 0.0000000000000000e+00 5.5392788101261562e-03 -8.8870074623360190e-02 0.0000000000000000e+00 0.0000000000000000e+00 0.0000000000000000e+00 0.0000000000000000e+00  -8.7496605740876657e-02 5.2417114797865452e-03 0.0000000000000000e+00 5.2417114797865452e-03 -8.9803348335688440e-02 0.0000000000000000e+00 0.0000000000000000e+00 0.0000000000000000e+00 0.0000000000000000e+00  -8.7288064070839014e-02 5.1068072715528953e-03 0.0000000000000000e+00 5.1068072715528953e-03 -9.0565289302031532e-02 0.0000000000000000e+00 0.0000000000000000e+00 0.0000000000000000e+00 0.0000000000000000e+00  -8.7234197852941828e-02 5.0515687705372236e-03 0.0000000000000000e+00 5.0515687705372236e-03 -9.1122306923722099e-02 0.0000000000000000e+00 0.0000000000000000e+00 0.0000000000000000e+00 0.0000000000000000e+00  -8.7312961736198999e-02 5.0030002136710197e-03 0.0000000000000000e+00 5.0030002136710197e-03 -9.1498730877438747e-02 0.0000000000000000e+00 0.0000000000000000e+00 0.0000000000000000e+00 0.0000000000000000e+00  -8.7472340577269228e-02 4.9232929691225627e-03 0.0000000000000000e+00 4.9232929691225627e-03 -9.1759169767281268e-02 0.0000000000000000e+00 0.0000000000000000e+00 0.0000000000000000e+00 0.0000000000000000e+00  -8.7667935260530572e-02 4.8205259746262330e-03 0.0000000000000000e+00 4.8205259746262330e-03 -9.1965043420030035e-02 0.0000000000000000e+00 0.0000000000000000e+00 0.0000000000000000e+00 0.0000000000000000e+00  -8.7849308902764753e-02 4.7204412494218553e-03 0.0000000000000000e+00 4.7204412494218553e-03 -9.2170855596170512e-02 0.0000000000000000e+00 0.0000000000000000e+00 0.0000000000000000e+00 0.0000000000000000e+00  -8.8046598551943245e-02 4.7319513833445001e-03 0.0000000000000000e+00 4.7319513833445001e-03 -9.2357065184030640e-02 0.0000000000000000e+00 0.0000000000000000e+00 0.0000000000000000e+00 0.0000000000000000e+00  -8.8306213515529114e-02 4.6774099101131294e-03 0.0000000000000000e+00 4.6774099101131294e-03 -9.2421311765322561e-02 0.0000000000000000e+00 0.0000000000000000e+00 0.0000000000000000e+00 0.0000000000000000e+00  -8.8414109818557018e-02 5.0292491566913695e-03 0.0000000000000000e+00 5.0292491566913695e-03 -9.2740519275361852e-02 0.0000000000000000e+00 0.0000000000000000e+00 0.0000000000000000e+00 0.0000000000000000e+00  -8.9713801451730940e-02 4.5632765135978992e-03 0.0000000000000000e+00 4.5632765135978992e-03 -9.1224273738159445e-02 0.0000000000000000e+00 0.0000000000000000e+00 0.0000000000000000e+00 0.0000000000000000e+00  -8.6013838669919490e-02 4.2720481365284904e-03 0.0000000000000000e+00 4.2720481365284904e-03 -9.7664154411331805e-02 0.0000000000000000e+00 0.0000000000000000e+00 0.0000000000000000e+00 0.0000000000000000e+00  -9.6590856007070333e-02 1.1250531186420333e-02 0.0000000000000000e+00 1.1250531186420333e-02 -7.5235680425489629e-02 0.0000000000000000e+00 0.0000000000000000e+00 0.0000000000000000e+00 0.0000000000000000e+00  -4.7206796395934052e-02 -2.0757317504959724e-02 0.0000000000000000e+00 -2.0757317504959724e-02 -1.6129456343620480e-01 0.0000000000000000e+00 0.0000000000000000e+00 0.0000000000000000e+00 0.0000000000000000e+00  -7.1114173042925874e-02 2.1268334331137510e-02 0.0000000000000000e+00 2.1268334331137510e-02 2.3243776579882608e-02 0.0000000000000000e+00 0.0000000000000000e+00 0.0000000000000000e+00 0.0000000000000000e+00  -3.5929135789440925e-01 7.3832030232535387e-02 0.0000000000000000e+00 7.3832030232535387e-02 -2.3461702717210542e-01 0.0000000000000000e+00 0.0000000000000000e+00 0.0000000000000000e+00 0.0000000000000000e+00  7.8546204400136516e-02 -3.9178487516189998e-02 0.0000000000000000e+00 -3.9178487516189998e-02 2.9368812517785035e-02 0.0000000000000000e+00 0.0000000000000000e+00 0.0000000000000000e+00 0.0000000000000000e+00  3.0581873204820593e-03 7.6962586798460285e-03 0.0000000000000000e+00 7.6962586798460285e-03 -1.3994198712233182e-03 0.0000000000000000e+00 0.0000000000000000e+00 0.0000000000000000e+00 0.0000000000000000e+00  7.9203225978442572e-03 -1.4074053927731743e-03 0.0000000000000000e+00 -1.4074053927731743e-03 8.2111851148819071e-03 0.0000000000000000e+00 0.0000000000000000e+00 0.0000000000000000e+00 0.0000000000000000e+00  7.7059675396870635e-03 1.2658083321843711e-04 0.0000000000000000e+00 1.2658083321843711e-04 7.5704174328905241e-03 0.0000000000000000e+00 0.0000000000000000e+00 0.0000000000000000e+00 0.0000000000000000e+00  7.6208411746168589e-03 -1.0498032386115991e-05 0.0000000000000000e+00 -1.0498032386115991e-05 7.6295558885953818e-03 0.0000000000000000e+00 0.0000000000000000e+00 0.0000000000000000e+00 0.0000000000000000e+00  7.6361294245895729e-03 1.7934055895430806e-05 0.0000000000000000e+00 1.7934055895430806e-05 7.6421406409756558e-03 0.0000000000000000e+00 0.0000000000000000e+00 0.0000000000000000e+00 0.0000000000000000e+00  7.6330886133178450e-03 3.7159335375955293e-05 0.0000000000000000e+00 3.7159335375955293e-05 7.6424231260237979e-03 0.0000000000000000e+00 0.0000000000000000e+00 0.0000000000000000e+00 0.0000000000000000e+00  7.6356072153510625e-03 5.8105400581942244e-05 0.0000000000000000e+00 5.8105400581942244e-05 7.6362413710004580e-03 0.0000000000000000e+00 0.0000000000000000e+00 0.0000000000000000e+00 0.0000000000000000e+00  7.6784435311378352e-03 -5.4814660933132734e-05 0.0000000000000000e+00 -5.4814660933132734e-05 7.6790512049745140e-03 0.0000000000000000e+00 0.0000000000000000e+00 0.0000000000000000e+00 0.0000000000000000e+00  7.6763686908717212e-03 -3.6300168050583365e-05 0.0000000000000000e+00 -3.6300168050583365e-05 7.6856193375782868e-03 0.0000000000000000e+00 0.0000000000000000e+00 0.0000000000000000e+00 0.0000000000000000e+00  7.6759232836995190e-03 -1.7039847379662492e-05 0.0000000000000000e+00 -1.7039847379662492e-05 7.6858186271179674e-03 0.0000000000000000e+00 0.0000000000000000e+00 0.0000000000000000e+00 0.0000000000000000e+00  7.6751672097483421e-03 -1.5822505828141111e-05 0.0000000000000000e+00 -1.5822505828141111e-05 7.6713094694039734e-03 0.0000000000000000e+00 0.0000000000000000e+00 0.0000000000000000e+00 0.0000000000000000e+00  7.7355109626798162e-03 1.0145154988466848e-04 0.0000000000000000e+00 1.0145154988466848e-04 7.7266497565765561e-03 0.0000000000000000e+00 0.0000000000000000e+00 0.0000000000000000e+00 0.0000000000000000e+00  7.1817541892049913e-03 -3.9214629449970393e-04 0.0000000000000000e+00 -3.9214629449970393e-04 7.1612390223766195e-03 0.0000000000000000e+00 0.0000000000000000e+00 0.0000000000000000e+00 0.0000000000000000e+00  1.1853695805496237e-02 9.6370901291365407e-04 0.0000000000000000e+00 9.6370901291365407e-04 9.3798890982744344e-03 0.0000000000000000e+00 0.0000000000000000e+00 0.0000000000000000e+00 0.0000000000000000e+00  -7.3323913506934558e-03 1.0025060672362564e-02 0.0000000000000000e+00 1.0025060672362564e-02 -2.4753454160509249e-03 0.0000000000000000e+00 0.0000000000000000e+00 0.0000000000000000e+00 0.0000000000000000e+00  9.1328993305768200e-02 -5.9820403554338597e-02 0.0000000000000000e+00 -5.9820403554338597e-02 -1.8989224057838677e-02 0.0000000000000000e+00 0.0000000000000000e+00 0.0000000000000000e+00 0.0000000000000000e+00  -4.3922030956354213e-01 5.0648953543920301e-02 0.0000000000000000e+00 5.0648953543920301e-02 -2.0788615980555306e-01 0.0000000000000000e+00 0.0000000000000000e+00 0.0000000000000000e+00 0.0000000000000000e+00  -6.6002226839651798e-03 -6.1092798085897095e-03 0.0000000000000000e+00 -6.1092798085897095e-03 -3.5179041828283970e-02 0.0000000000000000e+00 0.0000000000000000e+00 0.0000000000000000e+00 0.0000000000000000e+00  -8.3886330602025133e-02 -5.0264273477609814e-03 0.0000000000000000e+00 -5.0264273477609814e-03 -1.3412778421596244e-01 0.0000000000000000e+00 0.0000000000000000e+00 0.0000000000000000e+00 0.0000000000000000e+00  -9.5255530349690795e-02 -2.7565627971483739e-03 0.0000000000000000e+00 -2.7565627971483739e-03 -8.4184533292779251e-02 0.0000000000000000e+00 0.0000000000000000e+00 0.0000000000000000e+00 0.0000000000000000e+00  -8.9955090147589137e-02 -7.4850177315923172e-03 0.0000000000000000e+00 -7.4850177315923172e-03 -9.4433918642479284e-02 0.0000000000000000e+00 0.0000000000000000e+00 0.0000000000000000e+00 0.0000000000000000e+00  -8.9969930306030621e-02 -4.9778469904016437e-03 0.0000000000000000e+00 -4.9778469904016437e-03 -9.2209136472729325e-02 0.0000000000000000e+00 0.0000000000000000e+00 0.0000000000000000e+00 0.0000000000000000e+00  -8.9206031855459125e-02 -5.7495527654270870e-03 0.0000000000000000e+00 -5.7495527654270870e-03 -9.2575355053226407e-02 0.0000000000000000e+00 0.0000000000000000e+00 0.0000000000000000e+00 0.0000000000000000e+00  -8.8802523729962821e-02 -5.2473405348802370e-03 0.0000000000000000e+00 -5.2473405348802370e-03 -9.2280536500295884e-02 0.0000000000000000e+00 0.0000000000000000e+00 0.0000000000000000e+00 0.0000000000000000e+00  -8.8631645025021202e-02 -5.3657558821281221e-03 0.0000000000000000e+00 -5.3657558821281221e-03 -9.1899994036470908e-02 0.0000000000000000e+00 0.0000000000000000e+00 0.0000000000000000e+00 0.0000000000000000e+00  -8.8339019920199505e-02 -5.4530646720706575e-03 0.0000000000000000e+00 -5.4530646720706575e-03 -9.1654158295251614e-02 0.0000000000000000e+00 0.0000000000000000e+00 0.0000000000000000e+00 0.0000000000000000e+00  -8.8083821755833638e-02 -5.5507359518051167e-03 0.0000000000000000e+00 -5.5507359518051167e-03 -9.1434963687465842e-02 0.0000000000000000e+00 0.0000000000000000e+00 0.0000000000000000e+00 0.0000000000000000e+00  -8.7837174787528019e-02 -5.5543312450293770e-03 0.0000000000000000e+00 -5.5543312450293770e-03 -9.1226756610686424e-02 0.0000000000000000e+00 0.0000000000000000e+00 0.0000000000000000e+00 0.0000000000000000e+00  -8.7717404635334062e-02 -5.4467739449939757e-03 0.0000000000000000e+00 -5.4467739449939757e-03 -9.0878806484126010e-02 0.0000000000000000e+00 0.0000000000000000e+00 0.0000000000000000e+00 0.0000000000000000e+00  -8.7799888510767560e-02 -5.2881875581961548e-03 0.0000000000000000e+00 -5.2881875581961548e-03 -9.0278429715444447e-02 0.0000000000000000e+00 0.0000000000000000e+00 0.0000000000000000e+00 0.0000000000000000e+00  -8.8132016920206946e-02 -5.1955729623149559e-03 0.0000000000000000e+00 -5.1955729623149559e-03 -8.9364143341350927e-02 0.0000000000000000e+00 0.0000000000000000e+00 0.0000000000000000e+00 0.0000000000000000e+00  -8.8692238905365511e-02 -5.3123365525125834e-03 0.0000000000000000e+00 -5.3123365525125834e-03 -8.8173044963016436e-02 0.0000000000000000e+00 0.0000000000000000e+00 0.0000000000000000e+00 0.0000000000000000e+00  -8.9385096809543277e-02 -5.7489986877914019e-03 0.0000000000000000e+00 -5.7489986877914019e-03 -8.6846840781994575e-02 0.0000000000000000e+00 0.0000000000000000e+00 0.0000000000000000e+00 0.0000000000000000e+00  -9.0069067211545756e-02 -6.5319095911430033e-03 0.0000000000000000e+00 -6.5319095911430033e-03 -8.5592691798689530e-02 0.0000000000000000e+00 0.0000000000000000e+00 0.0000000000000000e+00 0.0000000000000000e+00  -9.0606376337445352e-02 -7.5825338203909087e-03 0.0000000000000000e+00 -7.5825338203909087e-03 -8.4614472777994901e-02 0.0000000000000000e+00 0.0000000000000000e+00 0.0000000000000000e+00 0.0000000000000000e+00  -9.0913209307163456e-02 -8.7372703519231973e-03 0.0000000000000000e+00 -8.7372703519231973e-03 -8.4042991174713505e-02 0.0000000000000000e+00 0.0000000000000000e+00 0.0000000000000000e+00 0.0000000000000000e+00  -9.0990215105547639e-02 -9.7980429335812243e-03 0.0000000000000000e+00 -9.7980429335812243e-03 -8.3893082917098752e-02 0.0000000000000000e+00 0.0000000000000000e+00 0.0000000000000000e+00 0.0000000000000000e+00  -9.0924239583998201e-02 -1.0594836569513402e-02 0.0000000000000000e+00 -1.0594836569513402e-02 -8.4061809614304442e-02 0.0000000000000000e+00 0.0000000000000000e+00 0.0000000000000000e+00 0.0000000000000000e+00  -9.0860417544553984e-02 -1.1039938912980317e-02 0.0000000000000000e+00 -1.1039938912980317e-02 -8.4369109940145334e-02 0.0000000000000000e+00 0.0000000000000000e+00 0.0000000000000000e+00 0.0000000000000000e+00  -9.0951569126025755e-02 -1.1154220998418870e-02 0.0000000000000000e+00 -1.1154220998418870e-02 -8.4629578544146294e-02 0.0000000000000000e+00 0.0000000000000000e+00 0.0000000000000000e+00 0.0000000000000000e+00  -9.1302676575194128e-02 -1.1052588645131476e-02 0.0000000000000000e+00 -1.1052588645131476e-02 -8.4729914254142114e-02 0.0000000000000000e+00 0.0000000000000000e+00 0.0000000000000000e+00 0.0000000000000000e+00  -9.1933714249349235e-02 -1.0893512409700682e-02 0.0000000000000000e+00 -1.0893512409700682e-02 -8.4681220892947023e-02 0.0000000000000000e+00 0.0000000000000000e+00 0.0000000000000000e+00 0.0000000000000000e+00  -9.2772574014567427e-02 -1.0814467666594064e-02 0.0000000000000000e+00 -1.0814467666594064e-02 -8.4628487368590244e-02 0.0000000000000000e+00 0.0000000000000000e+00 0.0000000000000000e+00 0.0000000000000000e+00  -9.3691368412221102e-02 -1.0881262061318219e-02 0.0000000000000000e+00 -1.0881262061318219e-02 -8.4807754511169953e-02 0.0000000000000000e+00 0.0000000000000000e+00 0.0000000000000000e+00 0.0000000000000000e+00  -9.4501944621217748e-02 -1.1078243358957485e-02 0.0000000000000000e+00 -1.1078243358957485e-02 -8.5528620764053667e-02 0.0000000000000000e+00 0.0000000000000000e+00 0.0000000000000000e+00 0.0000000000000000e+00  -9.5091117061867264e-02 -1.1224442434059470e-02 0.0000000000000000e+00 -1.1224442434059470e-02 -8.7027249523117856e-02 0.0000000000000000e+00 0.0000000000000000e+00 0.0000000000000000e+00 0.0000000000000000e+00  -9.5276921868238995e-02 -1.1356125739994713e-02 0.0000000000000000e+00 -1.1356125739994713e-02 -8.9589265070721083e-02 0.0000000000000000e+00 0.0000000000000000e+00 0.0000000000000000e+00 0.0000000000000000e+00  -9.4944352119625555e-02 -1.0535088463338215e-02 0.0000000000000000e+00 -1.0535088463338215e-02 -9.3377951985583726e-02 0.0000000000000000e+00 0.0000000000000000e+00 0.0000000000000000e+00 0.0000000000000000e+00  -9.4524209442186063e-02 -1.0624242721494051e-02 0.0000000000000000e+00 -1.0624242721494051e-02 -9.8079582796195608e-02 0.0000000000000000e+00 0.0000000000000000e+00 0.0000000000000000e+00 0.0000000000000000e+00  -9.0853842763445256e-02 -5.9090973529991259e-03 0.0000000000000000e+00 -5.9090973529991259e-03 -1.0725629423136526e-01 0.0000000000000000e+00 0.0000000000000000e+00 0.0000000000000000e+00 0.0000000000000000e+00  -9.5440582841368179e-02 -6.1588326540081458e-03 0.0000000000000000e+00 -6.1588326540081458e-03 -1.0276126230158972e-01 0.0000000000000000e+00 0.0000000000000000e+00 0.0000000000000000e+00 0.0000000000000000e+00  -5.5083970797682680e-02 -3.9536349024128616e-03 0.0000000000000000e+00 -3.9536349024128616e-03 -1.7818235743895386e-01 0.0000000000000000e+00 0.0000000000000000e+00 0.0000000000000000e+00 0.0000000000000000e+00  1.5898107433789395e-02 4.0672822804569568e-02 0.0000000000000000e+00 4.0672822804569568e-02 -3.2555915829171403e-02 0.0000000000000000e+00 0.0000000000000000e+00 0.0000000000000000e+00 0.0000000000000000e+00  -4.9179764647657070e-01 1.7806515487363613e-02 0.0000000000000000e+00 1.7806515487363610e-02 -2.8460743344594530e-01 0.0000000000000000e+00 0.0000000000000000e+00 0.0000000000000000e+00 0.0000000000000000e+00  9.7335392930338910e-02 -6.7531920167373909e-03 0.0000000000000000e+00 -6.7531920167373900e-03 7.7466137078307604e-03 0.0000000000000000e+00 0.0000000000000000e+00 0.0000000000000000e+00 0.0000000000000000e+00  -1.0592327021100091e-02 6.7843128921407526e-03 0.0000000000000000e+00 6.7843128921407526e-03 -8.9368092907903644e-03 0.0000000000000000e+00 0.0000000000000000e+00 0.0000000000000000e+00 0.0000000000000000e+00  3.0396060200037892e-03 -2.2496003931075466e-03 0.0000000000000000e+00 -2.2496003931075466e-03 2.7811117318228794e-03 0.0000000000000000e+00 0.0000000000000000e+00 0.0000000000000000e+00 0.0000000000000000e+00  2.1752444988051068e-03 3.5098379517361459e-04 0.0000000000000000e+00 3.5098379517361469e-04 1.9455701507652982e-03 0.0000000000000000e+00 0.0000000000000000e+00 0.0000000000000000e+00 0.0000000000000000e+00  2.1214832166607145e-03 1.2021723986278827e-03 0.0000000000000000e+00 1.2021723986278827e-03 2.1900171680013054e-03 0.0000000000000000e+00 0.0000000000000000e+00 0.0000000000000000e+00 0.0000000000000000e+00  -8.5225869301179397e-03 -4.9693022605640704e-03 0.0000000000000000e+00 -4.9693022605640704e-03 -8.2409342551791054e-03 0.0000000000000000e+00 0.0000000000000000e+00 0.0000000000000000e+00 0.0000000000000000e+00  9.1100110747034238e-02 2.0793547796557977e-03 0.0000000000000000e+00 2.0793547796557977e-03 3.0349120312147973e-04 0.0000000000000000e+00 0.0000000000000000e+00 0.0000000000000000e+00 0.0000000000000000e+00  -5.1293098400038961e-01 -7.9587554086267710e-03 0.0000000000000000e+00 -7.9587554086267710e-03 -2.9549144611659528e-01 0.0000000000000000e+00 0.0000000000000000e+00 0.0000000000000000e+00 0.0000000000000000e+00  6.5509619721253777e-03 -3.6364412366227797e-02 0.0000000000000000e+00 -3.6364412366227797e-02 -3.2824128624604779e-02 0.0000000000000000e+00 0.0000000000000000e+00 0.0000000000000000e+00 0.0000000000000000e+00  -6.5235070023101638e-02 7.2182121017434200e-03 0.0000000000000000e+00 7.2182121017434200e-03 -1.7858676424872552e-01 0.0000000000000000e+00 0.0000000000000000e+00 0.0000000000000000e+00 0.0000000000000000e+00  -1.0331273858938038e-01 1.0571133652039825e-02 0.0000000000000000e+00 1.0571133652039825e-02 -1.0395076170427639e-01 0.0000000000000000e+00 0.0000000000000000e+00 0.0000000000000000e+00 0.0000000000000000e+00  -9.7387697275843704e-02 8.6434878058401134e-03 0.0000000000000000e+00 8.6434878058401134e-03 -1.0647785782924594e-01 0.0000000000000000e+00 0.0000000000000000e+00 0.0000000000000000e+00 0.0000000000000000e+00  -9.9478921679173299e-02 1.2634683865596406e-02 0.0000000000000000e+00 1.2634683865596406e-02 -9.7267989200476676e-02 0.0000000000000000e+00 0.0000000000000000e+00 0.0000000000000000e+00 0.0000000000000000e+00  -9.8802456639844882e-02 1.1891121176531357e-02 0.0000000000000000e+00 1.1891121176531357e-02 -9.2486151095304489e-02 0.0000000000000000e+00 0.0000000000000000e+00 0.0000000000000000e+00 0.0000000000000000e+00  -9.8223795693865371e-02 1.2254061157588257e-02 0.0000000000000000e+00 1.2254061157588257e-02 -8.8854597183968972e-02 0.0000000000000000e+00 0.0000000000000000e+00 0.0000000000000000e+00 0.0000000000000000e+00  -9.7327066827694736e-02 1.1805706250864724e-02 0.0000000000000000e+00 1.1805706250864724e-02 -8.6498702640936398e-02 0.0000000000000000e+00 0.0000000000000000e+00 0.0000000000000000e+00 0.0000000000000000e+00  -9.6185003870808958e-02 1.1447541556921886e-02 0.0000000000000000e+00 1.1447541556921886e-02 -8.5213116320463120e-02 0.0000000000000000e+00 0.0000000000000000e+00 0.0000000000000000e+00 0.0000000000000000e+00  -9.4953772160875805e-02 1.1112147828397482e-02 0.0000000000000000e+00 1.1112147828397482e-02 -8.4676779312366626e-02 0.0000000000000000e+00 0.0000000000000000e+00 0.0000000000000000e+00 0.0000000000000000e+00  -9.3719591418078257e-02 1.0953908419548455e-02 0.0000000000000000e+00 1.0953908419548455e-02 -8.4641841001201326e-02 0.0000000000000000e+00 0.0000000000000000e+00 0.0000000000000000e+00 0.0000000000000000e+00  -9.2647751032479561e-02 1.0970137217646475e-02 0.0000000000000000e+00 1.0970137217646475e-02 -8.4797097229362198e-02 0.0000000000000000e+00 0.0000000000000000e+00 0.0000000000000000e+00 0.0000000000000000e+00  -9.1846403257395751e-02 1.1082432769702796e-02 0.0000000000000000e+00 1.1082432769702796e-02 -8.4911146815637786e-02 0.0000000000000000e+00 0.0000000000000000e+00 0.0000000000000000e+00 0.0000000000000000e+00  -9.1371570349817660e-02 1.1145792161824663e-02 0.0000000000000000e+00 1.1145792161824663e-02 -8.4846052102718714e-02 0.0000000000000000e+00 0.0000000000000000e+00 0.0000000000000000e+00 0.0000000000000000e+00  -9.1190723852361114e-02 1.0997599927186696e-02 0.0000000000000000e+00 1.0997599927186696e-02 -8.4598015985024769e-02 0.0000000000000000e+00 0.0000000000000000e+00 0.0000000000000000e+00 0.0000000000000000e+00  -9.1189368310352709e-02 1.0520986272765362e-02 0.0000000000000000e+00 1.0520986272765362e-02 -8.4286898209218336e-02 0.0000000000000000e+00 0.0000000000000000e+00 0.0000000000000000e+00 0.0000000000000000e+00  -9.1207660627123932e-02 9.6943469903691577e-03 0.0000000000000000e+00 9.6943469903691577e-03 -8.4103515802616019e-02 0.0000000000000000e+00 0.0000000000000000e+00 0.0000000000000000e+00 0.0000000000000000e+00  -9.1095327636307427e-02 8.6052773913538345e-03 0.0000000000000000e+00 8.6052773913538345e-03 -8.4232211976565413e-02 0.0000000000000000e+00 0.0000000000000000e+00 0.0000000000000000e+00 0.0000000000000000e+00  -9.0761734149299708e-02 7.4239611382221965e-03 0.0000000000000000e+00 7.4239611382221965e-03 -8.4779252389345860e-02 0.0000000000000000e+00 0.0000000000000000e+00 0.0000000000000000e+00 0.0000000000000000e+00  -9.0203378116422817e-02 6.3488166176570585e-03 0.0000000000000000e+00 6.3488166176570585e-03 -8.5732355814844341e-02 0.0000000000000000e+00 0.0000000000000000e+00 0.0000000000000000e+00 0.0000000000000000e+00  -8.9501920614058969e-02 5.5439644029750372e-03 0.0000000000000000e+00 5.5439644029750372e-03 -8.6962576308112910e-02 0.0000000000000000e+00 0.0000000000000000e+00 0.0000000000000000e+00 0.0000000000000000e+00  -8.8793608187407169e-02 5.0886160991555863e-03 0.0000000000000000e+00 5.0886160991555863e-03 -8.8267173955660513e-02 0.0000000000000000e+00 0.0000000000000000e+00 0.0000000000000000e+00 0.0000000000000000e+00  -8.8219041967941766e-02 4.9571160175758428e-03 0.0000000000000000e+00 4.9571160175758428e-03 -8.9439362900242736e-02 0.0000000000000000e+00 0.0000000000000000e+00 0.0000000000000000e+00 0.0000000000000000e+00  -8.7873249225848327e-02 5.0394583571382870e-03 0.0000000000000000e+00 5.0394583571382870e-03 -9.0337160388391929e-02 0.0000000000000000e+00 0.0000000000000000e+00 0.0000000000000000e+00 0.0000000000000000e+00  -8.7777646912629820e-02 5.1924683480680999e-03 0.0000000000000000e+00 5.1924683480680999e-03 -9.0922767185439443e-02 0.0000000000000000e+00 0.0000000000000000e+00 0.0000000000000000e+00 0.0000000000000000e+00  -8.7884750574716869e-02 5.2991507973658000e-03 0.0000000000000000e+00 5.2991507973658000e-03 -9.1256827807815688e-02 0.0000000000000000e+00 0.0000000000000000e+00 0.0000000000000000e+00 0.0000000000000000e+00  -8.8119242405087825e-02 5.2994895307550373e-03 0.0000000000000000e+00 5.2994895307550373e-03 -9.1450947186687156e-02 0.0000000000000000e+00 0.0000000000000000e+00 0.0000000000000000e+00 0.0000000000000000e+00  -8.8363176960922815e-02 5.2102629811195574e-03 0.0000000000000000e+00 5.2102629811195565e-03 -9.1654477961926509e-02 0.0000000000000000e+00 0.0000000000000000e+00 0.0000000000000000e+00 0.0000000000000000e+00  -8.8645643372586735e-02 5.1368336240974278e-03 0.0000000000000000e+00 5.1368336240974278e-03 -9.1881319750665755e-02 0.0000000000000000e+00 0.0000000000000000e+00 0.0000000000000000e+00 0.0000000000000000e+00  -8.8811232539331125e-02 5.0342182609601225e-03 0.0000000000000000e+00 5.0342182609601225e-03 -9.2235677075147418e-02 0.0000000000000000e+00 0.0000000000000000e+00 0.0000000000000000e+00 0.0000000000000000e+00  -8.9211816512680439e-02 5.5576731660810126e-03 0.0000000000000000e+00 5.5576731660810126e-03 -9.2495686739129668e-02 0.0000000000000000e+00 0.0000000000000000e+00 0.0000000000000000e+00 0.0000000000000000e+00  -8.9984344619150378e-02 4.7915941905244631e-03 0.0000000000000000e+00 4.7915941905244631e-03 -9.2091978715008280e-02 0.0000000000000000e+00 0.0000000000000000e+00 0.0000000000000000e+00 0.0000000000000000e+00  -8.9987479794428504e-02 7.3326049297009876e-03 0.0000000000000000e+00 7.3326049297009876e-03 -9.4236156489495376e-02 0.0000000000000000e+00 0.0000000000000000e+00 0.0000000000000000e+00 0.0000000000000000e+00  -9.5287446003037873e-02 2.4930619761469965e-03 0.0000000000000000e+00 2.4930619761469965e-03 -8.4057537096469598e-02 0.0000000000000000e+00 0.0000000000000000e+00 0.0000000000000000e+00 0.0000000000000000e+00  -8.3999823984693245e-02 5.0375289947258064e-03 0.0000000000000000e+00 5.0375289947258064e-03 -1.3357193594691075e-01 0.0000000000000000e+00 0.0000000000000000e+00 0.0000000000000000e+00 0.0000000000000000e+00  -6.7374641112977465e-03 5.5907603242623958e-03 0.0000000000000000e+00 5.5907603242623958e-03 -3.5535882231835021e-02 0.0000000000000000e+00 0.0000000000000000e+00 0.0000000000000000e+00 0.0000000000000000e+00  -4.3913254139089708e-01 -5.1270075217287096e-02 0.0000000000000000e+00 -5.1270075217287096e-02 -2.0726864943247392e-01 0.0000000000000000e+00 0.0000000000000000e+00 0.0000000000000000e+00 0.0000000000000000e+00  9.0609749103138029e-02 6.0538645551142467e-02 0.0000000000000000e+00 6.0538645551142467e-02 -1.9833815939254717e-02 0.0000000000000000e+00 0.0000000000000000e+00 0.0000000000000000e+00 0.0000000000000000e+00  -7.1732250790571177e-03 -1.0202455418071759e-02 0.0000000000000000e+00 -1.0202455418071759e-02 -2.2199815828913834e-03 0.0000000000000000e+00 0.0000000000000000e+00 0.0000000000000000e+00 0.0000000000000000e+00  1.1860773877789478e-02 -9.3846227587992886e-04 0.0000000000000000e+00 -9.3846227587992886e-04 9.3661895478699703e-03 0.0000000000000000e+00 0.0000000000000000e+00 0.0000000000000000e+00 0.0000000000000000e+00  7.1028780555359872e-03 3.7933530723077360e-04 0.0000000000000000e+00 3.7933530723077360e-04 7.0744303157793493e-03 0.0000000000000000e+00 0.0000000000000000e+00 0.0000000000000000e+00 0.0000000000000000e+00  7.6752523110840245e-03 -1.0014717011772433e-04 0.0000000000000000e+00 -1.0014717011772433e-04 7.6704927545355964e-03 0.0000000000000000e+00 0.0000000000000000e+00 0.0000000000000000e+00 0.0000000000000000e+00  7.6124317045138043e-03 1.5686197300386632e-05 0.0000000000000000e+00 1.5686197300386632e-05 7.6090145067105363e-03 0.0000000000000000e+00 0.0000000000000000e+00 0.0000000000000000e+00 0.0000000000000000e+00  7.6125573987582277e-03 1.7056987630762448e-05 0.0000000000000000e+00 1.7056987630762448e-05 7.6241846846733840e-03 0.0000000000000000e+00 0.0000000000000000e+00 0.0000000000000000e+00 0.0000000000000000e+00  7.6131821649420917e-03 3.6237709417664762e-05 0.0000000000000000e+00 3.6237709417664762e-05 7.6233450324501061e-03 0.0000000000000000e+00 0.0000000000000000e+00 0.0000000000000000e+00 0.0000000000000000e+00  7.6154741542496067e-03 5.4507641027289842e-05 0.0000000000000000e+00 5.4507641027289842e-05 7.6160952188192334e-03 0.0000000000000000e+00 0.0000000000000000e+00 0.0000000000000000e+00 0.0000000000000000e+00  7.6606096586602536e-03 -5.1403428979099214e-05 0.0000000000000000e+00 -5.1403428979099214e-05 7.6611199863656585e-03 0.0000000000000000e+00 0.0000000000000000e+00 0.0000000000000000e+00 0.0000000000000000e+00  7.6582154365440651e-03 -3.4708519945329922e-05 0.0000000000000000e+00 -3.4708519945329922e-05 7.6685499978053732e-03 0.0000000000000000e+00 0.0000000000000000e+00 0.0000000000000000e+00 0.0000000000000000e+00  7.6570067005954394e-03 -2.0136485702473373e-05 0.0000000000000000e+00 -2.0136485702473373e-05 7.6686687120111020e-03 0.0000000000000000e+00 0.0000000000000000e+00 0.0000000000000000e+00 0.0000000000000000e+00  7.6651851949612344e-03 -2.7089461843573443e-08 0.0000000000000000e+00 -2.7089461843573443e-08 7.6689366424797442e-03 0.0000000000000000e+00 0.0000000000000000e+00 0.0000000000000000e+00 0.0000000000000000e+00  7.6195597797784871e-03 -6.9520117693351975e-06 0.0000000000000000e+00 -6.9520117693351975e-06 7.6255567599010201e-03 0.0000000000000000e+00 0.0000000000000000e+00 0.0000000000000000e+00 0.0000000000000000e+00  7.9144627734809882e-03 -2.5669067539768071e-05 0.0000000000000000e+00 -2.5669067539768071e-05 7.7289438887118787e-03 0.0000000000000000e+00 0.0000000000000000e+00 0.0000000000000000e+00 0.0000000000000000e+00  6.8019384858820156e-03 1.1326222962341466e-03 0.0000000000000000e+00 1.1326222962341466e-03 7.5843299439837027e-03 0.0000000000000000e+00 0.0000000000000000e+00 0.0000000000000000e+00 0.0000000000000000e+00  9.5018013844822193e-03 -8.3201594843839276e-03 0.0000000000000000e+00 -8.3201594843839276e-03 3.1843964376269455e-03 0.0000000000000000e+00 0.0000000000000000e+00 0.0000000000000000e+00 0.0000000000000000e+00  3.1327132674255458e-02 5.6548221015362450e-02 0.0000000000000000e+00 5.6548221015362450e-02 2.8686258426886855e-02 0.0000000000000000e+00 0.0000000000000000e+00 0.0000000000000000e+00 0.0000000000000000e+00  -8.0436319433591641e-02 -1.5803770262294009e-01 0.0000000000000000e+00 -1.5803770262294009e-01 -1.2162680476130250e-01 0.0000000000000000e+00 0.0000000000000000e+00 0.0000000000000000e+00 0.0000000000000000e+00  -2.4348870727740241e-01 5.6225227034474017e-02 0.0000000000000000e+00 5.6225227034474017e-02 -8.2942152464666463e-02 0.0000000000000000e+00 0.0000000000000000e+00 0.0000000000000000e+00 0.0000000000000000e+00  -5.9633236437848958e-02 3.0203589194789885e-02 0.0000000000000000e+00 3.0203589194789885e-02 -9.9937538737449219e-02 0.0000000000000000e+00 0.0000000000000000e+00 0.0000000000000000e+00 0.0000000000000000e+00  -9.7530606417057839e-02 -2.3592009552499283e-02 0.0000000000000000e+00 -2.3592009552499283e-02 -1.0372562294280263e-01 0.0000000000000000e+00 0.0000000000000000e+00 0.0000000000000000e+00 0.0000000000000000e+00  -9.2810227725943065e-02 -1.4569375660690052e-03 0.0000000000000000e+00 -1.4569375660690052e-03 -9.0623215311611063e-02 0.0000000000000000e+00 0.0000000000000000e+00 0.0000000000000000e+00 0.0000000000000000e+00  -9.1032547397047137e-02 -9.1507169767852878e-03 0.0000000000000000e+00 -9.1507169767852878e-03 -9.3392309371249774e-02 0.0000000000000000e+00 0.0000000000000000e+00 0.0000000000000000e+00 0.0000000000000000e+00  -8.9617719997683490e-02 -5.3284503171254737e-03 0.0000000000000000e+00 -5.3284503171254737e-03 -9.2911898548313582e-02 0.0000000000000000e+00 0.0000000000000000e+00 0.0000000000000000e+00 0.0000000000000000e+00  -8.9856334635067522e-02 -5.9460851166542456e-03 0.0000000000000000e+00 -5.9460851166542456e-03 -9.2043193846109858e-02 0.0000000000000000e+00 0.0000000000000000e+00 0.0000000000000000e+00 0.0000000000000000e+00  -8.9243235597784465e-02 -5.7305614194756264e-03 0.0000000000000000e+00 -5.7305614194756264e-03 -9.1725341758932252e-02 0.0000000000000000e+00 0.0000000000000000e+00 0.0000000000000000e+00 0.0000000000000000e+00  -8.9100769909788852e-02 -5.9219838169554413e-03 0.0000000000000000e+00 -5.9219838169554413e-03 -9.1250432955982841e-02 0.0000000000000000e+00 0.0000000000000000e+00 0.0000000000000000e+00 0.0000000000000000e+00  -8.8639542015199704e-02 -6.0355738942992725e-03 0.0000000000000000e+00 -6.0355738942992725e-03 -9.1181465491529404e-02 0.0000000000000000e+00 0.0000000000000000e+00 0.0000000000000000e+00 0.0000000000000000e+00  -8.8289548754143229e-02 -5.9322733753766031e-03 0.0000000000000000e+00 -5.9322733753766031e-03 -9.1110372878549978e-02 0.0000000000000000e+00 0.0000000000000000e+00 0.0000000000000000e+00 0.0000000000000000e+00  -8.8081999923529886e-02 -5.6161969882881540e-03 0.0000000000000000e+00 -5.6161969882881540e-03 -9.0897334284039136e-02 0.0000000000000000e+00 0.0000000000000000e+00 0.0000000000000000e+00 0.0000000000000000e+00  -8.8171729497225099e-02 -5.1478468253007056e-03 0.0000000000000000e+00 -5.1478468253007056e-03 -9.0321185923222400e-02 0.0000000000000000e+00 0.0000000000000000e+00 0.0000000000000000e+00 0.0000000000000000e+00  -8.8648867975846785e-02 -4.7190333101418628e-03 0.0000000000000000e+00 -4.7190333101418628e-03 -8.9251427007787459e-02 0.0000000000000000e+00 0.0000000000000000e+00 0.0000000000000000e+00 0.0000000000000000e+00  -8.9493180925151364e-02 -4.5709125942025603e-03 0.0000000000000000e+00 -4.5709125942025603e-03 -8.7725301177028314e-02 0.0000000000000000e+00 0.0000000000000000e+00 0.0000000000000000e+00 0.0000000000000000e+00  -9.0560818157126091e-02 -4.9010037306806116e-03 0.0000000000000000e+00 -4.9010037306806116e-03 -8.5961347359441692e-02 0.0000000000000000e+00 0.0000000000000000e+00 0.0000000000000000e+00 0.0000000000000000e+00  -9.1625715299812407e-02 -5.7666991945308230e-03 0.0000000000000000e+00 -5.7666991945308204e-03 -8.4298378687105366e-02 0.0000000000000000e+00 0.0000000000000000e+00 0.0000000000000000e+00 0.0000000000000000e+00  -9.2468331472003285e-02 -7.0492897002096449e-03 0.0000000000000000e+00 -7.0492897002096449e-03 -8.3071276096897337e-02 0.0000000000000000e+00 0.0000000000000000e+00 0.0000000000000000e+00 0.0000000000000000e+00  -9.2957387699146687e-02 -8.4913245097339527e-03 0.0000000000000000e+00 -8.4913245097339527e-03 -8.2491897152441901e-02 0.0000000000000000e+00 0.0000000000000000e+00 0.0000000000000000e+00 0.0000000000000000e+00  -9.3095617466931693e-02 -9.7801340674889652e-03 0.0000000000000000e+00 -9.7801340674889652e-03 -8.2579661244666633e-02 0.0000000000000000e+00 0.0000000000000000e+00 0.0000000000000000e+00 0.0000000000000000e+00  -9.3023324779120647e-02 -1.0646539123896929e-02 0.0000000000000000e+00 -1.0646539123896929e-02 -8.3157526488416303e-02 0.0000000000000000e+00 0.0000000000000000e+00 0.0000000000000000e+00 0.0000000000000000e+00  -9.2979620765871462e-02 -1.0953571366445043e-02 0.0000000000000000e+00 -1.0953571366445043e-02 -8.3914445142903610e-02 0.0000000000000000e+00 0.0000000000000000e+00 0.0000000000000000e+00 0.0000000000000000e+00  -9.3224558750355374e-02 -1.0745305157517005e-02 0.0000000000000000e+00 -1.0745305157517005e-02 -8.4523352791832151e-02 0.0000000000000000e+00 0.0000000000000000e+00 0.0000000000000000e+00 0.0000000000000000e+00  -9.3945835952097559e-02 -1.0224864315375991e-02 0.0000000000000000e+00 -1.0224864315375991e-02 -8.4776428949085200e-02 0.0000000000000000e+00 0.0000000000000000e+00 0.0000000000000000e+00 0.0000000000000000e+00  -9.5200574374230865e-02 -9.6632801639179467e-03 0.0000000000000000e+00 -9.6632801639179467e-03 -8.4671736123124355e-02 0.0000000000000000e+00 0.0000000000000000e+00 0.0000000000000000e+00 0.0000000000000000e+00  -9.6921403435368925e-02 -9.2933080316372242e-03 0.0000000000000000e+00 -9.2933080316372242e-03 -8.4416906565768168e-02 0.0000000000000000e+00 0.0000000000000000e+00 0.0000000000000000e+00 0.0000000000000000e+00  -9.8939887185943876e-02 -9.2222982744207312e-03 0.0000000000000000e+00 -9.2222982744207312e-03 -8.4384365178520868e-02 0.0000000000000000e+00 0.0000000000000000e+00 0.0000000000000000e+00 0.0000000000000000e+00  -1.0119211271068150e-01 -9.4069735576738957e-03 0.0000000000000000e+00 -9.4069735576738957e-03 -8.4908859364628247e-02 0.0000000000000000e+00 0.0000000000000000e+00 0.0000000000000000e+00 0.0000000000000000e+00  -1.0335638296822876e-01 -9.8008894000393039e-03 0.0000000000000000e+00 -9.8008894000393022e-03 -8.6571933164851331e-02 0.0000000000000000e+00 0.0000000000000000e+00 0.0000000000000000e+00 0.0000000000000000e+00  -1.0583865599195394e-01 -9.5333407957969157e-03 0.0000000000000000e+00 -9.5333407957969157e-03 -8.9291448164944554e-02 0.0000000000000000e+00 0.0000000000000000e+00 0.0000000000000000e+00 0.0000000000000000e+00  -1.0845767286113281e-01 -1.0400996311567047e-02 0.0000000000000000e+00 -1.0400996311567047e-02 -9.3722364799146057e-02 0.0000000000000000e+00 0.0000000000000000e+00 0.0000000000000000e+00 0.0000000000000000e+00  -1.1135671340056678e-01 -5.6755217079602479e-03 0.0000000000000000e+00 -5.6755217079602488e-03 -9.9662290386498972e-02 0.0000000000000000e+00 0.0000000000000000e+00 0.0000000000000000e+00 0.0000000000000000e+00  -1.1729213843561026e-01 -1.3250961144002498e-02 0.0000000000000000e+00 -1.3250961144002498e-02 -1.0711684418140544e-01 0.0000000000000000e+00 0.0000000000000000e+00 0.0000000000000000e+00 0.0000000000000000e+00  -1.1845163042331702e-01 1.4771244118576552e-02 0.0000000000000000e+00 1.4771244118576552e-02 -1.2833157615017468e-01 0.0000000000000000e+00 0.0000000000000000e+00 0.0000000000000000e+00 0.0000000000000000e+00  -5.8439651579268885e-02 -2.2346860564334065e-02 0.0000000000000000e+00 -2.2346860564334065e-02 -1.3503250510711193e-01 0.0000000000000000e+00 0.0000000000000000e+00 0.0000000000000000e+00 0.0000000000000000e+00  -3.7899796710601680e-01 -4.1840284744341635e-02 0.0000000000000000e+00 -4.1840284744341635e-02 -1.5462949400929366e-01 0.0000000000000000e+00 0.0000000000000000e+00 0.0000000000000000e+00 0.0000000000000000e+00  -2.5010172641598445e-02 1.2464304438054935e-01 0.0000000000000000e+00 1.2464304438054935e-01 -1.2271504215067477e-01 0.0000000000000000e+00 0.0000000000000000e+00 0.0000000000000000e+00 0.0000000000000000e+00  8.0126739352591448e-04 -3.0513455659824176e-02 0.0000000000000000e+00 -3.0513455659824183e-02 3.6324717845943456e-03 0.0000000000000000e+00 0.0000000000000000e+00 0.0000000000000000e+00 0.0000000000000000e+00  5.8631249254171361e-03 2.3386173128898818e-03 0.0000000000000000e+00 2.3386173128898827e-03 1.5807468543287326e-03 0.0000000000000000e+00 0.0000000000000000e+00 0.0000000000000000e+00 0.0000000000000000e+00  1.4053510603598705e-03 2.6134254449591317e-04 0.0000000000000000e+00 2.6134254449591311e-04 1.8410035003078840e-03 0.0000000000000000e+00 0.0000000000000000e+00 0.0000000000000000e+00 0.0000000000000000e+00  2.4490377028495510e-03 -9.8723969945710037e-05 0.0000000000000000e+00 -9.8723969945710009e-05 2.3123276334706859e-03 0.0000000000000000e+00 0.0000000000000000e+00 0.0000000000000000e+00 0.0000000000000000e+00  1.5597683401803964e-03 -5.7709778994731181e-05 0.0000000000000000e+00 -5.7709778994731181e-05 1.9457098588867080e-03 0.0000000000000000e+00 0.0000000000000000e+00 0.0000000000000000e+00 0.0000000000000000e+00  5.0555774613652536e-03 -2.8268427720246399e-03 0.0000000000000000e+00 -2.8268427720246399e-03 9.1318756602884910e-04 0.0000000000000000e+00 0.0000000000000000e+00 0.0000000000000000e+00 0.0000000000000000e+00  2.9891442340145321e-03 3.1976305589675375e-02 0.0000000000000000e+00 3.1976305589675375e-02 4.3586495116792138e-03 0.0000000000000000e+00 0.0000000000000000e+00 0.0000000000000000e+00 0.0000000000000000e+00  -4.0276691259878802e-02 -1.2685268819956924e-01 0.0000000000000000e+00 -1.2685268819956924e-01 -1.3558423765764827e-01 0.0000000000000000e+00 0.0000000000000000e+00 0.0000000000000000e+00 0.0000000000000000e+00  -3.7444812885840512e-01 4.0893585821456899e-02 0.0000000000000000e+00 4.0893585821456899e-02 -1.4596766639404629e-01 0.0000000000000000e+00 0.0000000000000000e+00 0.0000000000000000e+00 0.0000000000000000e+00  -7.0426721170565615e-02 2.6903106549209726e-02 0.0000000000000000e+00 2.6903106549209726e-02 -1.3983120741239219e-01 0.0000000000000000e+00 0.0000000000000000e+00 0.0000000000000000e+00 0.0000000000000000e+00  -1.2561265270468841e-01 -1.3559211857557457e-02 0.0000000000000000e+00 -1.3559211857557457e-02 -1.2583378087625088e-01 0.0000000000000000e+00 0.0000000000000000e+00 0.0000000000000000e+00 0.0000000000000000e+00  -1.2256253653736252e-01 1.4660901529785546e-02 0.0000000000000000e+00 1.4660901529785546e-02 -1.0619992028885608e-01 0.0000000000000000e+00 0.0000000000000000e+00 0.0000000000000000e+00 0.0000000000000000e+00  -1.1545238102549564e-01 6.4490925565117143e-03 0.0000000000000000e+00 6.4490925565117143e-03 -9.8148746693724226e-02 0.0000000000000000e+00 0.0000000000000000e+00 0.0000000000000000e+00 0.0000000000000000e+00  -1.1154323576476362e-01 1.0785992456239126e-02 0.0000000000000000e+00 1.0785992456239126e-02 -9.2430991897897913e-02 0.0000000000000000e+00 0.0000000000000000e+00 0.0000000000000000e+00 0.0000000000000000e+00  -1.0813363522294268e-01 9.6695754013476042e-03 0.0000000000000000e+00 9.6695754013476042e-03 -8.8274739984846695e-02 0.0000000000000000e+00 0.0000000000000000e+00 0.0000000000000000e+00 0.0000000000000000e+00  -1.0503400033921335e-01 9.7897440271354306e-03 0.0000000000000000e+00 9.7897440271354306e-03 -8.5873435083654581e-02 0.0000000000000000e+00 0.0000000000000000e+00 0.0000000000000000e+00 0.0000000000000000e+00  -1.0240667157504095e-01 9.3287241976110630e-03 0.0000000000000000e+00 9.3287241976110630e-03 -8.4493147100874036e-02 0.0000000000000000e+00 0.0000000000000000e+00 0.0000000000000000e+00 0.0000000000000000e+00  -9.9811268263720165e-02 9.1194406274450884e-03 0.0000000000000000e+00 9.1194406274450884e-03 -8.4198128227237712e-02 0.0000000000000000e+00 0.0000000000000000e+00 0.0000000000000000e+00 0.0000000000000000e+00  -9.7545675070580304e-02 9.1889079759449391e-03 0.0000000000000000e+00 9.1889079759449391e-03 -8.4398998329425087e-02 0.0000000000000000e+00 0.0000000000000000e+00 0.0000000000000000e+00 0.0000000000000000e+00  -9.5649841347293332e-02 9.5637400553957481e-03 0.0000000000000000e+00 9.5637400553957481e-03 -8.4766940998792908e-02 0.0000000000000000e+00 0.0000000000000000e+00 0.0000000000000000e+00 0.0000000000000000e+00  -9.4272538617911683e-02 1.0128541264337741e-02 0.0000000000000000e+00 1.0128541264337741e-02 -8.4940052014967182e-02 0.0000000000000000e+00 0.0000000000000000e+00 0.0000000000000000e+00 0.0000000000000000e+00  -9.3466047906414357e-02 1.0646811520662800e-02 0.0000000000000000e+00 1.0646811520662800e-02 -8.4721568202576841e-02 0.0000000000000000e+00 0.0000000000000000e+00 0.0000000000000000e+00 0.0000000000000000e+00  -9.3161840632295809e-02 1.0846873217664249e-02 0.0000000000000000e+00 1.0846873217664249e-02 -8.4123271830797805e-02 0.0000000000000000e+00 0.0000000000000000e+00 0.0000000000000000e+00 0.0000000000000000e+00  -9.3164162489430949e-02 1.0526488945852364e-02 0.0000000000000000e+00 1.0526488945852364e-02 -8.3360823336108059e-02 0.0000000000000000e+00 0.0000000000000000e+00 0.0000000000000000e+00 0.0000000000000000e+00  -9.3207382918612414e-02 9.6430059829802819e-03 0.0000000000000000e+00 9.6430059829802819e-03 -8.2767228857268962e-02 0.0000000000000000e+00 0.0000000000000000e+00 0.0000000000000000e+00 0.0000000000000000e+00  -9.3048567324461998e-02 8.3347943814393293e-03 0.0000000000000000e+00 8.3347943814393293e-03 -8.2657925871403373e-02 0.0000000000000000e+00 0.0000000000000000e+00 0.0000000000000000e+00 0.0000000000000000e+00  -9.2544686231014764e-02 6.8721849768571637e-03 0.0000000000000000e+00 6.8721849768571637e-03 -8.3213254683837293e-02 0.0000000000000000e+00 0.0000000000000000e+00 0.0000000000000000e+00 0.0000000000000000e+00  -9.1690869230052846e-02 5.5688192429180980e-03 0.0000000000000000e+00 5.5688192429180980e-03 -8.4416395392075683e-02 0.0000000000000000e+00 0.0000000000000000e+00 0.0000000000000000e+00 0.0000000000000000e+00  -9.0616620690066388e-02 4.6831951563778423e-03 0.0000000000000000e+00 4.6831951563778423e-03 -8.6057515956712974e-02 0.0000000000000000e+00 0.0000000000000000e+00 0.0000000000000000e+00 0.0000000000000000e+00  -8.9540171054584852e-02 4.3353021431407936e-03 0.0000000000000000e+00 4.3353021431407936e-03 -8.7802991504862982e-02 0.0000000000000000e+00 0.0000000000000000e+00 0.0000000000000000e+00 0.0000000000000000e+00  -8.8686945851734408e-02 4.4690692026102168e-03 0.0000000000000000e+00 4.4690692026102168e-03 -8.9314246369040520e-02 0.0000000000000000e+00 0.0000000000000000e+00 0.0000000000000000e+00 0.0000000000000000e+00  -8.8200770323247205e-02 4.8879010920091235e-03 0.0000000000000000e+00 4.8879010920091235e-03 -9.0372065026474574e-02 0.0000000000000000e+00 0.0000000000000000e+00 0.0000000000000000e+00 0.0000000000000000e+00  -8.8102019237389056e-02 5.3509635166345652e-03 0.0000000000000000e+00 5.3509635166345652e-03 -9.0938153800208518e-02 0.0000000000000000e+00 0.0000000000000000e+00 0.0000000000000000e+00 0.0000000000000000e+00  -8.8300715677098671e-02 5.6663877979421856e-03 0.0000000000000000e+00 5.6663877979421856e-03 -9.1141871857373241e-02 0.0000000000000000e+00 0.0000000000000000e+00 0.0000000000000000e+00 0.0000000000000000e+00  -8.8641368555139974e-02 5.7734410429151695e-03 0.0000000000000000e+00 5.7734410429151686e-03 -9.1203895940083768e-02 0.0000000000000000e+00 0.0000000000000000e+00 0.0000000000000000e+00 0.0000000000000000e+00  -8.9092688576380558e-02 5.6695816384264011e-03 0.0000000000000000e+00 5.6695816384264011e-03 -9.1262349723122319e-02 0.0000000000000000e+00 0.0000000000000000e+00 0.0000000000000000e+00 0.0000000000000000e+00  -8.9226561404555330e-02 5.4911312406851027e-03 0.0000000000000000e+00 5.4911312406851010e-03 -9.1722458678832247e-02 0.0000000000000000e+00 0.0000000000000000e+00 0.0000000000000000e+00 0.0000000000000000e+00  -8.9826731339020235e-02 5.7327619206991136e-03 0.0000000000000000e+00 5.7327619206991162e-03 -9.2021140476027899e-02 0.0000000000000000e+00 0.0000000000000000e+00 0.0000000000000000e+00 0.0000000000000000e+00  -8.9597958812330153e-02 5.1298230468919456e-03 0.0000000000000000e+00 5.1298230468919447e-03 -9.2852513550104279e-02 0.0000000000000000e+00 0.0000000000000000e+00 0.0000000000000000e+00 0.0000000000000000e+00  -9.0998077400414532e-02 9.0002267707515789e-03 0.0000000000000000e+00 9.0002267707515789e-03 -9.3274961501829082e-02 0.0000000000000000e+00 0.0000000000000000e+00 0.0000000000000000e+00 0.0000000000000000e+00  -9.2823155167010341e-02 1.2509981057796556e-03 0.0000000000000000e+00 1.2509981057796556e-03 -9.0513112086727271e-02 0.0000000000000000e+00 0.0000000000000000e+00 0.0000000000000000e+00 0.0000000000000000e+00  -9.7504401054292908e-02 2.3577207771816450e-02 0.0000000000000000e+00 2.3577207771816450e-02 -1.0323128356644905e-01 0.0000000000000000e+00 0.0000000000000000e+00 0.0000000000000000e+00 0.0000000000000000e+00  -5.9977277304080909e-02 -3.0629631906317345e-02 0.0000000000000000e+00 -3.0629631906317345e-02 -1.0025300073718832e-01 0.0000000000000000e+00 0.0000000000000000e+00 0.0000000000000000e+00 0.0000000000000000e+00  -2.4229899501799837e-01 -5.5995417974480440e-02 0.0000000000000000e+00 -5.5995417974480440e-02 -8.1705788373919619e-02 0.0000000000000000e+00 0.0000000000000000e+00 0.0000000000000000e+00 0.0000000000000000e+00  -8.2416700090115896e-02 1.5821852473337356e-01 0.0000000000000000e+00 1.5821852473337356e-01 -1.2277138531081608e-01 0.0000000000000000e+00 0.0000000000000000e+00 0.0000000000000000e+00 0.0000000000000000e+00  3.1849730015353926e-02 -5.6761320873180615e-02 0.0000000000000000e+00 -5.6761320873180615e-02 2.9078130357792002e-02 0.0000000000000000e+00 0.0000000000000000e+00 0.0000000000000000e+00 0.0000000000000000e+00  9.5146707844997267e-03 8.3919413084437827e-03 0.0000000000000000e+00 8.3919413084437827e-03 3.1917565045001066e-03 0.0000000000000000e+00 0.0000000000000000e+00 0.0000000000000000e+00 0.0000000000000000e+00  6.7359030808620372e-03 -1.1399925567119025e-03 0.0000000000000000e+00 -1.1399925567119025e-03 7.5203344856117574e-03 0.0000000000000000e+00 0.0000000000000000e+00 0.0000000000000000e+00 0.0000000000000000e+00  7.8579802000776546e-03 3.7282201685657636e-05 0.0000000000000000e+00 3.7282201685657636e-05 7.6654412408211385e-03 0.0000000000000000e+00 0.0000000000000000e+00 0.0000000000000000e+00 0.0000000000000000e+00  7.5551903957392459e-03 7.5828203526284703e-06 0.0000000000000000e+00 7.5828203526284703e-06 7.5641221399007676e-03 0.0000000000000000e+00 0.0000000000000000e+00 0.0000000000000000e+00 0.0000000000000000e+00  7.6025439782651900e-03 1.0130984419668589e-06 0.0000000000000000e+00 1.0130984419668589e-06 7.6082446907749339e-03 0.0000000000000000e+00 0.0000000000000000e+00 0.0000000000000000e+00 0.0000000000000000e+00  7.5941577871664299e-03 2.0245449986464645e-05 0.0000000000000000e+00 2.0245449986464645e-05 7.6070616826921303e-03 0.0000000000000000e+00 0.0000000000000000e+00 0.0000000000000000e+00 0.0000000000000000e+00  7.5953951978634370e-03 3.4500710362703798e-05 0.0000000000000000e+00 3.4500710362703798e-05 7.6065327413068753e-03 0.0000000000000000e+00 0.0000000000000000e+00 0.0000000000000000e+00 0.0000000000000000e+00  7.5979889707289755e-03 5.0882855343002899e-05 0.0000000000000000e+00 5.0882855343002899e-05 7.5984955451192928e-03 0.0000000000000000e+00 0.0000000000000000e+00 0.0000000000000000e+00 0.0000000000000000e+00  7.6450711090947799e-03 -4.7790886924826539e-05 0.0000000000000000e+00 -4.7790886924826539e-05 7.6455291983692992e-03 0.0000000000000000e+00 0.0000000000000000e+00 0.0000000000000000e+00 0.0000000000000000e+00  7.6423898606218779e-03 -3.3383370171714166e-05 0.0000000000000000e+00 -3.3383370171714166e-05 7.6531881435281121e-03 0.0000000000000000e+00 0.0000000000000000e+00 0.0000000000000000e+00 0.0000000000000000e+00  7.6423335820896242e-03 -1.9387231195791294e-05 0.0000000000000000e+00 -1.9387231195791294e-05 7.6555422991562106e-03 0.0000000000000000e+00 0.0000000000000000e+00 0.0000000000000000e+00 0.0000000000000000e+00  7.6397774587470260e-03 -6.6565310306044993e-06 0.0000000000000000e+00 -6.6565310306044993e-06 7.6503441094770575e-03 0.0000000000000000e+00 0.0000000000000000e+00 0.0000000000000000e+00 0.0000000000000000e+00  7.6600422874203199e-03 -8.3081315036106326e-06 0.0000000000000000e+00 -8.3081315036106326e-06 7.6451921265321132e-03 0.0000000000000000e+00 0.0000000000000000e+00 0.0000000000000000e+00 0.0000000000000000e+00  7.6114627483739377e-03 1.2710266505238673e-04 0.0000000000000000e+00 1.2710266505238673e-04 7.6555610111254070e-03 0.0000000000000000e+00 0.0000000000000000e+00 0.0000000000000000e+00 0.0000000000000000e+00  7.6155335693798053e-03 -7.4797208238241389e-04 0.0000000000000000e+00 -7.4797208238241389e-04 7.2371845995646061e-03 0.0000000000000000e+00 0.0000000000000000e+00 0.0000000000000000e+00 0.0000000000000000e+00  9.5751653817465771e-03 4.2557295686678851e-03 0.0000000000000000e+00 4.2557295686678851e-03 1.0111789537672354e-02 0.0000000000000000e+00 0.0000000000000000e+00 0.0000000000000000e+00 0.0000000000000000e+00  -4.9457358038787610e-03 -1.6537444286976320e-02 0.0000000000000000e+00 -1.6537444286976320e-02 -8.3823012872070689e-03 0.0000000000000000e+00 0.0000000000000000e+00 0.0000000000000000e+00 0.0000000000000000e+00  9.1062546949093770e-02 7.4938470193777251e-02 0.0000000000000000e+00 7.4938470193777251e-02 6.5802181376411278e-02 0.0000000000000000e+00 0.0000000000000000e+00 0.0000000000000000e+00 0.0000000000000000e+00  -2.2925371169203576e-01 -1.6074530035806306e-01 0.0000000000000000e+00 -1.6074530035806306e-01 -1.9633722703271195e-01 0.0000000000000000e+00 0.0000000000000000e+00 0.0000000000000000e+00 0.0000000000000000e+00  -1.0037341235276519e-01 1.9909278952931542e-02 0.0000000000000000e+00 1.9909278952931542e-02 -2.9297438946934162e-02 0.0000000000000000e+00 0.0000000000000000e+00 0.0000000000000000e+00 0.0000000000000000e+00  -9.7471127162279805e-02 3.7953904217826927e-02 0.0000000000000000e+00 3.7953904217826927e-02 -1.1406074469525992e-01 0.0000000000000000e+00 0.0000000000000000e+00 0.0000000000000000e+00 0.0000000000000000e+00  -9.6277648126285656e-02 -3.0028253969820902e-02 0.0000000000000000e+00 -3.0028253969820902e-02 -9.7543219827264271e-02 0.0000000000000000e+00 0.0000000000000000e+00 0.0000000000000000e+00 0.0000000000000000e+00  -8.9359526036617939e-02 -1.7548150576655391e-03 0.0000000000000000e+00 -1.7548150576655391e-03 -9.4545349243088730e-02 0.0000000000000000e+00 0.0000000000000000e+00 0.0000000000000000e+00 0.0000000000000000e+00  -9.2251353342012302e-02 -8.3238369774105269e-03 0.0000000000000000e+00 -8.3238369774105269e-03 -9.2771332019981209e-02 0.0000000000000000e+00 0.0000000000000000e+00 0.0000000000000000e+00 0.0000000000000000e+00  -8.9235624439783473e-02 -5.6969981741486720e-03 0.0000000000000000e+00 -5.6969981741486720e-03 -9.2918154866474076e-02 0.0000000000000000e+00 0.0000000000000000e+00 0.0000000000000000e+00 0.0000000000000000e+00  -9.0654104402550229e-02 -6.1576010087965333e-03 0.0000000000000000e+00 -6.1576010087965333e-03 -9.0864142820178712e-02 0.0000000000000000e+00 0.0000000000000000e+00 0.0000000000000000e+00 0.0000000000000000e+00  -8.9493339476858752e-02 -6.5809452702882227e-03 0.0000000000000000e+00 -6.5809452702882227e-03 -9.1008931176463637e-02 0.0000000000000000e+00 0.0000000000000000e+00 0.0000000000000000e+00 0.0000000000000000e+00  -8.9119430633982838e-02 -6.6147426066880408e-03 0.0000000000000000e+00 -6.6147426066880408e-03 -9.0930979418105823e-02 0.0000000000000000e+00 0.0000000000000000e+00 0.0000000000000000e+00 0.0000000000000000e+00  -8.8541811305703613e-02 -6.4606799988530276e-03 0.0000000000000000e+00 -6.4606799988530276e-03 -9.1163176111684188e-02 0.0000000000000000e+00 0.0000000000000000e+00 0.0000000000000000e+00 0.0000000000000000e+00  -8.8164811878064325e-02 -5.8529465037170632e-03 0.0000000000000000e+00 -5.8529465037170632e-03 -9.1239340801467214e-02 0.0000000000000000e+00 0.0000000000000000e+00 0.0000000000000000e+00 0.0000000000000000e+00  -8.8212181939206616e-02 -4.9431854725327214e-03 0.0000000000000000e+00 -4.9431854725327214e-03 -9.0771026263325089e-02 0.0000000000000000e+00 0.0000000000000000e+00 0.0000000000000000e+00 0.0000000000000000e+00  -8.8827956225555962e-02 -4.0020069108505502e-03 0.0000000000000000e+00 -4.0020069108505502e-03 -8.9529585863879893e-02 0.0000000000000000e+00 0.0000000000000000e+00 0.0000000000000000e+00 0.0000000000000000e+00  -9.0025792102012975e-02 -3.4371634783339671e-03 0.0000000000000000e+00 -3.4371634783339671e-03 -8.7516163507992475e-02 0.0000000000000000e+00 0.0000000000000000e+00 0.0000000000000000e+00 0.0000000000000000e+00  -9.1582235822908670e-02 -3.6021819751255600e-03 0.0000000000000000e+00 -3.6021819751255600e-03 -8.5077043227375804e-02 0.0000000000000000e+00 0.0000000000000000e+00 0.0000000000000000e+00 0.0000000000000000e+00  -9.3132463389620265e-02 -4.6056262863729712e-03 0.0000000000000000e+00 -4.6056262863729712e-03 -8.2775911313161005e-02 0.0000000000000000e+00 0.0000000000000000e+00 0.0000000000000000e+00 0.0000000000000000e+00  -9.4330791453214657e-02 -6.2586628040841655e-03 0.0000000000000000e+00 -6.2586628040841655e-03 -8.1163743941517624e-02 0.0000000000000000e+00 0.0000000000000000e+00 0.0000000000000000e+00 0.0000000000000000e+00  -9.4978374026925855e-02 -8.1553853096142867e-03 0.0000000000000000e+00 -8.1553853096142867e-03 -8.0578993394549034e-02 0.0000000000000000e+00 0.0000000000000000e+00 0.0000000000000000e+00 0.0000000000000000e+00  -9.5077068368097387e-02 -9.8089003515029628e-03 0.0000000000000000e+00 -9.8089003515029628e-03 -8.1049240084430665e-02 0.0000000000000000e+00 0.0000000000000000e+00 0.0000000000000000e+00 0.0000000000000000e+00  -9.4833591890348332e-02 -1.0792987058985588e-02 0.0000000000000000e+00 -1.0792987058985588e-02 -8.2285219660595280e-02 0.0000000000000000e+00 0.0000000000000000e+00 0.0000000000000000e+00 0.0000000000000000e+00  -9.4617897539194321e-02 -1.0881685911825759e-02 0.0000000000000000e+00 -1.0881685911825759e-02 -8.3764789800034434e-02 0.0000000000000000e+00 0.0000000000000000e+00 0.0000000000000000e+00 0.0000000000000000e+00  -9.4849379723431451e-02 -1.0147428556605569e-02 0.0000000000000000e+00 -1.0147428556605569e-02 -8.4921509338884552e-02 0.0000000000000000e+00 0.0000000000000000e+00 0.0000000000000000e+00 0.0000000000000000e+00  -9.5834326215061216e-02 -8.9382240720256821e-03 0.0000000000000000e+00 -8.9382240720256821e-03 -8.5387364075955527e-02 0.0000000000000000e+00 0.0000000000000000e+00 0.0000000000000000e+00 0.0000000000000000e+00  -9.7647803361594579e-02 -7.7057756953143692e-03 0.0000000000000000e+00 -7.7057756953143692e-03 -8.5161650119309498e-02 0.0000000000000000e+00 0.0000000000000000e+00 0.0000000000000000e+00 0.0000000000000000e+00  -1.0018495030874119e-01 -6.7926142824650303e-03 0.0000000000000000e+00 -6.7926142824650303e-03 -8.4564794491784820e-02 0.0000000000000000e+00 0.0000000000000000e+00 0.0000000000000000e+00 0.0000000000000000e+00  -1.0329636120307781e-01 -6.3830360245496678e-03 0.0000000000000000e+00 -6.3830360245496678e-03 -8.4105888904270273e-02 0.0000000000000000e+00 0.0000000000000000e+00 0.0000000000000000e+00 0.0000000000000000e+00  -1.0652849773812754e-01 -6.3447874343293305e-03 0.0000000000000000e+00 -6.3447874343293305e-03 -8.4592394032111842e-02 0.0000000000000000e+00 0.0000000000000000e+00 0.0000000000000000e+00 0.0000000000000000e+00  -1.1071196995302308e-01 -6.2945129163126511e-03 0.0000000000000000e+00 -6.2945129163126511e-03 -8.5821792292719828e-02 0.0000000000000000e+00 0.0000000000000000e+00 0.0000000000000000e+00 0.0000000000000000e+00  -1.1398077180590656e-01 -6.9949203141125450e-03 0.0000000000000000e+00 -6.9949203141125450e-03 -8.9871151321484502e-02 0.0000000000000000e+00 0.0000000000000000e+00 0.0000000000000000e+00 0.0000000000000000e+00  -1.1941133967769432e-01 -2.4346189608361935e-03 0.0000000000000000e+00 -2.4346189608361935e-03 -9.4357209354515567e-02 0.0000000000000000e+00 0.0000000000000000e+00 0.0000000000000000e+00 0.0000000000000000e+00  -1.2690178171332558e-01 -1.0157831545780425e-02 0.0000000000000000e+00 -1.0157831545780425e-02 -1.0282689242601145e-01 0.0000000000000000e+00 0.0000000000000000e+00 0.0000000000000000e+00 0.0000000000000000e+00  -1.3254810073484555e-01 2.3498179236149944e-02 0.0000000000000000e+00 2.3498179236149944e-02 -1.0783302229614669e-01 0.0000000000000000e+00 0.0000000000000000e+00 0.0000000000000000e+00 0.0000000000000000e+00  -1.3914479439457206e-01 -4.0105374390445085e-02 0.0000000000000000e+00 -4.0105374390445085e-02 -1.6941857675050154e-01 0.0000000000000000e+00 0.0000000000000000e+00 0.0000000000000000e+00 0.0000000000000000e+00  -1.4395188210445839e-01 1.6313449645472187e-02 0.0000000000000000e+00 1.6313449645472187e-02 -3.2784280302716053e-02 0.0000000000000000e+00 0.0000000000000000e+00 0.0000000000000000e+00 0.0000000000000000e+00  -3.0300109340872838e-01 1.3432988950677224e-01 0.0000000000000000e+00 1.3432988950677224e-01 -2.4941555509718269e-01 0.0000000000000000e+00 0.0000000000000000e+00 0.0000000000000000e+00 0.0000000000000000e+00  7.3025847747127254e-02 -5.9731325497457875e-02 0.0000000000000000e+00 -5.9731325497457875e-02 3.8159965651929167e-02 0.0000000000000000e+00 0.0000000000000000e+00 0.0000000000000000e+00 0.0000000000000000e+00  -5.0586899027973030e-03 1.1922831241110978e-02 0.0000000000000000e+00 1.1922831241110982e-02 -1.0005484995364177e-02 0.0000000000000000e+00 0.0000000000000000e+00 0.0000000000000000e+00 0.0000000000000000e+00  2.5947553277187768e-03 -2.2489812138126344e-03 0.0000000000000000e+00 -2.2489812138126349e-03 3.5045599478611055e-03 0.0000000000000000e+00 0.0000000000000000e+00 0.0000000000000000e+00 0.0000000000000000e+00  2.5333696952420650e-03 3.3141784658065993e-04 0.0000000000000000e+00 3.3141784658065993e-04 2.2529603681303179e-03 0.0000000000000000e+00 0.0000000000000000e+00 0.0000000000000000e+00 0.0000000000000000e+00  2.2835160615806076e-03 1.9094930942362915e-05 0.0000000000000000e+00 1.9094930942362908e-05 2.2537666738843150e-03 0.0000000000000000e+00 0.0000000000000000e+00 0.0000000000000000e+00 0.0000000000000000e+00  2.5298442768162759e-03 -3.8699916485638870e-04 0.0000000000000000e+00 -3.8699916485638870e-04 2.2648453976503516e-03 0.0000000000000000e+00 0.0000000000000000e+00 0.0000000000000000e+00 0.0000000000000000e+00  2.7340243240858049e-03 2.3138352281909164e-03 0.0000000000000000e+00 2.3138352281909164e-03 3.5590356596653296e-03 0.0000000000000000e+00 0.0000000000000000e+00 0.0000000000000000e+00 0.0000000000000000e+00  -6.1144250295075801e-03 -1.1778521978039566e-02 0.0000000000000000e+00 -1.1778521978039566e-02 -1.0909143543844322e-02 0.0000000000000000e+00 0.0000000000000000e+00 0.0000000000000000e+00 0.0000000000000000e+00  7.6378619065252618e-02 5.7700986508173846e-02 0.0000000000000000e+00 5.7700986508173846e-02 3.7995426018956967e-02 0.0000000000000000e+00 0.0000000000000000e+00 0.0000000000000000e+00 0.0000000000000000e+00  -3.2012265540794310e-01 -1.2732514861997965e-01 0.0000000000000000e+00 -1.2732514861997965e-01 -2.5799581647678771e-01 0.0000000000000000e+00 0.0000000000000000e+00 0.0000000000000000e+00 0.0000000000000000e+00  -1.3769025347546898e-01 -1.9197194530535994e-02 0.0000000000000000e+00 -1.9197194530535994e-02 -2.8289364185918382e-02 0.0000000000000000e+00 0.0000000000000000e+00 0.0000000000000000e+00 0.0000000000000000e+00  -1.4612714248070005e-01 4.0766520821869490e-02 0.0000000000000000e+00 4.0766520821869490e-02 -1.6890844520838086e-01 0.0000000000000000e+00 0.0000000000000000e+00 0.0000000000000000e+00 0.0000000000000000e+00  -1.3527830845948469e-01 -2.3216868810278998e-02 0.0000000000000000e+00 -2.3216868810278998e-02 -1.0578144491954278e-01 0.0000000000000000e+00 0.0000000000000000e+00 0.0000000000000000e+00 0.0000000000000000e+00  -1.2943100209150663e-01 9.9979853379006459e-03 0.0000000000000000e+00 9.9979853379006459e-03 -1.0099929651199624e-01 0.0000000000000000e+00 0.0000000000000000e+00 0.0000000000000000e+00 0.0000000000000000e+00  -1.2119031610136821e-01 2.0881861336542852e-03 0.0000000000000000e+00 2.0881861336542852e-03 -9.2834687633731094e-02 0.0000000000000000e+00 0.0000000000000000e+00 0.0000000000000000e+00 0.0000000000000000e+00  -1.1523684657187658e-01 6.5298744942369697e-03 0.0000000000000000e+00 6.5298744942369697e-03 -8.8758998721599661e-02 0.0000000000000000e+00 0.0000000000000000e+00 0.0000000000000000e+00 0.0000000000000000e+00  -1.1157788616108859e-01 5.8412374041690194e-03 0.0000000000000000e+00 5.8412374041690194e-03 -8.5092121194239353e-02 0.0000000000000000e+00 0.0000000000000000e+00 0.0000000000000000e+00 0.0000000000000000e+00  -1.0709025923240802e-01 5.9341035257484227e-03 0.0000000000000000e+00 5.9341035257484227e-03 -8.4197371808625313e-02 0.0000000000000000e+00 0.0000000000000000e+00 0.0000000000000000e+00 0.0000000000000000e+00  -1.0365050437084811e-01 6.0465824679052718e-03 0.0000000000000000e+00 6.0465824679052718e-03 -8.3958210162449601e-02 0.0000000000000000e+00 0.0000000000000000e+00 0.0000000000000000e+00 0.0000000000000000e+00  -1.0040050213224569e-01 6.5253702420691685e-03 0.0000000000000000e+00 6.5253702420691685e-03 -8.4585591534321908e-02 0.0000000000000000e+00 0.0000000000000000e+00 0.0000000000000000e+00 0.0000000000000000e+00  -9.7773283982867026e-02 7.4955500882074614e-03 0.0000000000000000e+00 7.4955500882074614e-03 -8.5287675890657472e-02 0.0000000000000000e+00 0.0000000000000000e+00 0.0000000000000000e+00 0.0000000000000000e+00  -9.5903972040317267e-02 8.7674268929430286e-03 0.0000000000000000e+00 8.7674268929430286e-03 -8.5569813980732087e-02 0.0000000000000000e+00 0.0000000000000000e+00 0.0000000000000000e+00 0.0000000000000000e+00  -9.4884672874151310e-02 9.9989444431566668e-03 0.0000000000000000e+00 9.9989444431566668e-03 -8.5126909468032030e-02 0.0000000000000000e+00 0.0000000000000000e+00 0.0000000000000000e+00 0.0000000000000000e+00  -9.4632324038857449e-02 1.0741361618442984e-02 0.0000000000000000e+00 1.0741361618442984e-02 -8.3971143115401159e-02 0.0000000000000000e+00 0.0000000000000000e+00 0.0000000000000000e+00 0.0000000000000000e+00  -9.4835473300848266e-02 1.0650253197015572e-02 0.0000000000000000e+00 1.0650253197015572e-02 -8.2478910549072346e-02 0.0000000000000000e+00 0.0000000000000000e+00 0.0000000000000000e+00 0.0000000000000000e+00  -9.5071671591027987e-02 9.6565293108783600e-03 0.0000000000000000e+00 9.6565293108783600e-03 -8.1222407772786859e-02 0.0000000000000000e+00 0.0000000000000000e+00 0.0000000000000000e+00 0.0000000000000000e+00  -9.4969268980702140e-02 7.9887577694967363e-03 0.0000000000000000e+00 7.9887577694967363e-03 -8.0727632805995680e-02 0.0000000000000000e+00 0.0000000000000000e+00 0.0000000000000000e+00 0.0000000000000000e+00  -9.4320495472664329e-02 6.0748687126268358e-03 0.0000000000000000e+00 6.0748687126268358e-03 -8.1286607334894401e-02 0.0000000000000000e+00 0.0000000000000000e+00 0.0000000000000000e+00 0.0000000000000000e+00  -9.3122399193201560e-02 4.4028287363423084e-03 0.0000000000000000e+00 4.4028287363423084e-03 -8.2874166351941003e-02 0.0000000000000000e+00 0.0000000000000000e+00 0.0000000000000000e+00 0.0000000000000000e+00  -9.1572400812047983e-02 3.3797082368480233e-03 0.0000000000000000e+00 3.3797082368480233e-03 -8.5154180506372995e-02 0.0000000000000000e+00 0.0000000000000000e+00 0.0000000000000000e+00 0.0000000000000000e+00  -9.0014895109121071e-02 3.1961888657627466e-03 0.0000000000000000e+00 3.1961888657627466e-03 -8.7577306927983739e-02 0.0000000000000000e+00 0.0000000000000000e+00 0.0000000000000000e+00 0.0000000000000000e+00  -8.8814345909884684e-02 3.7459200049823260e-03 0.0000000000000000e+00 3.7459200049823260e-03 -8.9579922890699978e-02 0.0000000000000000e+00 0.0000000000000000e+00 0.0000000000000000e+00 0.0000000000000000e+00  -8.8194926182769098e-02 4.6768665266745876e-03 0.0000000000000000e+00 4.6768665266745876e-03 -9.0814206896892236e-02 0.0000000000000000e+00 0.0000000000000000e+00 0.0000000000000000e+00 0.0000000000000000e+00  -8.8143860129814136e-02 5.5813171555752616e-03 0.0000000000000000e+00 5.5813171555752616e-03 -9.1277074127808208e-02 0.0000000000000000e+00 0.0000000000000000e+00 0.0000000000000000e+00 0.0000000000000000e+00  -8.8516637548490568e-02 6.1881658839838399e-03 0.0000000000000000e+00 6.1881658839838399e-03 -9.1196301465901949e-02 0.0000000000000000e+00 0.0000000000000000e+00 0.0000000000000000e+00 0.0000000000000000e+00  -8.9090558843321885e-02 6.3455522200787113e-03 0.0000000000000000e+00 6.3455522200787113e-03 -9.0958211670581129e-02 0.0000000000000000e+00 0.0000000000000000e+00 0.0000000000000000e+00 0.0000000000000000e+00  -8.9456603716066702e-02 6.3171983419174375e-03 0.0000000000000000e+00 6.3171983419174375e-03 -9.1032435352236832e-02 0.0000000000000000e+00 0.0000000000000000e+00 0.0000000000000000e+00 0.0000000000000000e+00  -9.0604984323568463e-02 5.9149299460358020e-03 0.0000000000000000e+00 5.9149299460358020e-03 -9.0881964158458964e-02 0.0000000000000000e+00 0.0000000000000000e+00 0.0000000000000000e+00 0.0000000000000000e+00  -8.9192692126926459e-02 5.4597689738036560e-03 0.0000000000000000e+00 5.4597689738036560e-03 -9.2914411915190800e-02 0.0000000000000000e+00 0.0000000000000000e+00 0.0000000000000000e+00 0.0000000000000000e+00  -9.2149901222564820e-02 8.1594411988475529e-03 0.0000000000000000e+00 8.1594411988475529e-03 -9.2754503651923892e-02 0.0000000000000000e+00 0.0000000000000000e+00 0.0000000000000000e+00 0.0000000000000000e+00  -8.9371028166118818e-02 1.5409895824444965e-03 0.0000000000000000e+00 1.5409895824444965e-03 -9.4474539054467080e-02 0.0000000000000000e+00 0.0000000000000000e+00 0.0000000000000000e+00 0.0000000000000000e+00  -9.6071691833508902e-02 2.9994459881750337e-02 0.0000000000000000e+00 2.9994459881750337e-02 -9.7232540700688763e-02 0.0000000000000000e+00 0.0000000000000000e+00 0.0000000000000000e+00 0.0000000000000000e+00  -9.7726359414136585e-02 -3.8207034741958572e-02 0.0000000000000000e+00 -3.8207034741958572e-02 -1.1426152206605444e-01 0.0000000000000000e+00 0.0000000000000000e+00 0.0000000000000000e+00 0.0000000000000000e+00  -9.9336561403693402e-02 -1.9487812074030511e-02 0.0000000000000000e+00 -1.9487812074030511e-02 -2.8263642720113936e-02 0.0000000000000000e+00 0.0000000000000000e+00 0.0000000000000000e+00 0.0000000000000000e+00  -2.3098906402144270e-01 1.5996711046268247e-01 0.0000000000000000e+00 1.5996711046268247e-01 -1.9726864697801424e-01 0.0000000000000000e+00 0.0000000000000000e+00 0.0000000000000000e+00 0.0000000000000000e+00  9.1698529781407884e-02 -7.4706149367907426e-02 0.0000000000000000e+00 -7.4706149367907426e-02 6.6067911711062258e-02 0.0000000000000000e+00 0.0000000000000000e+00 0.0000000000000000e+00 0.0000000000000000e+00  -4.9425661263163495e-03 1.6537861802616946e-02 0.0000000000000000e+00 1.6537861802616946e-02 -8.3341276306659502e-03 0.0000000000000000e+00 0.0000000000000000e+00 0.0000000000000000e+00 0.0000000000000000e+00  9.5996026606796937e-03 -4.2632479754544780e-03 0.0000000000000000e+00 -4.2632479754544780e-03 1.0112525094227000e-02 0.0000000000000000e+00 0.0000000000000000e+00 0.0000000000000000e+00 0.0000000000000000e+00  7.5249953417250142e-03 7.4765472320516833e-04 0.0000000000000000e+00 7.4765472320516833e-04 7.1440863909017068e-03 0.0000000000000000e+00 0.0000000000000000e+00 0.0000000000000000e+00 0.0000000000000000e+00  7.5441314930221378e-03 -1.2771455844434441e-04 0.0000000000000000e+00 -1.2771455844434441e-04 7.6028579616498008e-03 0.0000000000000000e+00 0.0000000000000000e+00 0.0000000000000000e+00 0.0000000000000000e+00  7.5969219194408737e-03 9.5258506326035730e-06 0.0000000000000000e+00 9.5258506326035730e-06 7.5845171165888486e-03 0.0000000000000000e+00 0.0000000000000000e+00 0.0000000000000000e+00 0.0000000000000000e+00  7.5765014848864802e-03 6.9979872155359309e-06 0.0000000000000000e+00 6.9979872155359309e-06 7.5899448811552984e-03 0.0000000000000000e+00 0.0000000000000000e+00 0.0000000000000000e+00 0.0000000000000000e+00  7.5795538245572057e-03 1.9450874086691734e-05 0.0000000000000000e+00 1.9450874086691734e-05 7.5945021498597075e-03 0.0000000000000000e+00 0.0000000000000000e+00 0.0000000000000000e+00 0.0000000000000000e+00  7.5798167053846713e-03 3.2991742312398110e-05 0.0000000000000000e+00 3.2991742312398110e-05 7.5915192264057541e-03 0.0000000000000000e+00 0.0000000000000000e+00 0.0000000000000000e+00 0.0000000000000000e+00  7.5827236455281088e-03 4.7057445242179924e-05 0.0000000000000000e+00 4.7057445242179924e-05 7.5831953842819266e-03 0.0000000000000000e+00 0.0000000000000000e+00 0.0000000000000000e+00 0.0000000000000000e+00  7.6314306373529549e-03 -4.4275450960011831e-05 0.0000000000000000e+00 -4.4275450960011831e-05 7.6318375146150717e-03 0.0000000000000000e+00 0.0000000000000000e+00 0.0000000000000000e+00 0.0000000000000000e+00  7.6288089738862589e-03 -3.1626489303849905e-05 0.0000000000000000e+00 -3.1626489303849905e-05 7.6399310121570722e-03 0.0000000000000000e+00 0.0000000000000000e+00 0.0000000000000000e+00 0.0000000000000000e+00  7.6276359301000029e-03 -1.9467196894940468e-05 0.0000000000000000e+00 -1.9467196894940468e-05 7.6428703245313154e-03 0.0000000000000000e+00 0.0000000000000000e+00 0.0000000000000000e+00 0.0000000000000000e+00  7.6293172325482134e-03 -1.0431038312564237e-05 0.0000000000000000e+00 -1.0431038312564237e-05 7.6406502748245821e-03 0.0000000000000000e+00 0.0000000000000000e+00 0.0000000000000000e+00 0.0000000000000000e+00  7.6304773728294644e-03 1.1671816402871719e-05 0.0000000000000000e+00 1.1671816402871719e-05 7.6384509427900480e-03 0.0000000000000000e+00 0.0000000000000000e+00 0.0000000000000000e+00 0.0000000000000000e+00  7.6181524189585133e-03 -6.0872807681783938e-05 0.0000000000000000e+00 -6.0872807681783938e-05 7.5878101474635166e-03 0.0000000000000000e+00 0.0000000000000000e+00 0.0000000000000000e+00 0.0000000000000000e+00  7.8120668898464026e-03 3.5353341986932784e-04 0.0000000000000000e+00 3.5353341986932784e-04 7.8368526584090843e-03 0.0000000000000000e+00 0.0000000000000000e+00 0.0000000000000000e+00 0.0000000000000000e+00  6.5317869346459148e-03 -1.3880216785950449e-03 0.0000000000000000e+00 -1.3880216785950449e-03 6.3745298803426480e-03 0.0000000000000000e+00 0.0000000000000000e+00 0.0000000000000000e+00 0.0000000000000000e+00  1.3769301065772640e-02 5.2974468232575124e-03 0.0000000000000000e+00 5.2974468232575124e-03 1.2835513324303775e-02 0.0000000000000000e+00 0.0000000000000000e+00 0.0000000000000000e+00 0.0000000000000000e+00  -1.6118273461328384e-02 -1.3243649263819239e-02 0.0000000000000000e+00 -1.3243649263819239e-02 -1.5006232345266187e-02 0.0000000000000000e+00 0.0000000000000000e+00 0.0000000000000000e+00 0.0000000000000000e+00  1.1225402188876173e-01 5.9088905286517522e-02 0.0000000000000000e+00 5.9088905286517522e-02 8.7339249703987126e-02 0.0000000000000000e+00 0.0000000000000000e+00 0.0000000000000000e+00 0.0000000000000000e+00  -2.5895411873009216e-01 -1.3407840275273844e-01 0.0000000000000000e+00 -1.3407840275273844e-01 -2.3621324023191434e-01 0.0000000000000000e+00 0.0000000000000000e+00 0.0000000000000000e+00 0.0000000000000000e+00  -4.0979016895158864e-02 6.2075247033363638e-03 0.0000000000000000e+00 6.2075247033363638e-03 -3.8632609914147222e-02 0.0000000000000000e+00 0.0000000000000000e+00 0.0000000000000000e+00 0.0000000000000000e+00  -1.1282587662452548e-01 3.7826168514440012e-02 0.0000000000000000e+00 3.7826168514440012e-02 -1.0090650585326801e-01 0.0000000000000000e+00 0.0000000000000000e+00 0.0000000000000000e+00 0.0000000000000000e+00  -1.0119712865870822e-01 -2.5190932225262554e-02 0.0000000000000000e+00 -2.5190932225262554e-02 -9.9442576261205493e-02 0.0000000000000000e+00 0.0000000000000000e+00 0.0000000000000000e+00 0.0000000000000000e+00  -8.3729704142625233e-02 -3.2138272584164755e-03 0.0000000000000000e+00 -3.2138272584164755e-03 -9.7302091395923648e-02 0.0000000000000000e+00 0.0000000000000000e+00 0.0000000000000000e+00 0.0000000000000000e+00  -9.6110905920975764e-02 -5.9350072013269100e-03 0.0000000000000000e+00 -5.9350072013269100e-03 -8.9209065313132371e-02 0.0000000000000000e+00 0.0000000000000000e+00 0.0000000000000000e+00 0.0000000000000000e+00  -8.8941199926320144e-02 -7.4090886187370003e-03 0.0000000000000000e+00 -7.4090886187370003e-03 -9.1927506853848373e-02 0.0000000000000000e+00 0.0000000000000000e+00 0.0000000000000000e+00 0.0000000000000000e+00  -9.0516749487808829e-02 -6.8807373202148647e-03 0.0000000000000000e+00 -6.8807373202148647e-03 -9.0138731890453253e-02 0.0000000000000000e+00 0.0000000000000000e+00 0.0000000000000000e+00 0.0000000000000000e+00  -8.9391687565519407e-02 -7.5622912655847240e-03 0.0000000000000000e+00 -7.5622912655847240e-03 -9.0679803914221313e-02 0.0000000000000000e+00 0.0000000000000000e+00 0.0000000000000000e+00 0.0000000000000000e+00  -8.8490314500270922e-02 -7.1542464223757199e-03 0.0000000000000000e+00 -7.1542464223757199e-03 -9.1513161224500039e-02 0.0000000000000000e+00 0.0000000000000000e+00 0.0000000000000000e+00 0.0000000000000000e+00  -8.7973404346236725e-02 -6.2354028404787362e-03 0.0000000000000000e+00 -6.2354028404787362e-03 -9.1987501843486447e-02 0.0000000000000000e+00 0.0000000000000000e+00 0.0000000000000000e+00 0.0000000000000000e+00  -8.7846594146288620e-02 -4.7282878178764309e-03 0.0000000000000000e+00 -4.7282878178764309e-03 -9.1837101575924146e-02 0.0000000000000000e+00 0.0000000000000000e+00 0.0000000000000000e+00 0.0000000000000000e+00  -8.8577168663633216e-02 -3.0057016090161595e-03 0.0000000000000000e+00 -3.0057016090161595e-03 -9.0432777863486191e-02 0.0000000000000000e+00 0.0000000000000000e+00 0.0000000000000000e+00 0.0000000000000000e+00  -9.0226740969395702e-02 -1.7879000980893234e-03 0.0000000000000000e+00 -1.7879000980893234e-03 -8.7697477788719475e-02 0.0000000000000000e+00 0.0000000000000000e+00 0.0000000000000000e+00 0.0000000000000000e+00  -9.2438216753867528e-02 -1.7112165093810154e-03 0.0000000000000000e+00 -1.7112165093810154e-03 -8.4198091119348534e-02 0.0000000000000000e+00 0.0000000000000000e+00 0.0000000000000000e+00 0.0000000000000000e+00  -9.4608758401856188e-02 -2.9572041771577422e-03 0.0000000000000000e+00 -2.9572041771577422e-03 -8.0900484573331766e-02 0.0000000000000000e+00 0.0000000000000000e+00 0.0000000000000000e+00 0.0000000000000000e+00  -9.6216320380581713e-02 -5.1970760592329659e-03 0.0000000000000000e+00 -5.1970760592329659e-03 -7.8700172648849445e-02 0.0000000000000000e+00 0.0000000000000000e+00 0.0000000000000000e+00 0.0000000000000000e+00  -9.6991755436153820e-02 -7.7989840810062392e-03 0.0000000000000000e+00 -7.7989840810062392e-03 -7.8111831632944953e-02 0.0000000000000000e+00 0.0000000000000000e+00 0.0000000000000000e+00 0.0000000000000000e+00  -9.6934389153287559e-02 -1.0037890359603075e-02 0.0000000000000000e+00 -1.0037890359603075e-02 -7.9174818307249178e-02 0.0000000000000000e+00 0.0000000000000000e+00 0.0000000000000000e+00 0.0000000000000000e+00  -9.6310590248500388e-02 -1.1254936767904008e-02 0.0000000000000000e+00 -1.1254936767904008e-02 -8.1450363700208472e-02 0.0000000000000000e+00 0.0000000000000000e+00 0.0000000000000000e+00 0.0000000000000000e+00  -9.5653377678053653e-02 -1.1055533695349401e-02 0.0000000000000000e+00 -1.1055533695349401e-02 -8.4092810710526156e-02 0.0000000000000000e+00 0.0000000000000000e+00 0.0000000000000000e+00 0.0000000000000000e+00  -9.5629945862258939e-02 -9.5350477970594615e-03 0.0000000000000000e+00 -9.5350477970594615e-03 -8.6119526062461163e-02 0.0000000000000000e+00 0.0000000000000000e+00 0.0000000000000000e+00 0.0000000000000000e+00  -9.6728002835649862e-02 -7.2929662898254151e-03 0.0000000000000000e+00 -7.2929662898254151e-03 -8.6881498537651855e-02 0.0000000000000000e+00 0.0000000000000000e+00 0.0000000000000000e+00 0.0000000000000000e+00  -9.9030799556717841e-02 -5.1061124580674853e-03 0.0000000000000000e+00 -5.1061124580674853e-03 -8.6391804317588486e-02 0.0000000000000000e+00 0.0000000000000000e+00 0.0000000000000000e+00 0.0000000000000000e+00  -1.0220194164206660e-01 -3.4861732117943884e-03 0.0000000000000000e+00 -3.4861732117943884e-03 -8.5316389064272233e-02 0.0000000000000000e+00 0.0000000000000000e+00 0.0000000000000000e+00 0.0000000000000000e+00  -1.0604636382985594e-01 -2.4483272675582994e-03 0.0000000000000000e+00 -2.4483272675582994e-03 -8.4318801715878369e-02 0.0000000000000000e+00 0.0000000000000000e+00 0.0000000000000000e+00 0.0000000000000000e+00  -1.1092198663686469e-01 -2.3258629133734317e-03 0.0000000000000000e+00 -2.3258629133734317e-03 -8.3908261819141350e-02 0.0000000000000000e+00 0.0000000000000000e+00 0.0000000000000000e+00 0.0000000000000000e+00  -1.1355212663506235e-01 -2.0261125702030164e-03 0.0000000000000000e+00 -2.0261125702030164e-03 -8.7209627449644903e-02 0.0000000000000000e+00 0.0000000000000000e+00 0.0000000000000000e+00 0.0000000000000000e+00  -1.2261336108382645e-01 2.5601109168426473e-04 0.0000000000000000e+00 2.5601109168426473e-04 -8.8503042195619414e-02 0.0000000000000000e+00 0.0000000000000000e+00 0.0000000000000000e+00 0.0000000000000000e+00  -1.2448330983895503e-01 -5.6789721357992096e-03 0.0000000000000000e+00 -5.6789721357992096e-03 -9.8490085192073237e-02 0.0000000000000000e+00 0.0000000000000000e+00 0.0000000000000000e+00 0.0000000000000000e+00  -1.2934243700734946e-01 2.7181359125548542e-02 0.0000000000000000e+00 2.7181359125548542e-02 -1.0606861405269717e-01 0.0000000000000000e+00 0.0000000000000000e+00 0.0000000000000000e+00 0.0000000000000000e+00  -1.7574974309357022e-01 -3.6501637654791710e-02 0.0000000000000000e+00 -3.6501637654791710e-02 -1.4261606245247574e-01 0.0000000000000000e+00 0.0000000000000000e+00 0.0000000000000000e+00 0.0000000000000000e+00  -6.4859957641124469e-02 3.4515575264256783e-02 0.0000000000000000e+00 3.4515575264256783e-02 -2.7031869652484341e-02 0.0000000000000000e+00 0.0000000000000000e+00 0.0000000000000000e+00 0.0000000000000000e+00  -3.6788899973475869e-01 7.0704683733709903e-02 0.0000000000000000e+00 7.0704683733709903e-02 -2.9498446834071662e-01 0.0000000000000000e+00 0.0000000000000000e+00 0.0000000000000000e+00 0.0000000000000000e+00  1.0361089609861557e-01 -2.0294099850843867e-02 0.0000000000000000e+00 -2.0294099850843867e-02 4.7785325313710984e-02 0.0000000000000000e+00 0.0000000000000000e+00 0.0000000000000000e+00 0.0000000000000000e+00  -1.9672610038009374e-02 4.8513429079642461e-03 0.0000000000000000e+00 4.8513429079642461e-03 -1.7365236860740648e-02 0.0000000000000000e+00 0.0000000000000000e+00 0.0000000000000000e+00 0.0000000000000000e+00  7.2879379245180190e-03 -3.4251982592308941e-03 0.0000000000000000e+00 -3.4251982592308941e-03 6.1582671261119649e-03 0.0000000000000000e+00 0.0000000000000000e+00 0.0000000000000000e+00 0.0000000000000000e+00  1.7430425935947933e-03 9.4753070014036835e-04 0.0000000000000000e+00 9.4753070014036835e-04 1.6292973139116619e-03 0.0000000000000000e+00 0.0000000000000000e+00 0.0000000000000000e+00 0.0000000000000000e+00  2.4705185008584798e-03 -1.3591824910463041e-04 0.0000000000000000e+00 -1.3591824910463043e-04 2.4790957321315496e-03 0.0000000000000000e+00 0.0000000000000000e+00 0.0000000000000000e+00 0.0000000000000000e+00  2.4225491822872916e-03 -6.5764243116377938e-06 0.0000000000000000e+00 -6.5764243116377913e-06 2.3239777193312106e-03 0.0000000000000000e+00 0.0000000000000000e+00 0.0000000000000000e+00 0.0000000000000000e+00  2.4678683411538168e-03 1.4946266724690860e-04 0.0000000000000000e+00 1.4946266724690860e-04 2.4779141356906808e-03 0.0000000000000000e+00 0.0000000000000000e+00 0.0000000000000000e+00 0.0000000000000000e+00  1.7329085973794181e-03 -9.2736869536777804e-04 0.0000000000000000e+00 -9.2736869536777804e-04 1.6583341850006398e-03 0.0000000000000000e+00 0.0000000000000000e+00 0.0000000000000000e+00 0.0000000000000000e+00  7.4177182867708929e-03 3.1554776166351963e-03 0.0000000000000000e+00 3.1554776166351963e-03 6.0851668535215680e-03 0.0000000000000000e+00 0.0000000000000000e+00 0.0000000000000000e+00 0.0000000000000000e+00  -1.9902554763711781e-02 -2.9918109857556851e-03 0.0000000000000000e+00 -2.9918109857556851e-03 -1.7230995929615165e-02 0.0000000000000000e+00 0.0000000000000000e+00 0.0000000000000000e+00 0.0000000000000000e+00  1.0186026564049774e-01 1.4212263254055313e-02 0.0000000000000000e+00 1.4212263254055313e-02 4.5536445186260266e-02 0.0000000000000000e+00 0.0000000000000000e+00 0.0000000000000000e+00 0.0000000000000000e+00  -3.6907819562035304e-01 -6.3368732068761896e-02 0.0000000000000000e+00 -6.3368732068761896e-02 -2.9723341972640516e-01 0.0000000000000000e+00 0.0000000000000000e+00 0.0000000000000000e+00 0.0000000000000000e+00  -6.2856998528348695e-02 -3.4570555804440135e-02 0.0000000000000000e+00 -3.4570555804440135e-02 -2.5767153918259320e-02 0.0000000000000000e+00 0.0000000000000000e+00 0.0000000000000000e+00 0.0000000000000000e+00  -1.7817631792843616e-01 3.6119625702235592e-02 0.0000000000000000e+00 3.6119625702235592e-02 -1.3889644640866067e-01 0.0000000000000000e+00 0.0000000000000000e+00 0.0000000000000000e+00 0.0000000000000000e+00  -1.2938600385090199e-01 -2.7585840800080964e-02 0.0000000000000000e+00 -2.7585840800080964e-02 -1.0416762211365385e-01 0.0000000000000000e+00 0.0000000000000000e+00 0.0000000000000000e+00 0.0000000000000000e+00  -1.2460467516157735e-01 4.8908281408313317e-03 0.0000000000000000e+00 4.8908281408313317e-03 -9.6847813846531683e-02 0.0000000000000000e+00 0.0000000000000000e+00 0.0000000000000000e+00 0.0000000000000000e+00  -1.2268809642700906e-01 -9.7146072952566573e-04 0.0000000000000000e+00 -9.7146072952566573e-04 -8.7356719706465857e-02 0.0000000000000000e+00 0.0000000000000000e+00 0.0000000000000000e+00 0.0000000000000000e+00  -1.1343204591012078e-01 1.3179998785416188e-03 0.0000000000000000e+00 1.3179998785416188e-03 -8.6571531952441841e-02 0.0000000000000000e+00 0.0000000000000000e+00 0.0000000000000000e+00 0.0000000000000000e+00  -1.1073911267824814e-01 1.7703730015800360e-03 0.0000000000000000e+00 1.7703730015800360e-03 -8.3621388801167207e-02 0.0000000000000000e+00 0.0000000000000000e+00 0.0000000000000000e+00 0.0000000000000000e+00  -1.0583141532166492e-01 2.0131750110684915e-03 0.0000000000000000e+00 2.0131750110684915e-03 -8.4272404512348201e-02 0.0000000000000000e+00 0.0000000000000000e+00 0.0000000000000000e+00 0.0000000000000000e+00  -1.0197438368617473e-01 3.1638692087069698e-03 0.0000000000000000e+00 3.1638692087069698e-03 -8.5425953927238923e-02 0.0000000000000000e+00 0.0000000000000000e+00 0.0000000000000000e+00 0.0000000000000000e+00  -9.8815463979601503e-02 4.8681389834026598e-03 0.0000000000000000e+00 4.8681389834026598e-03 -8.6580814907884204e-02 0.0000000000000000e+00 0.0000000000000000e+00 0.0000000000000000e+00 0.0000000000000000e+00  -9.6531338477128498e-02 7.1101678236075482e-03 0.0000000000000000e+00 7.1101678236075482e-03 -8.7103614826386955e-02 0.0000000000000000e+00 0.0000000000000000e+00 0.0000000000000000e+00 0.0000000000000000e+00  -9.5454010861441937e-02 9.3831284840597291e-03 0.0000000000000000e+00 9.3831284840597291e-03 -8.6345092579637156e-02 0.0000000000000000e+00 0.0000000000000000e+00 0.0000000000000000e+00 0.0000000000000000e+00  -9.5496676839415831e-02 1.0915962620514606e-02 0.0000000000000000e+00 1.0915962620514606e-02 -8.4304736826955551e-02 0.0000000000000000e+00 0.0000000000000000e+00 0.0000000000000000e+00 0.0000000000000000e+00  -9.6170437448857199e-02 1.1114973411622407e-02 0.0000000000000000e+00 1.1114973411622407e-02 -8.1639602283275950e-02 0.0000000000000000e+00 0.0000000000000000e+00 0.0000000000000000e+00 0.0000000000000000e+00  -9.6808280434651756e-02 9.8894515925096738e-03 0.0000000000000000e+00 9.8894515925096738e-03 -7.9337148764936041e-02 0.0000000000000000e+00 0.0000000000000000e+00 0.0000000000000000e+00 0.0000000000000000e+00  -9.6878164947137968e-02 7.6373927731532964e-03 0.0000000000000000e+00 7.6373927731532964e-03 -7.8245685450942251e-02 0.0000000000000000e+00 0.0000000000000000e+00 0.0000000000000000e+00 0.0000000000000000e+00  -9.6114977017762879e-02 5.0193482425611993e-03 0.0000000000000000e+00 5.0193482425611993e-03 -7.8805469172850515e-02 0.0000000000000000e+00 0.0000000000000000e+00 0.0000000000000000e+00 0.0000000000000000e+00  -9.4519691077088783e-02 2.7605757879292183e-03 0.0000000000000000e+00 2.7605757879292183e-03 -8.0979046452846329e-02 0.0000000000000000e+00 0.0000000000000000e+00 0.0000000000000000e+00 0.0000000000000000e+00  -9.2360044494924937e-02 1.4933171663069102e-03 0.0000000000000000e+00 1.4933171663069102e-03 -8.4254866832710065e-02 0.0000000000000000e+00 0.0000000000000000e+00 0.0000000000000000e+00 0.0000000000000000e+00  -9.0156018893730719e-02 1.5487420058025129e-03 0.0000000000000000e+00 1.5487420058025129e-03 -8.7740352682814951e-02 0.0000000000000000e+00 0.0000000000000000e+00 0.0000000000000000e+00 0.0000000000000000e+00  -8.8510082767945364e-02 2.7492617009247412e-03 0.0000000000000000e+00 2.7492617009247412e-03 -9.0469694687310503e-02 0.0000000000000000e+00 0.0000000000000000e+00 0.0000000000000000e+00 0.0000000000000000e+00  -8.7781309614360897e-02 4.4611400086743084e-03 0.0000000000000000e+00 4.4611400086743084e-03 -9.1872629643981352e-02 0.0000000000000000e+00 0.0000000000000000e+00 0.0000000000000000e+00 0.0000000000000000e+00  -8.7910623681943814e-02 5.9635679538412954e-03 0.0000000000000000e+00 5.9635679538412954e-03 -9.2022037391707140e-02 0.0000000000000000e+00 0.0000000000000000e+00 0.0000000000000000e+00 0.0000000000000000e+00  -8.8431495431279386e-02 6.8807200583772474e-03 0.0000000000000000e+00 6.8807200583772474e-03 -9.1545680871963284e-02 0.0000000000000000e+00 0.0000000000000000e+00 0.0000000000000000e+00 0.0000000000000000e+00  -8.9330835683887805e-02 7.2908277926680585e-03 0.0000000000000000e+00 7.2908277926680585e-03 -9.0714484702304754e-02 0.0000000000000000e+00 0.0000000000000000e+00 0.0000000000000000e+00 0.0000000000000000e+00  -9.0466304996089653e-02 6.6168888457085193e-03 0.0000000000000000e+00 6.6168888457085193e-03 -9.0163990011244172e-02 0.0000000000000000e+00 0.0000000000000000e+00 0.0000000000000000e+00 0.0000000000000000e+00  -8.8880128700750793e-02 7.1329804225532525e-03 0.0000000000000000e+00 7.1329804225532525e-03 -9.1962489570825492e-02 0.0000000000000000e+00 0.0000000000000000e+00 0.0000000000000000e+00 0.0000000000000000e+00  -9.5989803017294678e-02 5.7439838237321687e-03 0.0000000000000000e+00 5.7439838237321687e-03 -8.9262222634518107e-02 0.0000000000000000e+00 0.0000000000000000e+00 0.0000000000000000e+00 0.0000000000000000e+00  -8.3772743354605425e-02 2.9128564059134410e-03 0.0000000000000000e+00 2.9128564059134410e-03 -9.7279972479594801e-02 0.0000000000000000e+00 0.0000000000000000e+00 0.0000000000000000e+00 0.0000000000000000e+00  -1.0076436860296011e-01 2.5207095483540096e-02 0.0000000000000000e+00 2.5207095483540096e-02 -9.9354800085693654e-02 0.0000000000000000e+00 0.0000000000000000e+00 0.0000000000000000e+00 0.0000000000000000e+00  -1.1314959923447244e-01 -3.8081798076384704e-02 0.0000000000000000e+00 -3.8081798076384704e-02 -1.0118313876274088e-01 0.0000000000000000e+00 0.0000000000000000e+00 0.0000000000000000e+00 0.0000000000000000e+00  -4.0206224190020109e-02 -5.8222722268206125e-03 0.0000000000000000e+00 -5.8222722268206125e-03 -3.7592859297284037e-02 0.0000000000000000e+00 0.0000000000000000e+00 0.0000000000000000e+00 0.0000000000000000e+00  -2.6019047865074135e-01 1.3286164925616684e-01 0.0000000000000000e+00 1.3286164925616684e-01 -2.3696972976679945e-01 0.0000000000000000e+00 0.0000000000000000e+00 0.0000000000000000e+00 0.0000000000000000e+00  1.1243385108123062e-01 -5.8406732191180262e-02 0.0000000000000000e+00 -5.8406732191180262e-02 8.7498012036959089e-02 0.0000000000000000e+00 0.0000000000000000e+00 0.0000000000000000e+00 0.0000000000000000e+00  -1.6056388435001758e-02 1.3060442746862022e-02 0.0000000000000000e+00 1.3060442746862022e-02 -1.4911122606281763e-02 0.0000000000000000e+00 0.0000000000000000e+00 0.0000000000000000e+00 0.0000000000000000e+00  1.3798513208705288e-02 -5.2777760237770026e-03 0.0000000000000000e+00 -5.2777760237770026e-03 1.2832981199248738e-02 0.0000000000000000e+00 0.0000000000000000e+00 0.0000000000000000e+00 0.0000000000000000e+00  6.4287455816715595e-03 1.3848797976532144e-03 0.0000000000000000e+00 1.3848797976532144e-03 6.2806607011608347e-03 0.0000000000000000e+00 0.0000000000000000e+00 0.0000000000000000e+00 0.0000000000000000e+00  7.7632466067507214e-03 -3.4883255502590835e-04 0.0000000000000000e+00 -3.4883255502590835e-04 7.7872185216330035e-03 0.0000000000000000e+00 0.0000000000000000e+00 0.0000000000000000e+00 0.0000000000000000e+00  7.5547511180900622e-03 6.0074712584358322e-05 0.0000000000000000e+00 6.0074712584358322e-05 7.5230963760846087e-03 0.0000000000000000e+00 0.0000000000000000e+00 0.0000000000000000e+00 0.0000000000000000e+00  7.5670202635894227e-03 -1.1545412654612296e-05 0.0000000000000000e+00 -1.1545412654612296e-05 7.5792809191355505e-03 0.0000000000000000e+00 0.0000000000000000e+00 0.0000000000000000e+00 0.0000000000000000e+00  7.5665026369522029e-03 1.0496711359357347e-05 0.0000000000000000e+00 1.0496711359357347e-05 7.5803324486399372e-03 0.0000000000000000e+00 0.0000000000000000e+00 0.0000000000000000e+00 0.0000000000000000e+00  7.5650372380314506e-03 1.9211891994267267e-05 0.0000000000000000e+00 1.9211891994267267e-05 7.5822227597851814e-03 0.0000000000000000e+00 0.0000000000000000e+00 0.0000000000000000e+00 0.0000000000000000e+00  7.5664964665980907e-03 3.1004951436311081e-05 0.0000000000000000e+00 3.1004951436311081e-05 7.5786681044045122e-03 0.0000000000000000e+00 0.0000000000000000e+00 0.0000000000000000e+00 0.0000000000000000e+00  7.5693818662397709e-03 4.3270559340077677e-05 0.0000000000000000e+00 4.3270559340077677e-05 7.5698091810603198e-03 0.0000000000000000e+00 0.0000000000000000e+00 0.0000000000000000e+00 0.0000000000000000e+00  7.6194841669547739e-03 -4.0728194181127511e-05 0.0000000000000000e+00 -4.0728194181127511e-05 7.6198322933769078e-03 0.0000000000000000e+00 0.0000000000000000e+00 0.0000000000000000e+00 0.0000000000000000e+00  7.6166428577110088e-03 -2.9673655904361510e-05 0.0000000000000000e+00 -2.9673655904361510e-05 7.6283575717008755e-03 0.0000000000000000e+00 0.0000000000000000e+00 0.0000000000000000e+00 0.0000000000000000e+00  7.6154706378372961e-03 -1.9599732336363264e-05 0.0000000000000000e+00 -1.9599732336363264e-05 7.6322435206379134e-03 0.0000000000000000e+00 0.0000000000000000e+00 0.0000000000000000e+00 0.0000000000000000e+00  7.6160822500690728e-03 -9.1855979993028344e-06 0.0000000000000000e+00 -9.1855979993028344e-06 7.6321664080977901e-03 0.0000000000000000e+00 0.0000000000000000e+00 0.0000000000000000e+00 0.0000000000000000e+00  7.6156524605063298e-03 -8.5145020696154526e-06 0.0000000000000000e+00 -8.5145020696154526e-06 7.6232887478332404e-03 0.0000000000000000e+00 0.0000000000000000e+00 0.0000000000000000e+00 0.0000000000000000e+00  7.6381425728810079e-03 3.2105768943859519e-05 0.0000000000000000e+00 3.2105768943859519e-05 7.6383575091213641e-03 0.0000000000000000e+00 0.0000000000000000e+00 0.0000000000000000e+00 0.0000000000000000e+00  7.5277881002667182e-03 -1.0833386145974900e-04 0.0000000000000000e+00 -1.0833386145974900e-04 7.5049779317677250e-03 0.0000000000000000e+00 0.0000000000000000e+00 0.0000000000000000e+00 0.0000000000000000e+00  8.1147902128958834e-03 4.3559779037579419e-04 0.0000000000000000e+00 4.3559779037579419e-04 8.0416351987247607e-03 0.0000000000000000e+00 0.0000000000000000e+00 0.0000000000000000e+00 0.0000000000000000e+00  5.6286678055134133e-03 -1.2390222544518585e-03 0.0000000000000000e+00 -1.2390222544518585e-03 5.7758156339838673e-03 0.0000000000000000e+00 0.0000000000000000e+00 0.0000000000000000e+00 0.0000000000000000e+00  1.5479471478825457e-02 3.8282592812280926e-03 0.0000000000000000e+00 3.8282592812280926e-03 1.4186245332032081e-02 0.0000000000000000e+00 0.0000000000000000e+00 0.0000000000000000e+00 0.0000000000000000e+00  -1.7705196356953657e-02 -6.1719182428566248e-03 0.0000000000000000e+00 -6.1719182428566248e-03 -1.6500481819978371e-02 0.0000000000000000e+00 0.0000000000000000e+00 0.0000000000000000e+00 0.0000000000000000e+00  1.0322957057332700e-01 4.7115293866260739e-02 0.0000000000000000e+00 4.7115293866260739e-02 1.0170011234166244e-01 0.0000000000000000e+00 0.0000000000000000e+00 0.0000000000000000e+00 0.0000000000000000e+00  -2.3884683945496291e-01 -1.3252336104919496e-01 0.0000000000000000e+00 -1.3252336104919496e-01 -2.5857564708934583e-01 0.0000000000000000e+00 0.0000000000000000e+00 0.0000000000000000e+00 0.0000000000000000e+00  -2.7990502764293157e-02 1.7076836156979875e-02 0.0000000000000000e+00 1.7076836156979875e-02 -9.2878316439881564e-02 0.0000000000000000e+00 0.0000000000000000e+00 0.0000000000000000e+00 0.0000000000000000e+00  -1.0273695526543883e-01 3.1215173780405635e-02 0.0000000000000000e+00 3.1215173780405635e-02 -6.5802558129610195e-02 0.0000000000000000e+00 0.0000000000000000e+00 0.0000000000000000e+00 0.0000000000000000e+00  -1.2980168435514708e-01 -8.2932795130062319e-03 0.0000000000000000e+00 -8.2932795130062319e-03 -8.8111674354461031e-02 0.0000000000000000e+00 0.0000000000000000e+00 0.0000000000000000e+00 0.0000000000000000e+00  -7.5346036544213069e-02 -1.1800098893235710e-02 0.0000000000000000e+00 -1.1800098893235710e-02 -9.8989312929997991e-02 0.0000000000000000e+00 0.0000000000000000e+00 0.0000000000000000e+00 0.0000000000000000e+00  -9.6625037065515479e-02 -3.9212691925481231e-03 0.0000000000000000e+00 -3.9212691925481231e-03 -8.6394086228672090e-02 0.0000000000000000e+00 0.0000000000000000e+00 0.0000000000000000e+00 0.0000000000000000e+00  -9.0323915763501156e-02 -9.3880949970100176e-03 0.0000000000000000e+00 -9.3880949970100176e-03 -8.9497286472030618e-02 0.0000000000000000e+00 0.0000000000000000e+00 0.0000000000000000e+00 0.0000000000000000e+00  -8.8556762459283705e-02 -8.2473657039689521e-03 0.0000000000000000e+00 -8.2473657039689521e-03 -9.1273340432767039e-02 0.0000000000000000e+00 0.0000000000000000e+00 0.0000000000000000e+00 0.0000000000000000e+00  -8.8679372497277600e-02 -8.0068950219284868e-03 0.0000000000000000e+00 -8.0068950219284868e-03 -9.1683650101838182e-02 0.0000000000000000e+00 0.0000000000000000e+00 0.0000000000000000e+00 0.0000000000000000e+00  -8.7486338434249855e-02 -6.9294806331436894e-03 0.0000000000000000e+00 -6.9294806331436894e-03 -9.3270715094435519e-02 0.0000000000000000e+00 0.0000000000000000e+00 0.0000000000000000e+00 0.0000000000000000e+00  -8.7030132744991301e-02 -4.6064043902012712e-03 0.0000000000000000e+00 -4.6064043902012712e-03 -9.3825432537152531e-02 0.0000000000000000e+00 0.0000000000000000e+00 0.0000000000000000e+00 0.0000000000000000e+00  -8.7813031486011689e-02 -1.6918151722182626e-03 0.0000000000000000e+00 -1.6918151722182626e-03 -9.2332834676605052e-02 0.0000000000000000e+00 0.0000000000000000e+00 0.0000000000000000e+00 0.0000000000000000e+00  -9.0064730163843254e-02 5.6532972451441054e-04 0.0000000000000000e+00 5.6532972451441054e-04 -8.8490702713383870e-02 0.0000000000000000e+00 0.0000000000000000e+00 0.0000000000000000e+00 0.0000000000000000e+00  -9.3165509380801800e-02 9.5665137620514005e-04 0.0000000000000000e+00 9.5665137620514005e-04 -8.3296247007584923e-02 0.0000000000000000e+00 0.0000000000000000e+00 0.0000000000000000e+00 0.0000000000000000e+00  -9.6086171675044699e-02 -7.3700628490944837e-04 0.0000000000000000e+00 -7.3700628490944837e-04 -7.8465342546587935e-02 0.0000000000000000e+00 0.0000000000000000e+00 0.0000000000000000e+00 0.0000000000000000e+00  -9.8105927825861305e-02 -3.8692576142389471e-03 0.0000000000000000e+00 -3.8692576142389471e-03 -7.5412215138061220e-02 0.0000000000000000e+00 0.0000000000000000e+00 0.0000000000000000e+00 0.0000000000000000e+00  -9.8970193559999309e-02 -7.4865064844849213e-03 0.0000000000000000e+00 -7.4865064844849213e-03 -7.4820658372967003e-02 0.0000000000000000e+00 0.0000000000000000e+00 0.0000000000000000e+00 0.0000000000000000e+00  -9.8683886301918461e-02 -1.0619174756526175e-02 0.0000000000000000e+00 -1.0619174756526175e-02 -7.6737551598024950e-02 0.0000000000000000e+00 0.0000000000000000e+00 0.0000000000000000e+00 0.0000000000000000e+00  -9.7482805196718467e-02 -1.2303159809361185e-02 0.0000000000000000e+00 -1.2303159809361185e-02 -8.0596042812104571e-02 0.0000000000000000e+00 0.0000000000000000e+00 0.0000000000000000e+00 0.0000000000000000e+00  -9.6043439662501159e-02 -1.1798316666160311e-02 0.0000000000000000e+00 -1.1798316666160311e-02 -8.5099502745079589e-02 0.0000000000000000e+00 0.0000000000000000e+00 0.0000000000000000e+00 0.0000000000000000e+00  -9.5437194821232585e-02 -9.1349345057175225e-03 0.0000000000000000e+00 -9.1349345057175225e-03 -8.8516771371272590e-02 0.0000000000000000e+00 0.0000000000000000e+00 0.0000000000000000e+00 0.0000000000000000e+00  -9.6489618451567047e-02 -5.3971750988289933e-03 0.0000000000000000e+00 -5.3971750988289933e-03 -8.9650932898633282e-02 0.0000000000000000e+00 0.0000000000000000e+00 0.0000000000000000e+00 0.0000000000000000e+00  -9.9179109872177748e-02 -1.9488208797955216e-03 0.0000000000000000e+00 -1.9488208797955216e-03 -8.8627977440956768e-02 0.0000000000000000e+00 0.0000000000000000e+00 0.0000000000000000e+00 0.0000000000000000e+00  -1.0312994182177895e-01 4.0344530275179645e-04 0.0000000000000000e+00 4.0344530275179629e-04 -8.6452593619504706e-02 0.0000000000000000e+00 0.0000000000000000e+00 0.0000000000000000e+00 0.0000000000000000e+00  -1.0679078939669050e-01 1.6670446841082955e-03 0.0000000000000000e+00 1.6670446841082955e-03 -8.5318763927908201e-02 0.0000000000000000e+00 0.0000000000000000e+00 0.0000000000000000e+00 0.0000000000000000e+00  -1.1088559668026977e-01 3.6291403418382451e-03 0.0000000000000000e+00 3.6291403418382451e-03 -8.5007330593117686e-02 0.0000000000000000e+00 0.0000000000000000e+00 0.0000000000000000e+00 0.0000000000000000e+00  -1.2268697162640595e-01 1.3792961718138927e-03 0.0000000000000000e+00 1.3792961718138927e-03 -8.2273954669783100e-02 0.0000000000000000e+00 0.0000000000000000e+00 0.0000000000000000e+00 0.0000000000000000e+00  -1.1033640424237585e-01 2.8143689999233701e-03 0.0000000000000000e+00 2.8143689999233701e-03 -9.7730878241510721e-02 0.0000000000000000e+00 0.0000000000000000e+00 0.0000000000000000e+00 0.0000000000000000e+00  -1.4092497667669299e-01 2.1543506312063102e-02 0.0000000000000000e+00 2.1543506312063102e-02 -9.8301945294675772e-02 0.0000000000000000e+00 0.0000000000000000e+00 0.0000000000000000e+00 0.0000000000000000e+00  -1.7727035143573822e-01 -3.4714753982892380e-02 0.0000000000000000e+00 -3.4714753982892380e-02 -9.7614570016034977e-02 0.0000000000000000e+00 0.0000000000000000e+00 0.0000000000000000e+00 0.0000000000000000e+00  -3.6280143572206040e-02 3.0797164887010606e-02 0.0000000000000000e+00 3.0797164887010606e-02 -4.9437835323720605e-02 0.0000000000000000e+00 0.0000000000000000e+00 0.0000000000000000e+00 0.0000000000000000e+00  -3.1902771211142972e-01 4.8992132759575639e-02 0.0000000000000000e+00 4.8992132759575639e-02 -3.2356561277432999e-01 0.0000000000000000e+00 0.0000000000000000e+00 0.0000000000000000e+00 0.0000000000000000e+00  7.1944435040657548e-02 2.1012533516450799e-02 0.0000000000000000e+00 2.1012533516450799e-02 5.4347296991019457e-02 0.0000000000000000e+00 0.0000000000000000e+00 0.0000000000000000e+00 0.0000000000000000e+00  -1.6183675325820084e-02 -1.4966365315160959e-02 0.0000000000000000e+00 -1.4966365315160959e-02 -1.2309569013437169e-02 0.0000000000000000e+00 0.0000000000000000e+00 0.0000000000000000e+00 0.0000000000000000e+00  9.2653177225235032e-03 3.5208218984372628e-04 0.0000000000000000e+00 3.5208218984372628e-04 6.3710702040737643e-03 0.0000000000000000e+00 0.0000000000000000e+00 0.0000000000000000e+00 0.0000000000000000e+00  7.6023311285713024e-04 4.3367744761090287e-04 0.0000000000000000e+00 4.3367744761090287e-04 1.2262030342549191e-03 0.0000000000000000e+00 0.0000000000000000e+00 0.0000000000000000e+00 0.0000000000000000e+00  2.7994518843896215e-03 -1.8891998163224631e-04 0.0000000000000000e+00 -1.8891998163224631e-04 2.7343104855342640e-03 0.0000000000000000e+00 0.0000000000000000e+00 0.0000000000000000e+00 0.0000000000000000e+00  2.3840921811057029e-03 9.2429688150175398e-05 0.0000000000000000e+00 9.2429688150175412e-05 2.3342201358199231e-03 0.0000000000000000e+00 0.0000000000000000e+00 0.0000000000000000e+00 0.0000000000000000e+00  2.4705280121404935e-03 2.4536846546624486e-07 0.0000000000000000e+00 2.4536846546624259e-07 2.4027136227778513e-03 0.0000000000000000e+00 0.0000000000000000e+00 0.0000000000000000e+00 0.0000000000000000e+00  2.3844644551678355e-03 -9.3896577838891573e-05 0.0000000000000000e+00 -9.3896577838891573e-05 2.3389089004656385e-03 0.0000000000000000e+00 0.0000000000000000e+00 0.0000000000000000e+00 0.0000000000000000e+00  2.7987082556741151e-03 1.7746974615600244e-04 0.0000000000000000e+00 1.7746974615600244e-04 2.7350221847037832e-03 0.0000000000000000e+00 0.0000000000000000e+00 0.0000000000000000e+00 0.0000000000000000e+00  7.8662456059304517e-04 -2.8397568215729170e-04 0.0000000000000000e+00 -2.8397568215729170e-04 1.2988513054452558e-03 0.0000000000000000e+00 0.0000000000000000e+00 0.0000000000000000e+00 0.0000000000000000e+00  9.0080318382315810e-03 -9.6360010114689165e-04 0.0000000000000000e+00 -9.6360010114689165e-04 6.0738701719990160e-03 0.0000000000000000e+00 0.0000000000000000e+00 0.0000000000000000e+00 0.0000000000000000e+00  -1.5340074600043848e-02 1.7294374572074431e-02 0.0000000000000000e+00 1.7294374572074431e-02 -1.1457365316113695e-02 0.0000000000000000e+00 0.0000000000000000e+00 0.0000000000000000e+00 0.0000000000000000e+00  6.7990018016071241e-02 -2.5708430755688950e-02 0.0000000000000000e+00 -2.5708430755688950e-02 5.2804800431810794e-02 0.0000000000000000e+00 0.0000000000000000e+00 0.0000000000000000e+00 0.0000000000000000e+00  -3.1532414612229309e-01 -4.5266429629608140e-02 0.0000000000000000e+00 -4.5266429629608140e-02 -3.2470178929010429e-01 0.0000000000000000e+00 0.0000000000000000e+00 0.0000000000000000e+00 0.0000000000000000e+00  -3.4134163955446509e-02 -3.0269248032079688e-02 0.0000000000000000e+00 -3.0269248032079688e-02 -4.8358644027323934e-02 0.0000000000000000e+00 0.0000000000000000e+00 0.0000000000000000e+00 0.0000000000000000e+00  -1.7598790704303713e-01 3.4181384934655876e-02 0.0000000000000000e+00 3.4181384934655876e-02 -9.3572187112601721e-02 0.0000000000000000e+00 0.0000000000000000e+00 0.0000000000000000e+00 0.0000000000000000e+00  -1.3996855724480758e-01 -2.1860882387856256e-02 0.0000000000000000e+00 -2.1860882387856256e-02 -9.6465804759739912e-02 0.0000000000000000e+00 0.0000000000000000e+00 0.0000000000000000e+00 0.0000000000000000e+00  -1.0890952823753970e-01 -3.7229481308300979e-03 0.0000000000000000e+00 -3.7229481308300979e-03 -9.6732483567509284e-02 0.0000000000000000e+00 0.0000000000000000e+00 0.0000000000000000e+00 0.0000000000000000e+00  -1.2165824922352836e-01 -1.9568921860739926e-03 0.0000000000000000e+00 -1.9568921860739926e-03 -8.1742971186278296e-02 0.0000000000000000e+00 0.0000000000000000e+00 0.0000000000000000e+00 0.0000000000000000e+00  -1.1002533229553685e-01 -4.1617840113545865e-03 0.0000000000000000e+00 -4.1617840113545865e-03 -8.4836054925159957e-02 0.0000000000000000e+00 0.0000000000000000e+00 0.0000000000000000e+00 0.0000000000000000e+00  -1.0601698084788944e-01 -2.0453717374497218e-03 0.0000000000000000e+00 -2.0453717374497218e-03 -8.5421857285545563e-02 0.0000000000000000e+00 0.0000000000000000e+00 0.0000000000000000e+00 0.0000000000000000e+00  -1.0250106767096098e-01 -6.6266750691846210e-04 0.0000000000000000e+00 -6.6266750691846210e-04 -8.6662319381750355e-02 0.0000000000000000e+00 0.0000000000000000e+00 0.0000000000000000e+00 0.0000000000000000e+00  -9.8653861292560180e-02 1.7682540246153186e-03 0.0000000000000000e+00 1.7682540246153186e-03 -8.8887150418081429e-02 0.0000000000000000e+00 0.0000000000000000e+00 0.0000000000000000e+00 0.0000000000000000e+00  -9.6052263137422822e-02 5.2652702836107554e-03 0.0000000000000000e+00 5.2652702836107554e-03 -8.9914391237064531e-02 0.0000000000000000e+00 0.0000000000000000e+00 0.0000000000000000e+00 0.0000000000000000e+00  -9.5069956161450475e-02 9.0244101990410459e-03 0.0000000000000000e+00 9.0244101990410459e-03 -8.8760685608836418e-02 0.0000000000000000e+00 0.0000000000000000e+00 0.0000000000000000e+00 0.0000000000000000e+00  -9.5729415858537642e-02 1.1691504919781990e-02 0.0000000000000000e+00 1.1691504919781990e-02 -8.5314300357612990e-02 0.0000000000000000e+00 0.0000000000000000e+00 0.0000000000000000e+00 0.0000000000000000e+00  -9.7209288689423315e-02 1.2188921037754305e-02 0.0000000000000000e+00 1.2188921037754305e-02 -8.0778327684877568e-02 0.0000000000000000e+00 0.0000000000000000e+00 0.0000000000000000e+00 0.0000000000000000e+00  -9.8441195539364285e-02 1.0491353764625878e-02 0.0000000000000000e+00 1.0491353764625878e-02 -7.6887561887192923e-02 0.0000000000000000e+00 0.0000000000000000e+00 0.0000000000000000e+00 0.0000000000000000e+00  -9.8752255903679628e-02 7.3431400488469592e-03 0.0000000000000000e+00 7.3431400488469592e-03 -7.4939624248277131e-02 0.0000000000000000e+00 0.0000000000000000e+00 0.0000000000000000e+00 0.0000000000000000e+00  -9.7911131381908129e-02 3.7097422354230442e-03 0.0000000000000000e+00 3.7097422354230442e-03 -7.5500238270029996e-02 0.0000000000000000e+00 0.0000000000000000e+00 0.0000000000000000e+00 0.0000000000000000e+00  -9.5915468634411541e-02 5.5845798599809366e-04 0.0000000000000000e+00 5.5845798599809366e-04 -7.8522953099645409e-02 0.0000000000000000e+00 0.0000000000000000e+00 0.0000000000000000e+00 0.0000000000000000e+00  -9.3017742532699593e-02 -1.1595709892661186e-03 0.0000000000000000e+00 -1.1595709892661186e-03 -8.3329031039539272e-02 0.0000000000000000e+00 0.0000000000000000e+00 0.0000000000000000e+00 0.0000000000000000e+00  -8.9933745389523229e-02 -7.9531184242770728e-04 0.0000000000000000e+00 -7.9531184242770728e-04 -8.8511150579147907e-02 0.0000000000000000e+00 0.0000000000000000e+00 0.0000000000000000e+00 0.0000000000000000e+00  -8.7691146162440892e-02 1.4402413992095527e-03 0.0000000000000000e+00 1.4402413992095527e-03 -9.2354367123106670e-02 0.0000000000000000e+00 0.0000000000000000e+00 0.0000000000000000e+00 0.0000000000000000e+00  -8.6915056003137300e-02 4.3443099283103455e-03 0.0000000000000000e+00 4.3443099283103455e-03 -9.3853745770192579e-02 0.0000000000000000e+00 0.0000000000000000e+00 0.0000000000000000e+00 0.0000000000000000e+00  -8.7379810882189810e-02 6.6647039945881715e-03 0.0000000000000000e+00 6.6647039945881715e-03 -9.3304404764980156e-02 0.0000000000000000e+00 0.0000000000000000e+00 0.0000000000000000e+00 0.0000000000000000e+00  -8.8586624197055791e-02 7.7435783877038127e-03 0.0000000000000000e+00 7.7435783877038127e-03 -9.1716311322467256e-02 0.0000000000000000e+00 0.0000000000000000e+00 0.0000000000000000e+00 0.0000000000000000e+00  -8.8488902518765872e-02 7.9773657853800337e-03 0.0000000000000000e+00 7.9773657853800337e-03 -9.1298760661009462e-02 0.0000000000000000e+00 0.0000000000000000e+00 0.0000000000000000e+00 0.0000000000000000e+00  -9.0216193535578151e-02 9.1242780612687327e-03 0.0000000000000000e+00 9.1242780612687327e-03 -8.9560664494350531e-02 0.0000000000000000e+00 0.0000000000000000e+00 0.0000000000000000e+00 0.0000000000000000e+00  -9.6604456407458225e-02 3.6954954395638324e-03 0.0000000000000000e+00 3.6954954395638324e-03 -8.6405231242051891e-02 0.0000000000000000e+00 0.0000000000000000e+00 0.0000000000000000e+00 0.0000000000000000e+00  -7.5350388587410444e-02 1.1392358105584258e-02 0.0000000000000000e+00 1.1392358105584258e-02 -9.9024407609432583e-02 0.0000000000000000e+00 0.0000000000000000e+00 0.0000000000000000e+00 0.0000000000000000e+00  -1.2918388069914405e-01 8.4033228457737665e-03 0.0000000000000000e+00 8.4033228457737665e-03 -8.8295583704117234e-02 0.0000000000000000e+00 0.0000000000000000e+00 0.0000000000000000e+00 0.0000000000000000e+00  -1.0339914909656582e-01 -3.1701712758047527e-02 0.0000000000000000e+00 -3.1701712758047527e-02 -6.6336552887999875e-02 0.0000000000000000e+00 0.0000000000000000e+00 0.0000000000000000e+00 0.0000000000000000e+00  -2.7046805003069514e-02 -1.6602678128509352e-02 0.0000000000000000e+00 -1.6602678128509352e-02 -9.1344817363349942e-02 0.0000000000000000e+00 0.0000000000000000e+00 0.0000000000000000e+00 0.0000000000000000e+00  -2.3994179469517929e-01 1.3132873230110700e-01 0.0000000000000000e+00 1.3132873230110700e-01 -2.5966125396567824e-01 0.0000000000000000e+00 0.0000000000000000e+00 0.0000000000000000e+00 0.0000000000000000e+00  1.0321803000245759e-01 -4.6272901358100124e-02 0.0000000000000000e+00 -4.6272901358100124e-02 1.0197921808691712e-01 0.0000000000000000e+00 0.0000000000000000e+00 0.0000000000000000e+00 0.0000000000000000e+00  -1.7351704555999610e-02 5.9164033541600890e-03 0.0000000000000000e+00 5.9164033541600890e-03 -1.6176692686536692e-02 0.0000000000000000e+00 0.0000000000000000e+00 0.0000000000000000e+00 0.0000000000000000e+00  1.5480638795261228e-02 -3.7752416360347235e-03 0.0000000000000000e+00 -3.7752416360347235e-03 1.4153496030608054e-02 0.0000000000000000e+00 0.0000000000000000e+00 0.0000000000000000e+00 0.0000000000000000e+00  5.5344501947550331e-03 1.2301436064654624e-03 0.0000000000000000e+00 1.2301436064654624e-03 5.6774262609087522e-03 0.0000000000000000e+00 0.0000000000000000e+00 0.0000000000000000e+00 0.0000000000000000e+00  8.0611469493773093e-03 -4.2489307574707037e-04 0.0000000000000000e+00 -4.2489307574707037e-04 7.9904325065855136e-03 0.0000000000000000e+00 0.0000000000000000e+00 0.0000000000000000e+00 0.0000000000000000e+00  7.4604158951899124e-03 1.0914126182678309e-04 0.0000000000000000e+00 1.0914126182678309e-04 7.4418856266942656e-03 0.0000000000000000e+00 0.0000000000000000e+00 0.0000000000000000e+00 0.0000000000000000e+00  7.5761139273332169e-03 -3.0571214357400417e-05 0.0000000000000000e+00 -3.0571214357400417e-05 7.5797094569780210e-03 0.0000000000000000e+00 0.0000000000000000e+00 0.0000000000000000e+00 0.0000000000000000e+00  7.5531214476256096e-03 8.5140183570648596e-06 0.0000000000000000e+00 8.5140183570648596e-06 7.5630868420972471e-03 0.0000000000000000e+00 0.0000000000000000e+00 0.0000000000000000e+00 0.0000000000000000e+00  7.5536675457791953e-03 8.9803166734464279e-06 0.0000000000000000e+00 8.9803166734464279e-06 7.5722955072896215e-03 0.0000000000000000e+00 0.0000000000000000e+00 0.0000000000000000e+00 0.0000000000000000e+00  7.5533378614789934e-03 1.9091171197676008e-05 0.0000000000000000e+00 1.9091171197676008e-05 7.5718944475067912e-03 0.0000000000000000e+00 0.0000000000000000e+00 0.0000000000000000e+00 0.0000000000000000e+00  7.5547370245324340e-03 2.8803897415265023e-05 0.0000000000000000e+00 2.8803897415265023e-05 7.5674923399757935e-03 0.0000000000000000e+00 0.0000000000000000e+00 0.0000000000000000e+00 0.0000000000000000e+00  7.5578411755013444e-03 3.9424282136935343e-05 0.0000000000000000e+00 3.9424282136935343e-05 7.5582132725489836e-03 0.0000000000000000e+00 0.0000000000000000e+00 0.0000000000000000e+00 0.0000000000000000e+00  7.6089237396911556e-03 -3.7054221274956557e-05 0.0000000000000000e+00 -3.7054221274956557e-05 7.6092547301559862e-03 0.0000000000000000e+00 0.0000000000000000e+00 0.0000000000000000e+00 0.0000000000000000e+00  7.6058750203629412e-03 -2.7554786406221966e-05 0.0000000000000000e+00 -2.7554786406221966e-05 7.6184375601730621e-03 0.0000000000000000e+00 0.0000000000000000e+00 0.0000000000000000e+00 0.0000000000000000e+00  7.6043987647625086e-03 -1.8792949621918002e-05 0.0000000000000000e+00 -1.8792949621918002e-05 7.6234113563105827e-03 0.0000000000000000e+00 0.0000000000000000e+00 0.0000000000000000e+00 0.0000000000000000e+00  7.6042002055101655e-03 -1.1860498855059737e-05 0.0000000000000000e+00 -1.1860498855059737e-05 7.6236261596250741e-03 0.0000000000000000e+00 0.0000000000000000e+00 0.0000000000000000e+00 0.0000000000000000e+00  7.6076672839963649e-03 -2.6624582728309441e-06 0.0000000000000000e+00 -2.6624582728309441e-06 7.6222870659164339e-03 0.0000000000000000e+00 0.0000000000000000e+00 0.0000000000000000e+00 0.0000000000000000e+00  7.6004342825176990e-03 -9.9189618830917203e-06 0.0000000000000000e+00 -9.9189618830917186e-06 7.6046258947829225e-03 0.0000000000000000e+00 0.0000000000000000e+00 0.0000000000000000e+00 0.0000000000000000e+00  7.6543330738033932e-03 3.8554179200489263e-05 0.0000000000000000e+00 3.8554179200489263e-05 7.6417406246825116e-03 0.0000000000000000e+00 0.0000000000000000e+00 0.0000000000000000e+00 0.0000000000000000e+00  7.4499338474728269e-03 -1.0610496672093575e-04 0.0000000000000000e+00 -1.0610496672093575e-04 7.4383772777088459e-03 0.0000000000000000e+00 0.0000000000000000e+00 0.0000000000000000e+00 0.0000000000000000e+00  8.2751928404830987e-03 3.3183630552210410e-04 0.0000000000000000e+00 3.3183630552210410e-04 8.1472491476219499e-03 0.0000000000000000e+00 0.0000000000000000e+00 0.0000000000000000e+00 0.0000000000000000e+00  5.4561080605919198e-03 -7.9059632168340373e-04 0.0000000000000000e+00 -7.9059632168340373e-04 5.5591406095521828e-03 0.0000000000000000e+00 0.0000000000000000e+00 0.0000000000000000e+00 0.0000000000000000e+00  1.5114965221736885e-02 2.7308545856497535e-03 0.0000000000000000e+00 2.7308545856497535e-03 1.4999111407883833e-02 0.0000000000000000e+00 0.0000000000000000e+00 0.0000000000000000e+00 0.0000000000000000e+00  -1.6637458666769186e-02 -5.7122560558233743e-03 0.0000000000000000e+00 -5.7122560558233743e-03 -1.7728987932550771e-02 0.0000000000000000e+00 0.0000000000000000e+00 0.0000000000000000e+00 0.0000000000000000e+00  8.8687818729637949e-02 5.7225147582118621e-02 0.0000000000000000e+00 5.7225147582118621e-02 1.1182538318158383e-01 0.0000000000000000e+00 0.0000000000000000e+00 0.0000000000000000e+00 0.0000000000000000e+00  -2.0129314369947743e-01 -1.5835746613143270e-01 0.0000000000000000e+00 -1.5835746613143270e-01 -2.3699346766251894e-01 0.0000000000000000e+00 0.0000000000000000e+00 0.0000000000000000e+00 0.0000000000000000e+00  -7.4227725782705770e-02 5.2007814122305658e-02 0.0000000000000000e+00 5.2007814122305658e-02 -2.2663978485675929e-01 0.0000000000000000e+00 0.0000000000000000e+00 0.0000000000000000e+00 0.0000000000000000e+00  -4.3540377371689670e-02 -2.7286787114902994e-03 0.0000000000000000e+00 -2.7286787114902994e-03 -1.1778258680916505e-02 0.0000000000000000e+00 0.0000000000000000e+00 0.0000000000000000e+00 0.0000000000000000e+00  -1.6169699717434285e-01 1.7232608104852089e-02 0.0000000000000000e+00 1.7232608104852089e-02 -5.3421647358231808e-02 0.0000000000000000e+00 0.0000000000000000e+00 0.0000000000000000e+00 0.0000000000000000e+00  -8.5683374887575617e-02 -2.0298854634232737e-02 0.0000000000000000e+00 -2.0298854634232737e-02 -9.1331471355147992e-02 0.0000000000000000e+00 0.0000000000000000e+00 0.0000000000000000e+00 0.0000000000000000e+00  -8.3233842389691740e-02 -6.6110078018387372e-03 0.0000000000000000e+00 -6.6110078018387372e-03 -9.2613211581080518e-02 0.0000000000000000e+00 0.0000000000000000e+00 0.0000000000000000e+00 0.0000000000000000e+00  -9.3122963990379073e-02 -8.1606322847628150e-03 0.0000000000000000e+00 -8.1606322847628150e-03 -8.6941792505276935e-02 0.0000000000000000e+00 0.0000000000000000e+00 0.0000000000000000e+00 0.0000000000000000e+00  -8.8065216265057103e-02 -9.6801879632068526e-03 0.0000000000000000e+00 -9.6801879632068526e-03 -9.2219855089564387e-02 0.0000000000000000e+00 0.0000000000000000e+00 0.0000000000000000e+00 0.0000000000000000e+00  -8.6642699504290821e-02 -7.9130531444141210e-03 0.0000000000000000e+00 -7.9130531444141210e-03 -9.5383579905439830e-02 0.0000000000000000e+00 0.0000000000000000e+00 0.0000000000000000e+00 0.0000000000000000e+00  -8.5978584780382339e-02 -4.8306591911479093e-03 0.0000000000000000e+00 -4.8306591911479093e-03 -9.6990212433553005e-02 0.0000000000000000e+00 0.0000000000000000e+00 0.0000000000000000e+00 0.0000000000000000e+00  -8.6510722218987146e-02 -1.6709822742845036e-05 0.0000000000000000e+00 -1.6709822742845036e-05 -9.5794874744062772e-02 0.0000000000000000e+00 0.0000000000000000e+00 0.0000000000000000e+00 0.0000000000000000e+00  -8.9599077208667041e-02 3.9327130275370464e-03 0.0000000000000000e+00 3.9327130275370464e-03 -9.0224778788306301e-02 0.0000000000000000e+00 0.0000000000000000e+00 0.0000000000000000e+00 0.0000000000000000e+00  -9.3945257375040211e-02 4.5987864715720120e-03 0.0000000000000000e+00 4.5987864715720120e-03 -8.2207119832291037e-02 0.0000000000000000e+00 0.0000000000000000e+00 0.0000000000000000e+00 0.0000000000000000e+00  -9.7577773103067394e-02 2.0103823929638279e-03 0.0000000000000000e+00 2.0103823929638279e-03 -7.5127101251745265e-02 0.0000000000000000e+00 0.0000000000000000e+00 0.0000000000000000e+00 0.0000000000000000e+00  -9.9779604722645673e-02 -2.3664949481559411e-03 0.0000000000000000e+00 -2.3664949481559411e-03 -7.1005953584316162e-02 0.0000000000000000e+00 0.0000000000000000e+00 0.0000000000000000e+00 0.0000000000000000e+00  -1.0067227137634016e-01 -7.2187379509478797e-03 0.0000000000000000e+00 -7.2187379509478797e-03 -7.0420578727622196e-02 0.0000000000000000e+00 0.0000000000000000e+00 0.0000000000000000e+00 0.0000000000000000e+00  -1.0030150405843093e-01 -1.1567556869021507e-02 0.0000000000000000e+00 -1.1567556869021509e-02 -7.3391358487420982e-02 0.0000000000000000e+00 0.0000000000000000e+00 0.0000000000000000e+00 0.0000000000000000e+00  -9.8540877253847414e-02 -1.4187774006218238e-02 0.0000000000000000e+00 -1.4187774006218238e-02 -7.9489816372941141e-02 0.0000000000000000e+00 0.0000000000000000e+00 0.0000000000000000e+00 0.0000000000000000e+00  -9.5912710489771985e-02 -1.3556598162538583e-02 0.0000000000000000e+00 -1.3556598162538583e-02 -8.7010271084950228e-02 0.0000000000000000e+00 0.0000000000000000e+00 0.0000000000000000e+00 0.0000000000000000e+00  -9.4264302226539462e-02 -9.2320949925354303e-03 0.0000000000000000e+00 -9.2320949925354303e-03 -9.2684754079881373e-02 0.0000000000000000e+00 0.0000000000000000e+00 0.0000000000000000e+00 0.0000000000000000e+00  -9.5307252102853762e-02 -3.2367511767350319e-03 0.0000000000000000e+00 -3.2367511767350319e-03 -9.4029762734751249e-02 0.0000000000000000e+00 0.0000000000000000e+00 0.0000000000000000e+00 0.0000000000000000e+00  -9.8206463493582016e-02 1.5087477382745465e-03 0.0000000000000000e+00 1.5087477382745463e-03 -9.2092687613587673e-02 0.0000000000000000e+00 0.0000000000000000e+00 0.0000000000000000e+00 0.0000000000000000e+00  -1.0184904848733980e-01 4.9055356237404863e-03 0.0000000000000000e+00 4.9055356237404863e-03 -8.8752875005227022e-02 0.0000000000000000e+00 0.0000000000000000e+00 0.0000000000000000e+00 0.0000000000000000e+00  -1.0952507399178157e-01 5.8758841291181117e-03 0.0000000000000000e+00 5.8758841291181117e-03 -8.3134892881606040e-02 0.0000000000000000e+00 0.0000000000000000e+00 0.0000000000000000e+00 0.0000000000000000e+00  -1.0848914089001285e-01 4.2799998691192822e-03 0.0000000000000000e+00 4.2799998691192822e-03 -8.5741393785509587e-02 0.0000000000000000e+00 0.0000000000000000e+00 0.0000000000000000e+00 0.0000000000000000e+00  -1.0236836986700687e-01 1.7089138399911954e-02 0.0000000000000000e+00 1.7089138399911954e-02 -9.2701349978304606e-02 0.0000000000000000e+00 0.0000000000000000e+00 0.0000000000000000e+00 0.0000000000000000e+00  -1.7834776984314155e-01 -2.0870919236257268e-03 0.0000000000000000e+00 -2.0870919236257268e-03 -6.3939529433652692e-02 0.0000000000000000e+00 0.0000000000000000e+00 0.0000000000000000e+00 0.0000000000000000e+00  -1.1978999396415005e-01 -1.3636384096578634e-02 0.0000000000000000e+00 -1.3636384096578634e-02 -3.3231704596779543e-02 0.0000000000000000e+00 0.0000000000000000e+00 0.0000000000000000e+00 0.0000000000000000e+00  -3.7196788758627121e-02 -2.8908949734360199e-05 0.0000000000000000e+00 -2.8908949734360199e-05 -1.4114343669436860e-01 0.0000000000000000e+00 0.0000000000000000e+00 0.0000000000000000e+00 0.0000000000000000e+00  -2.7281357198739470e-01 8.5507637262744671e-02 0.0000000000000000e+00 8.5507637262744671e-02 -3.4414452599319595e-01 0.0000000000000000e+00 0.0000000000000000e+00 0.0000000000000000e+00 0.0000000000000000e+00  5.4167212282585323e-02 1.2905227181969344e-02 0.0000000000000000e+00 1.2905227181969344e-02 8.6460731282265280e-02 0.0000000000000000e+00 0.0000000000000000e+00 0.0000000000000000e+00 0.0000000000000000e+00  -1.0038166200314535e-02 -2.2142130913138162e-02 0.0000000000000000e+00 -2.2142130913138162e-02 -1.0222367565901990e-02 0.0000000000000000e+00 0.0000000000000000e+00 0.0000000000000000e+00 0.0000000000000000e+00  7.1683868632529480e-03 4.1497739343769567e-03 0.0000000000000000e+00 4.1497739343769567e-03 6.0475577299733173e-03 0.0000000000000000e+00 0.0000000000000000e+00 0.0000000000000000e+00 0.0000000000000000e+00  8.8950296883249158e-04 -9.3014831972583088e-04 0.0000000000000000e+00 -9.3014831972583088e-04 1.4090659322831616e-03 0.0000000000000000e+00 0.0000000000000000e+00 0.0000000000000000e+00 0.0000000000000000e+00  2.9524146553998164e-03 8.0456338304836243e-05 0.0000000000000000e+00 8.0456338304836243e-05 2.8171219748958226e-03 0.0000000000000000e+00 0.0000000000000000e+00 0.0000000000000000e+00 0.0000000000000000e+00  2.3263028619669524e-03 5.8551685645923246e-05 0.0000000000000000e+00 5.8551685645923252e-05 2.3449289364281482e-03 0.0000000000000000e+00 0.0000000000000000e+00 0.0000000000000000e+00 0.0000000000000000e+00  2.5028510566793105e-03 2.3499533645684902e-06 0.0000000000000000e+00 2.3499533645684889e-06 2.4429821159484728e-03 0.0000000000000000e+00 0.0000000000000000e+00 0.0000000000000000e+00 0.0000000000000000e+00  2.4652392816245793e-03 -1.3690750284275930e-06 0.0000000000000000e+00 -1.3690750284275920e-06 2.3975346218548725e-03 0.0000000000000000e+00 0.0000000000000000e+00 0.0000000000000000e+00 0.0000000000000000e+00  2.5040331857336803e-03 -5.9241015974669493e-06 0.0000000000000000e+00 -5.9241015974669493e-06 2.4456693955210562e-03 0.0000000000000000e+00 0.0000000000000000e+00 0.0000000000000000e+00 0.0000000000000000e+00  2.3317099380171461e-03 -5.0591119095346321e-05 0.0000000000000000e+00 -5.0591119095346321e-05 2.3553914837371437e-03 0.0000000000000000e+00 0.0000000000000000e+00 0.0000000000000000e+00 0.0000000000000000e+00  2.9555733147054765e-03 -1.2161715690428737e-04 0.0000000000000000e+00 -1.2161715690428737e-04 2.7947745955644344e-03 0.0000000000000000e+00 0.0000000000000000e+00 0.0000000000000000e+00 0.0000000000000000e+00  1.0223176524197239e-03 1.1136689296156860e-03 0.0000000000000000e+00 1.1136689296156860e-03 1.5721371829683791e-03 0.0000000000000000e+00 0.0000000000000000e+00 0.0000000000000000e+00 0.0000000000000000e+00  6.8428771074375803e-03 -4.7007777436251265e-03 0.0000000000000000e+00 -4.7007777436251265e-03 5.9434695075462965e-03 0.0000000000000000e+00 0.0000000000000000e+00 0.0000000000000000e+00 0.0000000000000000e+00  -9.9007112375782500e-03 2.3428065586836081e-02 0.0000000000000000e+00 2.3428065586836081e-02 -1.0326341561580311e-02 0.0000000000000000e+00 0.0000000000000000e+00 0.0000000000000000e+00 0.0000000000000000e+00  5.2373412602015321e-02 -1.4316901525142927e-02 0.0000000000000000e+00 -1.4316901525142927e-02 8.6704164333813269e-02 0.0000000000000000e+00 0.0000000000000000e+00 0.0000000000000000e+00 0.0000000000000000e+00  -2.6931181177529140e-01 -8.5012931509298395e-02 0.0000000000000000e+00 -8.5012931509298395e-02 -3.4344995710303683e-01 0.0000000000000000e+00 0.0000000000000000e+00 0.0000000000000000e+00 0.0000000000000000e+00  -3.5956657257948429e-02 1.5757545463908037e-03 0.0000000000000000e+00 1.5757545463908037e-03 -1.4278547556547530e-01 0.0000000000000000e+00 0.0000000000000000e+00 0.0000000000000000e+00 0.0000000000000000e+00  -1.1589897719005546e-01 1.2741382511008382e-02 0.0000000000000000e+00 1.2741382511008382e-02 -3.0037435200763372e-02 0.0000000000000000e+00 0.0000000000000000e+00 0.0000000000000000e+00 0.0000000000000000e+00  -1.7678566601967402e-01 2.3217713926192854e-03 0.0000000000000000e+00 2.3217713926192854e-03 -6.2479166603304138e-02 0.0000000000000000e+00 0.0000000000000000e+00 0.0000000000000000e+00 0.0000000000000000e+00  -1.0083301750860912e-01 -1.7611323908376889e-02 0.0000000000000000e+00 -1.7611323908376889e-02 -9.2170130410741097e-02 0.0000000000000000e+00 0.0000000000000000e+00 0.0000000000000000e+00 0.0000000000000000e+00  -1.0688022841639273e-01 -4.5830699933356398e-03 0.0000000000000000e+00 -4.5830699933356398e-03 -8.5837458305357925e-02 0.0000000000000000e+00 0.0000000000000000e+00 0.0000000000000000e+00 0.0000000000000000e+00  -1.0841961105972664e-01 -6.0311827122321686e-03 0.0000000000000000e+00 -6.0311827122321686e-03 -8.3313975615673441e-02 0.0000000000000000e+00 0.0000000000000000e+00 0.0000000000000000e+00 0.0000000000000000e+00  -1.0092104945319637e-01 -5.0151363948004431e-03 0.0000000000000000e+00 -5.0151363948004431e-03 -8.9042600723013288e-02 0.0000000000000000e+00 0.0000000000000000e+00 0.0000000000000000e+00 0.0000000000000000e+00  -9.7443259908982435e-02 -1.5580644361609186e-03 0.0000000000000000e+00 -1.5580644361609189e-03 -9.2408878872128397e-02 0.0000000000000000e+00 0.0000000000000000e+00 0.0000000000000000e+00 0.0000000000000000e+00  -9.4689069354357433e-02 3.2065809886549154e-03 0.0000000000000000e+00 3.2065809886549154e-03 -9.4314024978804561e-02 0.0000000000000000e+00 0.0000000000000000e+00 0.0000000000000000e+00 0.0000000000000000e+00  -9.3747239178037692e-02 9.1964460634662362e-03 0.0000000000000000e+00 9.1964460634662362e-03 -9.2929673499051998e-02 0.0000000000000000e+00 0.0000000000000000e+00 0.0000000000000000e+00 0.0000000000000000e+00  -9.5468911021469580e-02 1.3505948547376884e-02 0.0000000000000000e+00 1.3505948547376884e-02 -8.7215364434415715e-02 0.0000000000000000e+00 0.0000000000000000e+00 0.0000000000000000e+00 0.0000000000000000e+00  -9.8152282855525241e-02 1.4115592535365920e-02 0.0000000000000000e+00 1.4115592535365920e-02 -7.9655441573790217e-02 0.0000000000000000e+00 0.0000000000000000e+00 0.0000000000000000e+00 0.0000000000000000e+00  -9.9952673260657834e-02 1.1470842117395972e-02 0.0000000000000000e+00 1.1470842117395972e-02 -7.3522835203331333e-02 0.0000000000000000e+00 0.0000000000000000e+00 0.0000000000000000e+00 0.0000000000000000e+00  -1.0035259322947525e-01 7.1015382315887821e-03 0.0000000000000000e+00 7.1015382315887821e-03 -7.0523272832843292e-02 0.0000000000000000e+00 0.0000000000000000e+00 0.0000000000000000e+00 0.0000000000000000e+00  -9.9488277588096224e-02 2.2348828269330057e-03 0.0000000000000000e+00 2.2348828269330057e-03 -7.1078263916289477e-02 0.0000000000000000e+00 0.0000000000000000e+00 0.0000000000000000e+00 0.0000000000000000e+00  -9.7321397273123250e-02 -2.1577901988026837e-03 0.0000000000000000e+00 -2.1577901988026837e-03 -7.5163141915102316e-02 0.0000000000000000e+00 0.0000000000000000e+00 0.0000000000000000e+00 0.0000000000000000e+00  -9.3727456370720330e-02 -4.7737709351738265e-03 0.0000000000000000e+00 -4.7737709351738265e-03 -8.2209432183068490e-02 0.0000000000000000e+00 0.0000000000000000e+00 0.0000000000000000e+00 0.0000000000000000e+00  -8.9410031161313450e-02 -4.1462472347789034e-03 0.0000000000000000e+00 -4.1462472347789034e-03 -9.0214452253422436e-02 0.0000000000000000e+00 0.0000000000000000e+00 0.0000000000000000e+00 0.0000000000000000e+00  -8.6332907476675186e-02 -2.2751506066185704e-04 0.0000000000000000e+00 -2.2751506066185704e-04 -9.5799888559353161e-02 0.0000000000000000e+00 0.0000000000000000e+00 0.0000000000000000e+00 0.0000000000000000e+00  -8.5810403130853113e-02 4.5800937068624535e-03 0.0000000000000000e+00 4.5800937068624535e-03 -9.7015069625854183e-02 0.0000000000000000e+00 0.0000000000000000e+00 0.0000000000000000e+00 0.0000000000000000e+00  -8.6499387049297063e-02 7.6648507622443570e-03 0.0000000000000000e+00 7.6648507622443570e-03 -9.5414053435372972e-02 0.0000000000000000e+00 0.0000000000000000e+00 0.0000000000000000e+00 0.0000000000000000e+00  -8.7924644808728150e-02 9.4300977052486565e-03 0.0000000000000000e+00 9.4300977052486565e-03 -9.2269861256522243e-02 0.0000000000000000e+00 0.0000000000000000e+00 0.0000000000000000e+00 0.0000000000000000e+00  -9.3008093629003225e-02 7.9391518913162276e-03 0.0000000000000000e+00 7.9391518913162276e-03 -8.6982841756701262e-02 0.0000000000000000e+00 0.0000000000000000e+00 0.0000000000000000e+00 0.0000000000000000e+00  -8.3297411416420913e-02 6.3165868317664490e-03 0.0000000000000000e+00 6.3165868317664490e-03 -9.2572663751924994e-02 0.0000000000000000e+00 0.0000000000000000e+00 0.0000000000000000e+00 0.0000000000000000e+00  -8.5303894866598548e-02 2.0038853912377544e-02 0.0000000000000000e+00 2.0038853912377544e-02 -9.1515822713566328e-02 0.0000000000000000e+00 0.0000000000000000e+00 0.0000000000000000e+00 0.0000000000000000e+00  -1.6155379768952843e-01 -1.7178979603424367e-02 0.0000000000000000e+00 -1.7178979603424367e-02 -5.3740862310621737e-02 0.0000000000000000e+00 0.0000000000000000e+00 0.0000000000000000e+00 0.0000000000000000e+00  -4.4516952548588735e-02 1.9885218031916495e-03 0.0000000000000000e+00 1.9885218031916495e-03 -1.2183548820897035e-02 0.0000000000000000e+00 0.0000000000000000e+00 0.0000000000000000e+00 0.0000000000000000e+00  -7.2536784367051008e-02 -5.1653159358416662e-02 0.0000000000000000e+00 -5.1653159358416662e-02 -2.2427003036639417e-01 0.0000000000000000e+00 0.0000000000000000e+00 0.0000000000000000e+00 0.0000000000000000e+00  -2.0258875124300557e-01 1.5762529768125319e-01 0.0000000000000000e+00 1.5762529768125319e-01 -2.3912110524065619e-01 0.0000000000000000e+00 0.0000000000000000e+00 0.0000000000000000e+00 0.0000000000000000e+00  8.8928100835296855e-02 -5.6540210557026092e-02 0.0000000000000000e+00 -5.6540210557026092e-02 1.1242819515661907e-01 0.0000000000000000e+00 0.0000000000000000e+00 0.0000000000000000e+00 0.0000000000000000e+00  -1.6026025319779279e-02 5.5193445703442734e-03 0.0000000000000000e+00 5.5193445703442734e-03 -1.7143255196000524e-02 0.0000000000000000e+00 0.0000000000000000e+00 0.0000000000000000e+00 0.0000000000000000e+00  1.5056776122184711e-02 -2.6938724280902867e-03 0.0000000000000000e+00 -2.6938724280902867e-03 1.4902708495398752e-02 0.0000000000000000e+00 0.0000000000000000e+00 0.0000000000000000e+00 0.0000000000000000e+00  5.3432649640102079e-03 7.6438890155835994e-04 0.0000000000000000e+00 7.6438890155835994e-04 5.4153830143895271e-03 0.0000000000000000e+00 0.0000000000000000e+00 0.0000000000000000e+00 0.0000000000000000e+00  8.2068370268205994e-03 -3.1772974693082908e-04 0.0000000000000000e+00 -3.1772974693082908e-04 8.1049373111193590e-03 0.0000000000000000e+00 0.0000000000000000e+00 0.0000000000000000e+00 0.0000000000000000e+00  7.3819668971989326e-03 1.0434805143571067e-04 0.0000000000000000e+00 1.0434805143571067e-04 7.3742578155997088e-03 0.0000000000000000e+00 0.0000000000000000e+00 0.0000000000000000e+00 0.0000000000000000e+00  7.5912579706169650e-03 -3.6987889346745807e-05 0.0000000000000000e+00 -3.6987889346745807e-05 7.5840805816804356e-03 0.0000000000000000e+00 0.0000000000000000e+00 0.0000000000000000e+00 0.0000000000000000e+00  7.5375582447017152e-03 9.9754989109795937e-06 0.0000000000000000e+00 9.9754989109795937e-06 7.5453037904263283e-03 0.0000000000000000e+00 0.0000000000000000e+00 0.0000000000000000e+00 0.0000000000000000e+00  7.5456399120809340e-03 2.5828960291384592e-06 0.0000000000000000e+00 2.5828960291384592e-06 7.5630299951221988e-03 0.0000000000000000e+00 0.0000000000000000e+00 0.0000000000000000e+00 0.0000000000000000e+00  7.5424533978309559e-03 1.1392419810057110e-05 0.0000000000000000e+00 1.1392419810057110e-05 7.5639175599824934e-03 0.0000000000000000e+00 0.0000000000000000e+00 0.0000000000000000e+00 0.0000000000000000e+00  7.5428729188292531e-03 1.8061842408646494e-05 0.0000000000000000e+00 1.8061842408646494e-05 7.5634003110031005e-03 0.0000000000000000e+00 0.0000000000000000e+00 0.0000000000000000e+00 0.0000000000000000e+00  7.5445521690028104e-03 2.6469669152193664e-05 0.0000000000000000e+00 2.6469669152193664e-05 7.5579734196163520e-03 0.0000000000000000e+00 0.0000000000000000e+00 0.0000000000000000e+00 0.0000000000000000e+00  7.5478152447022214e-03 3.5472285153542355e-05 0.0000000000000000e+00 3.5472285153542355e-05 7.5481687207953332e-03 0.0000000000000000e+00 0.0000000000000000e+00 0.0000000000000000e+00 0.0000000000000000e+00  7.5996712919901808e-03 -3.3165207313115492e-05 0.0000000000000000e+00 -3.3165207313115492e-05 7.5999965384209046e-03 0.0000000000000000e+00 0.0000000000000000e+00 0.0000000000000000e+00 0.0000000000000000e+00  7.5963213551678314e-03 -2.5066022158679927e-05 0.0000000000000000e+00 -2.5066022158679927e-05 7.6101075903797760e-03 0.0000000000000000e+00 0.0000000000000000e+00 0.0000000000000000e+00 0.0000000000000000e+00  7.5944130903975188e-03 -1.8031201462622921e-05 0.0000000000000000e+00 -1.8031201462622921e-05 7.6159808958607342e-03 0.0000000000000000e+00 0.0000000000000000e+00 0.0000000000000000e+00 0.0000000000000000e+00  7.5942031698044308e-03 -1.1747058478667605e-05 0.0000000000000000e+00 -1.1747058478667605e-05 7.6179227675427274e-03 0.0000000000000000e+00 0.0000000000000000e+00 0.0000000000000000e+00 0.0000000000000000e+00  7.5943293172887043e-03 -7.9299028126696445e-06 0.0000000000000000e+00 -7.9299028126696445e-06 7.6148436395709878e-03 0.0000000000000000e+00 0.0000000000000000e+00 0.0000000000000000e+00 0.0000000000000000e+00  7.6009837044261315e-03 -6.2951632731834516e-07 0.0000000000000000e+00 -6.2951632731834516e-07 7.6132142941470107e-03 0.0000000000000000e+00 0.0000000000000000e+00 0.0000000000000000e+00 0.0000000000000000e+00  7.5868970322563248e-03 -1.1125691928764137e-05 0.0000000000000000e+00 -1.1125691928764135e-05 7.5881127641202698e-03 0.0000000000000000e+00 0.0000000000000000e+00 0.0000000000000000e+00 0.0000000000000000e+00  7.6618151042652776e-03 2.8326558351779376e-05 0.0000000000000000e+00 2.8326558351779376e-05 7.6398723900502940e-03 0.0000000000000000e+00 0.0000000000000000e+00 0.0000000000000000e+00 0.0000000000000000e+00  7.4254676406279550e-03 -8.1957219891476258e-05 0.0000000000000000e+00 -8.1957219891476258e-05 7.4059644369786634e-03 0.0000000000000000e+00 0.0000000000000000e+00 0.0000000000000000e+00 0.0000000000000000e+00  8.2761100312257613e-03 2.5783948495615352e-04 0.0000000000000000e+00 2.5783948495615352e-04 8.1908695363253053e-03 0.0000000000000000e+00 0.0000000000000000e+00 0.0000000000000000e+00 0.0000000000000000e+00  5.6433096802735172e-03 -7.8180998412646766e-04 0.0000000000000000e+00 -7.8180998412646766e-04 5.4813995523374098e-03 0.0000000000000000e+00 0.0000000000000000e+00 0.0000000000000000e+00 0.0000000000000000e+00  1.4437889937056265e-02 3.6330466659579394e-03 0.0000000000000000e+00 3.6330466659579394e-03 1.5546249355938634e-02 0.0000000000000000e+00 0.0000000000000000e+00 0.0000000000000000e+00 0.0000000000000000e+00  -1.5335170509665748e-02 -1.2460881930011309e-02 0.0000000000000000e+00 -1.2460881930011309e-02 -1.6748722174699096e-02 0.0000000000000000e+00 0.0000000000000000e+00 0.0000000000000000e+00 0.0000000000000000e+00  6.8021068903701826e-02 7.4338815970440703e-02 0.0000000000000000e+00 7.4338815970440703e-02 9.4657472523847652e-02 0.0000000000000000e+00 0.0000000000000000e+00 0.0000000000000000e+00 0.0000000000000000e+00  -1.3089083185071246e-01 -1.6229894271317039e-01 0.0000000000000000e+00 -1.6229894271317039e-01 -1.0053217315543991e-01 0.0000000000000000e+00 0.0000000000000000e+00 0.0000000000000000e+00 0.0000000000000000e+00  -1.9736922028491877e-01 5.5922733032824849e-02 0.0000000000000000e+00 5.5922733032824849e-02 -4.2664491141499133e-01 0.0000000000000000e+00 0.0000000000000000e+00 0.0000000000000000e+00 0.0000000000000000e+00  2.2438053263697834e-02 -2.6243537640878854e-02 0.0000000000000000e+00 -2.6243537640878854e-02 -5.5195569141075582e-02 0.0000000000000000e+00 0.0000000000000000e+00 0.0000000000000000e+00 0.0000000000000000e+00  -1.0277123102465616e-01 1.2302001254935196e-02 0.0000000000000000e+00 1.2302001254935196e-02 4.1792960921206816e-03 0.0000000000000000e+00 0.0000000000000000e+00 0.0000000000000000e+00 0.0000000000000000e+00  -1.3904557990692323e-01 1.5674071286453917e-03 0.0000000000000000e+00 1.5674071286453917e-03 -4.9790025774719707e-02 0.0000000000000000e+00 0.0000000000000000e+00 0.0000000000000000e+00 0.0000000000000000e+00  -8.5369061474048519e-02 -1.5548941299825505e-02 0.0000000000000000e+00 -1.5548941299825505e-02 -8.7123526889768307e-02 0.0000000000000000e+00 0.0000000000000000e+00 0.0000000000000000e+00 0.0000000000000000e+00  -8.3496452265441126e-02 -8.6198737047194843e-03 0.0000000000000000e+00 -8.6198737047194843e-03 -9.4159837011673631e-02 0.0000000000000000e+00 0.0000000000000000e+00 0.0000000000000000e+00 0.0000000000000000e+00  -8.9533374014460987e-02 -8.4320632955435047e-03 0.0000000000000000e+00 -8.4320632955435047e-03 -9.4094921136240392e-02 0.0000000000000000e+00 0.0000000000000000e+00 0.0000000000000000e+00 0.0000000000000000e+00  -8.5608842927740236e-02 -6.3645745617928323e-03 0.0000000000000000e+00 -6.3645745617928323e-03 -1.0057374407459459e-01 0.0000000000000000e+00 0.0000000000000000e+00 0.0000000000000000e+00 0.0000000000000000e+00  -8.4277240217617358e-02 2.1244603626839045e-03 0.0000000000000000e+00 2.1244603626839045e-03 -1.0222187083050373e-01 0.0000000000000000e+00 0.0000000000000000e+00 0.0000000000000000e+00 0.0000000000000000e+00  -8.9417270216868155e-02 9.0308477948499045e-03 0.0000000000000000e+00 9.0308477948499045e-03 -9.3075480000054236e-02 0.0000000000000000e+00 0.0000000000000000e+00 0.0000000000000000e+00 0.0000000000000000e+00  -9.5444045960736121e-02 9.1998528923055677e-03 0.0000000000000000e+00 9.1998528923055677e-03 -8.0140953356424474e-02 0.0000000000000000e+00 0.0000000000000000e+00 0.0000000000000000e+00 0.0000000000000000e+00  -9.8981355372026972e-02 4.7459464336644420e-03 0.0000000000000000e+00 4.7459464336644420e-03 -7.0236025487510623e-02 0.0000000000000000e+00 0.0000000000000000e+00 0.0000000000000000e+00 0.0000000000000000e+00  -1.0045556855948518e-01 -1.0454898946966559e-03 0.0000000000000000e+00 -1.0454898946966559e-03 -6.5294572820907074e-02 0.0000000000000000e+00 0.0000000000000000e+00 0.0000000000000000e+00 0.0000000000000000e+00  -1.0125850431012755e-01 -6.7965343907207343e-03 0.0000000000000000e+00 -6.7965343907207343e-03 -6.4774325226347171e-02 0.0000000000000000e+00 0.0000000000000000e+00 0.0000000000000000e+00 0.0000000000000000e+00  -1.0155922222072113e-01 -1.2396794754759617e-02 0.0000000000000000e+00 -1.2396794754759617e-02 -6.8562383393099946e-02 0.0000000000000000e+00 0.0000000000000000e+00 0.0000000000000000e+00 0.0000000000000000e+00  -1.0009581185714239e-01 -1.6832352086391947e-02 0.0000000000000000e+00 -1.6832352086391947e-02 -7.7273286619850334e-02 0.0000000000000000e+00 0.0000000000000000e+00 0.0000000000000000e+00 0.0000000000000000e+00  -9.6051147969291470e-02 -1.7075427218085408e-02 0.0000000000000000e+00 -1.7075427218085408e-02 -8.9694708573638371e-02 0.0000000000000000e+00 0.0000000000000000e+00 0.0000000000000000e+00 0.0000000000000000e+00  -9.1974925261533863e-02 -1.0323775196674826e-02 0.0000000000000000e+00 -1.0323775196674826e-02 -9.9880336339745718e-02 0.0000000000000000e+00 0.0000000000000000e+00 0.0000000000000000e+00 0.0000000000000000e+00  -9.3697869272630990e-02 -1.4046363930877634e-04 0.0000000000000000e+00 -1.4046363930877634e-04 -9.9952223821241290e-02 0.0000000000000000e+00 0.0000000000000000e+00 0.0000000000000000e+00 0.0000000000000000e+00  -1.0004668413426587e-01 4.8611631514058409e-03 0.0000000000000000e+00 4.8611631514058409e-03 -9.2785545556126961e-02 0.0000000000000000e+00 0.0000000000000000e+00 0.0000000000000000e+00 0.0000000000000000e+00  -9.8311306940093490e-02 5.9990239712205398e-03 0.0000000000000000e+00 5.9990239712205398e-03 -9.1176236351914824e-02 0.0000000000000000e+00 0.0000000000000000e+00 0.0000000000000000e+00 0.0000000000000000e+00  -9.6888529075780772e-02 1.4369203183780186e-02 0.0000000000000000e+00 1.4369203183780186e-02 -8.7482474856120929e-02 0.0000000000000000e+00 0.0000000000000000e+00 0.0000000000000000e+00 0.0000000000000000e+00  -1.4416997396549730e-01 6.4867356524258993e-03 0.0000000000000000e+00 6.4867356524258993e-03 -5.6326010760781371e-02 0.0000000000000000e+00 0.0000000000000000e+00 0.0000000000000000e+00 0.0000000000000000e+00  -1.4798492316106202e-01 -1.4012615349925196e-02 0.0000000000000000e+00 -1.4012615349925196e-02 -4.6586100256860588e-03 0.0000000000000000e+00 0.0000000000000000e+00 0.0000000000000000e+00 0.0000000000000000e+00  -1.1432005174762188e-02 3.5360531011437366e-02 0.0000000000000000e+00 3.5360531011437366e-02 -9.8825938039856006e-03 0.0000000000000000e+00 0.0000000000000000e+00 0.0000000000000000e+00 0.0000000000000000e+00  -1.4892382602249152e-01 -5.6922817582637161e-02 0.0000000000000000e+00 -5.6922817582637161e-02 -3.7403296571862948e-01 0.0000000000000000e+00 0.0000000000000000e+00 0.0000000000000000e+00 0.0000000000000000e+00  -2.1029436170670637e-01 1.4719438575016153e-01 0.0000000000000000e+00 1.4719438575016153e-01 -2.4737708325463423e-01 0.0000000000000000e+00 0.0000000000000000e+00 0.0000000000000000e+00 0.0000000000000000e+00  5.6690929173291209e-02 -3.5148372561608833e-02 0.0000000000000000e+00 -3.5148372561608833e-02 1.1153635972256089e-01 0.0000000000000000e+00 0.0000000000000000e+00 0.0000000000000000e+00 0.0000000000000000e+00  -1.3335022890911511e-02 -9.4741860941232534e-03 0.0000000000000000e+00 -9.4741860941232534e-03 -1.7148686719743945e-02 0.0000000000000000e+00 0.0000000000000000e+00 0.0000000000000000e+00 0.0000000000000000e+00  6.2315695565149706e-03 3.3370687526286620e-03 0.0000000000000000e+00 3.3370687526286620e-03 8.1069672618862311e-03 0.0000000000000000e+00 0.0000000000000000e+00 0.0000000000000000e+00 0.0000000000000000e+00  1.3088683478904967e-03 -1.4631663547567913e-03 0.0000000000000000e+00 -1.4631663547567913e-03 1.2968772282584886e-03 0.0000000000000000e+00 0.0000000000000000e+00 0.0000000000000000e+00 0.0000000000000000e+00  2.8691931031025087e-03 3.5947652243804455e-04 0.0000000000000000e+00 3.5947652243804455e-04 2.8471450407431330e-03 0.0000000000000000e+00 0.0000000000000000e+00 0.0000000000000000e+00 0.0000000000000000e+00  2.3432864032056381e-03 -4.7949904515094671e-05 0.0000000000000000e+00 -4.7949904515094671e-05 2.3736340240962358e-03 0.0000000000000000e+00 0.0000000000000000e+00 0.0000000000000000e+00 0.0000000000000000e+00  2.5237422427497927e-03 2.2603027826688013e-05 0.0000000000000000e+00 2.2603027826688013e-05 2.4796133524153988e-03 0.0000000000000000e+00 0.0000000000000000e+00 0.0000000000000000e+00 0.0000000000000000e+00  2.4789269444838490e-03 1.2186168776266839e-05 0.0000000000000000e+00 1.2186168776266839e-05 2.4218367561689366e-03 0.0000000000000000e+00 0.0000000000000000e+00 0.0000000000000000e+00 0.0000000000000000e+00  2.4985728836381402e-03 -1.9727609951209132e-06 0.0000000000000000e+00 -1.9727609951209132e-06 2.4285531795883628e-03 0.0000000000000000e+00 0.0000000000000000e+00 0.0000000000000000e+00 0.0000000000000000e+00  2.4798291437307168e-03 -1.5010698194545112e-05 0.0000000000000000e+00 -1.5010698194545112e-05 2.4248446619824309e-03 0.0000000000000000e+00 0.0000000000000000e+00 0.0000000000000000e+00 0.0000000000000000e+00  2.5252206901718154e-03 -2.8952674909394085e-05 0.0000000000000000e+00 -2.8952674909394085e-05 2.4834323669074470e-03 0.0000000000000000e+00 0.0000000000000000e+00 0.0000000000000000e+00 0.0000000000000000e+00  2.3470631160467611e-03 5.7601220436943181e-05 0.0000000000000000e+00 5.7601220436943181e-05 2.3987577736282063e-03 0.0000000000000000e+00 0.0000000000000000e+00 0.0000000000000000e+00 0.0000000000000000e+00  2.8556011390493490e-03 -3.7072303432761046e-04 0.0000000000000000e+00 -3.7072303432761046e-04 2.7842698344973638e-03 0.0000000000000000e+00 0.0000000000000000e+00 0.0000000000000000e+00 0.0000000000000000e+00  1.5471159902153012e-03 1.5497232786326367e-03 0.0000000000000000e+00 1.5497232786326367e-03 1.5559198976772151e-03 0.0000000000000000e+00 0.0000000000000000e+00 0.0000000000000000e+00 0.0000000000000000e+00  6.1790072016752826e-03 -3.6144475118143485e-03 0.0000000000000000e+00 -3.6144475118143485e-03 8.2720405727607724e-03 0.0000000000000000e+00 0.0000000000000000e+00 0.0000000000000000e+00 0.0000000000000000e+00  -1.4146307008629601e-02 9.7321225009733801e-03 0.0000000000000000e+00 9.7321225009733801e-03 -1.8217469238697662e-02 0.0000000000000000e+00 0.0000000000000000e+00 0.0000000000000000e+00 0.0000000000000000e+00  5.6267501663139027e-02 3.5459769072151891e-02 0.0000000000000000e+00 3.5459769072151891e-02 1.1119769158518955e-01 0.0000000000000000e+00 0.0000000000000000e+00 0.0000000000000000e+00 0.0000000000000000e+00  -2.0626349137000632e-01 -1.4752360147298044e-01 0.0000000000000000e+00 -1.4752360147298044e-01 -2.4222507569113316e-01 0.0000000000000000e+00 0.0000000000000000e+00 0.0000000000000000e+00 0.0000000000000000e+00  -1.5004477495314811e-01 5.8061741760400194e-02 0.0000000000000000e+00 5.8061741760400194e-02 -3.7718663654440920e-01 0.0000000000000000e+00 0.0000000000000000e+00 0.0000000000000000e+00 0.0000000000000000e+00  -8.4594494006647244e-03 -3.5222096512856967e-02 0.0000000000000000e+00 -3.5222096512856967e-02 -1.0260501338289745e-02 0.0000000000000000e+00 0.0000000000000000e+00 0.0000000000000000e+00 0.0000000000000000e+00  -1.4509038712185957e-01 1.3959333359966559e-02 0.0000000000000000e+00 1.3959333359966559e-02 -3.8171931503535091e-03 0.0000000000000000e+00 0.0000000000000000e+00 0.0000000000000000e+00 0.0000000000000000e+00  -1.4311035372292555e-01 -6.1986517664636342e-03 0.0000000000000000e+00 -6.1986517664636342e-03 -5.6116440449858113e-02 0.0000000000000000e+00 0.0000000000000000e+00 0.0000000000000000e+00 0.0000000000000000e+00  -9.5622903620042277e-02 -1.4347172298802576e-02 0.0000000000000000e+00 -1.4347172298802576e-02 -8.7697384436210488e-02 0.0000000000000000e+00 0.0000000000000000e+00 0.0000000000000000e+00 0.0000000000000000e+00  -9.7166110132299366e-02 -5.8984171865645273e-03 0.0000000000000000e+00 -5.8984171865645273e-03 -9.1561786793902658e-02 0.0000000000000000e+00 0.0000000000000000e+00 0.0000000000000000e+00 0.0000000000000000e+00  -9.9178636738420742e-02 -4.7245191179657699e-03 0.0000000000000000e+00 -4.7245191179657699e-03 -9.3112461648906020e-02 0.0000000000000000e+00 0.0000000000000000e+00 0.0000000000000000e+00 0.0000000000000000e+00  -9.2989815163141670e-02 2.3636279443052313e-04 0.0000000000000000e+00 2.3636279443052313e-04 -1.0020960168507979e-01 0.0000000000000000e+00 0.0000000000000000e+00 0.0000000000000000e+00 0.0000000000000000e+00  -9.1359776593269881e-02 1.0373839321997827e-02 0.0000000000000000e+00 1.0373839321997827e-02 -1.0009996229153680e-01 0.0000000000000000e+00 0.0000000000000000e+00 0.0000000000000000e+00 0.0000000000000000e+00  -9.5510500487002242e-02 1.7092400791441951e-02 0.0000000000000000e+00 1.7092400791441951e-02 -8.9872991265745189e-02 0.0000000000000000e+00 0.0000000000000000e+00 0.0000000000000000e+00 0.0000000000000000e+00  -9.9617244264346261e-02 1.6810002853547293e-02 0.0000000000000000e+00 1.6810002853547293e-02 -7.7405900941476868e-02 0.0000000000000000e+00 0.0000000000000000e+00 0.0000000000000000e+00 0.0000000000000000e+00  -1.0111940580816997e-01 1.2331843802384475e-02 0.0000000000000000e+00 1.2331843802384475e-02 -6.8664119396234277e-02 0.0000000000000000e+00 0.0000000000000000e+00 0.0000000000000000e+00 0.0000000000000000e+00  -1.0083975987147269e-01 6.7037521581033242e-03 0.0000000000000000e+00 6.7037521581033242e-03 -6.4860338292801134e-02 0.0000000000000000e+00 0.0000000000000000e+00 0.0000000000000000e+00 0.0000000000000000e+00  -1.0005989698938147e-01 9.4613013338454277e-04 0.0000000000000000e+00 9.4613013338454277e-04 -6.5359160178211681e-02 0.0000000000000000e+00 0.0000000000000000e+00 0.0000000000000000e+00 0.0000000000000000e+00  -9.8628517930207910e-02 -4.8471973226295959e-03 0.0000000000000000e+00 -4.8471973226295959e-03 -7.0255950764037040e-02 0.0000000000000000e+00 0.0000000000000000e+00 0.0000000000000000e+00 0.0000000000000000e+00  -9.5152763892374162e-02 -9.3264839128505764e-03 0.0000000000000000e+00 -9.3264839128505764e-03 -8.0104083201409437e-02 0.0000000000000000e+00 0.0000000000000000e+00 0.0000000000000000e+00 0.0000000000000000e+00  -8.9179714435415058e-02 -9.2181862022058126e-03 0.0000000000000000e+00 -9.2181862022058126e-03 -9.3013739224253295e-02 0.0000000000000000e+00 0.0000000000000000e+00 0.0000000000000000e+00 0.0000000000000000e+00  -8.4046312796187031e-02 -2.3698007400093212e-03 0.0000000000000000e+00 -2.3698007400093212e-03 -1.0220753556438004e-01 0.0000000000000000e+00 0.0000000000000000e+00 0.0000000000000000e+00 0.0000000000000000e+00  -8.5358590772864881e-02 6.1303408264482273e-03 0.0000000000000000e+00 6.1303408264482273e-03 -1.0063157922006344e-01 0.0000000000000000e+00 0.0000000000000000e+00 0.0000000000000000e+00 0.0000000000000000e+00  -8.9349511817446048e-02 8.2398664672138338e-03 0.0000000000000000e+00 8.2398664672138338e-03 -9.4123512963676118e-02 0.0000000000000000e+00 0.0000000000000000e+00 0.0000000000000000e+00 0.0000000000000000e+00  -8.3427780744907032e-02 8.3690599848319537e-03 0.0000000000000000e+00 8.3690599848319537e-03 -9.4149871835165891e-02 0.0000000000000000e+00 0.0000000000000000e+00 0.0000000000000000e+00 0.0000000000000000e+00  -8.5053309430983506e-02 1.5303366791337465e-02 0.0000000000000000e+00 1.5303366791337465e-02 -8.7309548747331087e-02 0.0000000000000000e+00 0.0000000000000000e+00 0.0000000000000000e+00 0.0000000000000000e+00  -1.3858935741794162e-01 -1.5443685025636775e-03 0.0000000000000000e+00 -1.5443685025636775e-03 -5.0144913173663472e-02 0.0000000000000000e+00 0.0000000000000000e+00 0.0000000000000000e+00 0.0000000000000000e+00  -1.0363826015773343e-01 -1.2790402285741577e-02 0.0000000000000000e+00 -1.2790402285741577e-02 3.7514511953046364e-03 0.0000000000000000e+00 0.0000000000000000e+00 0.0000000000000000e+00 0.0000000000000000e+00  2.2565246252352268e-02 2.6338804096635717e-02 0.0000000000000000e+00 2.6338804096635717e-02 -5.3599082662629770e-02 0.0000000000000000e+00 0.0000000000000000e+00 0.0000000000000000e+00 0.0000000000000000e+00  -1.9596933468138222e-01 -5.6659296870244763e-02 0.0000000000000000e+00 -5.6659296870244763e-02 -4.2544117058755232e-01 0.0000000000000000e+00 0.0000000000000000e+00 0.0000000000000000e+00 0.0000000000000000e+00  -1.3273105167099850e-01 1.6273014957004109e-01 0.0000000000000000e+00 1.6273014957004109e-01 -1.0340694401379444e-01 0.0000000000000000e+00 0.0000000000000000e+00 0.0000000000000000e+00 0.0000000000000000e+00  6.8768616221230830e-02 -7.4273614664105675e-02 0.0000000000000000e+00 -7.4273614664105675e-02 9.5730415262561749e-02 0.0000000000000000e+00 0.0000000000000000e+00 0.0000000000000000e+00 0.0000000000000000e+00  -1.4666783071540688e-02 1.2461567035049359e-02 0.0000000000000000e+00 1.2461567035049359e-02 -1.6124284048706913e-02 0.0000000000000000e+00 0.0000000000000000e+00 0.0000000000000000e+00 0.0000000000000000e+00  1.4354517217054313e-02 -3.6263057169493144e-03 0.0000000000000000e+00 -3.6263057169493144e-03 1.5479225419773431e-02 0.0000000000000000e+00 0.0000000000000000e+00 0.0000000000000000e+00 0.0000000000000000e+00  5.4640728920935782e-03 7.3742861415593318e-04 0.0000000000000000e+00 7.3742861415593318e-04 5.2471688504534333e-03 0.0000000000000000e+00 0.0000000000000000e+00 0.0000000000000000e+00 0.0000000000000000e+00  8.2109256772807671e-03 -2.2744375134708741e-04 0.0000000000000000e+00 -2.2744375134708741e-04 8.1679716413820200e-03 0.0000000000000000e+00 0.0000000000000000e+00 0.0000000000000000e+00 0.0000000000000000e+00  7.3592409060544194e-03 7.7792633309433666e-05 0.0000000000000000e+00 7.7792633309433666e-05 7.3343589516841230e-03 0.0000000000000000e+00 0.0000000000000000e+00 0.0000000000000000e+00 0.0000000000000000e+00  7.5980889528557589e-03 -2.7080312067075419e-05 0.0000000000000000e+00 -2.7080312067075419e-05 7.5831353782839306e-03 0.0000000000000000e+00 0.0000000000000000e+00 0.0000000000000000e+00 0.0000000000000000e+00  7.5243732090567233e-03 1.0501370703837552e-05 0.0000000000000000e+00 1.0501370703837552e-05 7.5290847926090115e-03 0.0000000000000000e+00 0.0000000000000000e+00 0.0000000000000000e+00 0.0000000000000000e+00  7.5393036535688204e-03 3.0279751902165692e-07 0.0000000000000000e+00 3.0279751902165698e-07 7.5545690638102155e-03 0.0000000000000000e+00 0.0000000000000000e+00 0.0000000000000000e+00 0.0000000000000000e+00  7.5330683427671649e-03 7.3478726823779328e-06 0.0000000000000000e+00 7.3478726823779328e-06 7.5556885993008222e-03 0.0000000000000000e+00 0.0000000000000000e+00 0.0000000000000000e+00 0.0000000000000000e+00  7.5332628017706566e-03 1.1040171215215368e-05 0.0000000000000000e+00 1.1040171215215368e-05 7.5584900165467589e-03 0.0000000000000000e+00 0.0000000000000000e+00 0.0000000000000000e+00 0.0000000000000000e+00  7.5336716244923940e-03 1.7107382688395859e-05 0.0000000000000000e+00 1.7107382688395859e-05 7.5562378014571068e-03 0.0000000000000000e+00 0.0000000000000000e+00 0.0000000000000000e+00 0.0000000000000000e+00  7.5357219953251474e-03 2.3817498623049346e-05 0.0000000000000000e+00 2.3817498623049346e-05 7.5500608717144705e-03 0.0000000000000000e+00 0.0000000000000000e+00 0.0000000000000000e+00 0.0000000000000000e+00  7.5392115251446436e-03 3.1376660755865596e-05 0.0000000000000000e+00 3.1376660755865596e-05 7.5395489892641932e-03 0.0000000000000000e+00 0.0000000000000000e+00 0.0000000000000000e+00 0.0000000000000000e+00  7.5917363889901187e-03 -2.8912135076916958e-05 0.0000000000000000e+00 -2.8912135076916958e-05 7.5920790618171233e-03 0.0000000000000000e+00 0.0000000000000000e+00 0.0000000000000000e+00 0.0000000000000000e+00  7.5880103355703476e-03 -2.2267212295757473e-05 0.0000000000000000e+00 -2.2267212295757473e-05 7.6032534587020433e-03 0.0000000000000000e+00 0.0000000000000000e+00 0.0000000000000000e+00 0.0000000000000000e+00  7.5857299122652306e-03 -1.6602087858976799e-05 0.0000000000000000e+00 -1.6602087858976799e-05 7.6101708664134213e-03 0.0000000000000000e+00 0.0000000000000000e+00 0.0000000000000000e+00 0.0000000000000000e+00  7.5846785942036993e-03 -1.2027490687389685e-05 0.0000000000000000e+00 -1.2027490687389685e-05 7.6129220114179051e-03 0.0000000000000000e+00 0.0000000000000000e+00 0.0000000000000000e+00 0.0000000000000000e+00  7.5852899141546880e-03 -8.1502214261383755e-06 0.0000000000000000e+00 -8.1502214261383755e-06 7.6123405352715601e-03 0.0000000000000000e+00 0.0000000000000000e+00 0.0000000000000000e+00 0.0000000000000000e+00  7.5851158342302464e-03 -6.9451194954710595e-06 0.0000000000000000e+00 -6.9451194954710595e-06 7.6066051278113663e-03 0.0000000000000000e+00 0.0000000000000000e+00 0.0000000000000000e+00 0.0000000000000000e+00  7.5934500930682318e-03 -2.5265069254441010e-06 0.0000000000000000e+00 -2.5265069254441018e-06 7.6047266496833349e-03 0.0000000000000000e+00 0.0000000000000000e+00 0.0000000000000000e+00 0.0000000000000000e+00  7.5755439091924753e-03 -1.2998490206973694e-05 0.0000000000000000e+00 -1.2998490206973694e-05 7.5758899132777648e-03 0.0000000000000000e+00 0.0000000000000000e+00 0.0000000000000000e+00 0.0000000000000000e+00  7.6536700896936427e-03 1.9368903200568964e-05 0.0000000000000000e+00 1.9368903200568964e-05 7.6318710555676799e-03 0.0000000000000000e+00 0.0000000000000000e+00 0.0000000000000000e+00 0.0000000000000000e+00  7.4438925622002643e-03 -8.4621605552429654e-05 0.0000000000000000e+00 -8.4621605552429654e-05 7.3848568850303125e-03 0.0000000000000000e+00 0.0000000000000000e+00 0.0000000000000000e+00 0.0000000000000000e+00  8.2376338240005998e-03 3.2033548090152611e-04 0.0000000000000000e+00 3.2033548090152611e-04 8.2425125036732494e-03 0.0000000000000000e+00 0.0000000000000000e+00 0.0000000000000000e+00 0.0000000000000000e+00  5.9055217545242429e-03 -1.2476651281458288e-03 0.0000000000000000e+00 -1.2476651281458288e-03 5.6158073526572944e-03 0.0000000000000000e+00 0.0000000000000000e+00 0.0000000000000000e+00 0.0000000000000000e+00  1.3269581818562992e-02 5.2193656361621873e-03 0.0000000000000000e+00 5.2193656361621873e-03 1.4171609448927721e-02 0.0000000000000000e+00 0.0000000000000000e+00 0.0000000000000000e+00 0.0000000000000000e+00  -9.1234089689682177e-03 -1.6790566016740591e-02 0.0000000000000000e+00 -1.6790566016740591e-02 -6.2580779964970957e-03 0.0000000000000000e+00 0.0000000000000000e+00 0.0000000000000000e+00 0.0000000000000000e+00  3.1847044331082569e-02 6.0402210061810194e-02 0.0000000000000000e+00 6.0402210061810194e-02 3.6403577906165829e-02 0.0000000000000000e+00 0.0000000000000000e+00 0.0000000000000000e+00 0.0000000000000000e+00  -2.8570411508250911e-02 -7.2520030996448381e-02 0.0000000000000000e+00 -7.2520030996448381e-02 8.0605585646110492e-02 0.0000000000000000e+00 0.0000000000000000e+00 0.0000000000000000e+00 0.0000000000000000e+00  -2.4106562278282054e-01 -6.2300180368800244e-02 0.0000000000000000e+00 -6.2300180368800244e-02 -3.8712363240993658e-01 0.0000000000000000e+00 0.0000000000000000e+00 0.0000000000000000e+00 0.0000000000000000e+00  -1.1805845098561529e-01 5.4213627959404202e-02 0.0000000000000000e+00 5.4213627959404202e-02 -3.9816994199618727e-01 0.0000000000000000e+00 0.0000000000000000e+00 0.0000000000000000e+00 0.0000000000000000e+00  2.3831371668031360e-02 -3.8722042368576806e-02 0.0000000000000000e+00 -3.8722042368576806e-02 -2.4228895538343292e-03 0.0000000000000000e+00 0.0000000000000000e+00 0.0000000000000000e+00 0.0000000000000000e+00  -7.3377135329412868e-02 -3.6968452574525296e-03 0.0000000000000000e+00 -3.6968452574525296e-03 2.2289602176002656e-02 0.0000000000000000e+00 0.0000000000000000e+00 0.0000000000000000e+00 0.0000000000000000e+00  -1.3234057176716810e-01 9.2327089295755858e-03 0.0000000000000000e+00 9.2327089295755858e-03 -2.9135556254403887e-02 0.0000000000000000e+00 0.0000000000000000e+00 0.0000000000000000e+00 0.0000000000000000e+00  -1.0862584888125824e-01 -1.2509629485334866e-02 0.0000000000000000e+00 -1.2509629485334866e-02 -6.6512200669801153e-02 0.0000000000000000e+00 0.0000000000000000e+00 0.0000000000000000e+00 0.0000000000000000e+00  -8.1869080649181483e-02 -1.2329051753898120e-02 0.0000000000000000e+00 -1.2329051753898120e-02 -1.0357440984983496e-01 0.0000000000000000e+00 0.0000000000000000e+00 0.0000000000000000e+00 0.0000000000000000e+00  -8.3065803501258709e-02 7.5147871222531696e-03 0.0000000000000000e+00 7.5147871222531696e-03 -1.1008724759742855e-01 0.0000000000000000e+00 0.0000000000000000e+00 0.0000000000000000e+00 0.0000000000000000e+00  -9.4033541972301682e-02 1.7264667442986867e-02 0.0000000000000000e+00 1.7264667442986867e-02 -9.1986357899667720e-02 0.0000000000000000e+00 0.0000000000000000e+00 0.0000000000000000e+00 0.0000000000000000e+00  -1.0034205355299947e-01 1.3740750474671101e-02 0.0000000000000000e+00 1.3740750474671101e-02 -7.1721168698922602e-02 0.0000000000000000e+00 0.0000000000000000e+00 0.0000000000000000e+00 0.0000000000000000e+00  -1.0052516548857657e-01 5.6977648421554540e-03 0.0000000000000000e+00 5.6977648421554540e-03 -6.0258867618348359e-02 0.0000000000000000e+00 0.0000000000000000e+00 0.0000000000000000e+00 0.0000000000000000e+00  -9.8909759363918243e-02 -7.9284076325306855e-04 0.0000000000000000e+00 -7.9284076325306855e-04 -5.6412534543401477e-02 0.0000000000000000e+00 0.0000000000000000e+00 0.0000000000000000e+00 0.0000000000000000e+00  -9.9395875937241723e-02 -5.6319847047792458e-03 0.0000000000000000e+00 -5.6319847047792458e-03 -5.6172300537780523e-02 0.0000000000000000e+00 0.0000000000000000e+00 0.0000000000000000e+00 0.0000000000000000e+00  -1.0235644092934704e-01 -1.1445136820214197e-02 0.0000000000000000e+00 -1.1445136820214197e-02 -5.9083706144196273e-02 0.0000000000000000e+00 0.0000000000000000e+00 0.0000000000000000e+00 0.0000000000000000e+00  -1.0442460071757423e-01 -1.8975046213763162e-02 0.0000000000000000e+00 -1.8975046213763162e-02 -6.8787482878366210e-02 0.0000000000000000e+00 0.0000000000000000e+00 0.0000000000000000e+00 0.0000000000000000e+00  -1.0094211440327350e-01 -2.3302983860775384e-02 0.0000000000000000e+00 -2.3302983860775384e-02 -8.7714528094271854e-02 0.0000000000000000e+00 0.0000000000000000e+00 0.0000000000000000e+00 0.0000000000000000e+00  -9.1718783903579584e-02 -1.5452313834892572e-02 0.0000000000000000e+00 -1.5452313834892572e-02 -1.0770890343319516e-01 0.0000000000000000e+00 0.0000000000000000e+00 0.0000000000000000e+00 0.0000000000000000e+00  -8.8414719631295949e-02 5.4042126616308320e-03 0.0000000000000000e+00 5.4042126616308320e-03 -1.0721682161840296e-01 0.0000000000000000e+00 0.0000000000000000e+00 0.0000000000000000e+00 0.0000000000000000e+00  -1.1138138578891577e-01 1.3074976029734576e-02 0.0000000000000000e+00 1.3074976029734576e-02 -7.4144480834743315e-02 0.0000000000000000e+00 0.0000000000000000e+00 0.0000000000000000e+00 0.0000000000000000e+00  -1.4288306168320478e-01 -6.0415905523713695e-03 0.0000000000000000e+00 -6.0415905523713695e-03 -3.4748536674132455e-02 0.0000000000000000e+00 0.0000000000000000e+00 0.0000000000000000e+00 0.0000000000000000e+00  -1.0402181742780539e-01 -2.3668942664911677e-03 0.0000000000000000e+00 -2.3668942664911677e-03 1.0980479150661466e-02 0.0000000000000000e+00 0.0000000000000000e+00 0.0000000000000000e+00 0.0000000000000000e+00  -1.3193711835155855e-03 4.3087744685045573e-02 0.0000000000000000e+00 4.3087744685045573e-02 2.9943125794582859e-02 0.0000000000000000e+00 0.0000000000000000e+00 0.0000000000000000e+00 0.0000000000000000e+00  -7.7092491329443333e-02 -2.6551236056100404e-02 0.0000000000000000e+00 -2.6551236056100404e-02 -3.0819843460496049e-01 0.0000000000000000e+00 0.0000000000000000e+00 0.0000000000000000e+00 0.0000000000000000e+00  -2.6946293138067079e-01 7.7191325937359693e-03 0.0000000000000000e+00 7.7191325937359693e-03 -4.8378342035156674e-01 0.0000000000000000e+00 0.0000000000000000e+00 0.0000000000000000e+00 0.0000000000000000e+00  -9.4730248144976298e-02 1.2049617339635603e-01 0.0000000000000000e+00 1.2049617339635603e-01 2.1854227235592887e-03 0.0000000000000000e+00 0.0000000000000000e+00 0.0000000000000000e+00 0.0000000000000000e+00  4.2292989539393311e-02 -6.4818267768475366e-02 0.0000000000000000e+00 -6.4818267768475366e-02 6.8615461673309591e-02 0.0000000000000000e+00 0.0000000000000000e+00 0.0000000000000000e+00 0.0000000000000000e+00  -1.5766224731621072e-02 9.3654205673624272e-03 0.0000000000000000e+00 9.3654205673624272e-03 -1.7051350806165027e-02 0.0000000000000000e+00 0.0000000000000000e+00 0.0000000000000000e+00 0.0000000000000000e+00  7.2331930796908171e-03 -1.1501814757952642e-03 0.0000000000000000e+00 -1.1501814757952642e-03 1.0221857673370114e-02 0.0000000000000000e+00 0.0000000000000000e+00 0.0000000000000000e+00 0.0000000000000000e+00  1.2097978216285179e-03 -5.7784495150371544e-04 0.0000000000000000e+00 -5.7784495150371544e-04 6.7802904419333185e-04 0.0000000000000000e+00 0.0000000000000000e+00 0.0000000000000000e+00 0.0000000000000000e+00  2.8485075295597178e-03 2.9635476791517511e-04 0.0000000000000000e+00 2.9635476791517511e-04 3.0027004081817723e-03 0.0000000000000000e+00 0.0000000000000000e+00 0.0000000000000000e+00 0.0000000000000000e+00  2.3852008519023808e-03 -9.9470852011879622e-05 0.0000000000000000e+00 -9.9470852011879595e-05 2.3791760780281636e-03 0.0000000000000000e+00 0.0000000000000000e+00 0.0000000000000000e+00 0.0000000000000000e+00  2.5294550404756384e-03 3.8059071508843419e-05 0.0000000000000000e+00 3.8059071508843419e-05 2.5060694973190203e-03 0.0000000000000000e+00 0.0000000000000000e+00 0.0000000000000000e+00 0.0000000000000000e+00  2.4888021808069996e-03 6.1701136588351252e-06 0.0000000000000000e+00 6.1701136588351252e-06 2.4435920135466470e-03 0.0000000000000000e+00 0.0000000000000000e+00 0.0000000000000000e+00 0.0000000000000000e+00  2.5083164005198348e-03 6.4291413779302773e-06 0.0000000000000000e+00 6.4291413779302773e-06 2.4420935290715017e-03 0.0000000000000000e+00 0.0000000000000000e+00 0.0000000000000000e+00 0.0000000000000000e+00  2.5047507596864574e-03 -1.9366425650504945e-06 0.0000000000000000e+00 -1.9366425650504945e-06 2.4336490739803552e-03 0.0000000000000000e+00 0.0000000000000000e+00 0.0000000000000000e+00 0.0000000000000000e+00  2.5081103623238298e-03 -1.0310257991276288e-05 0.0000000000000000e+00 -1.0310257991276289e-05 2.4441313171442228e-03 0.0000000000000000e+00 0.0000000000000000e+00 0.0000000000000000e+00 0.0000000000000000e+00  2.4880425755662034e-03 -7.4866257214522436e-06 0.0000000000000000e+00 -7.4866257214522436e-06 2.4494835138060269e-03 0.0000000000000000e+00 0.0000000000000000e+00 0.0000000000000000e+00 0.0000000000000000e+00  2.5290283867833488e-03 -3.7452057676153987e-05 0.0000000000000000e+00 -3.7452057676153987e-05 2.5053580851103941e-03 0.0000000000000000e+00 0.0000000000000000e+00 0.0000000000000000e+00 0.0000000000000000e+00  2.4112144991797072e-03 1.0750129256646541e-04 0.0000000000000000e+00 1.0750129256646541e-04 2.4032327370834168e-03 0.0000000000000000e+00 0.0000000000000000e+00 0.0000000000000000e+00 0.0000000000000000e+00  2.8608988162995659e-03 -2.5537910713321492e-04 0.0000000000000000e+00 -2.5537910713321492e-04 2.9888188344022954e-03 0.0000000000000000e+00 0.0000000000000000e+00 0.0000000000000000e+00 0.0000000000000000e+00  1.4652302059219356e-03 5.6865171517759140e-04 0.0000000000000000e+00 5.6865171517759140e-04 1.0349846645487314e-03 0.0000000000000000e+00 0.0000000000000000e+00 0.0000000000000000e+00 0.0000000000000000e+00  7.2182036380239890e-03 1.1048947613530543e-03 0.0000000000000000e+00 1.1048947613530543e-03 1.0183180548403479e-02 0.0000000000000000e+00 0.0000000000000000e+00 0.0000000000000000e+00 0.0000000000000000e+00  -1.6949323660651567e-02 -9.2029509945144496e-03 0.0000000000000000e+00 -9.2029509945144496e-03 -1.8241450098090389e-02 0.0000000000000000e+00 0.0000000000000000e+00 0.0000000000000000e+00 0.0000000000000000e+00  4.0524737699139550e-02 6.4700358971104072e-02 0.0000000000000000e+00 6.4700358971104072e-02 6.7269944476873636e-02 0.0000000000000000e+00 0.0000000000000000e+00 0.0000000000000000e+00 0.0000000000000000e+00  -9.1451358932090762e-02 -1.1889057868839645e-01 0.0000000000000000e+00 -1.1889057868839645e-01 6.1953626044121621e-03 0.0000000000000000e+00 0.0000000000000000e+00 0.0000000000000000e+00 0.0000000000000000e+00  -2.6797999886232587e-01 -9.6605450892399865e-03 0.0000000000000000e+00 -9.6605450892399865e-03 -4.7975486350845808e-01 0.0000000000000000e+00 0.0000000000000000e+00 0.0000000000000000e+00 0.0000000000000000e+00  -7.7844389137258399e-02 2.8071023847822143e-02 0.0000000000000000e+00 2.8071023847822143e-02 -3.1202606673228744e-01 0.0000000000000000e+00 0.0000000000000000e+00 0.0000000000000000e+00 0.0000000000000000e+00  7.4792250028010167e-04 -4.2650764490762993e-02 0.0000000000000000e+00 -4.2650764490762993e-02 2.9004199719254057e-02 0.0000000000000000e+00 0.0000000000000000e+00 0.0000000000000000e+00 0.0000000000000000e+00  -1.0240160658423510e-01 2.5184140531769872e-03 0.0000000000000000e+00 2.5184140531769872e-03 1.1043451646994154e-02 0.0000000000000000e+00 0.0000000000000000e+00 0.0000000000000000e+00 0.0000000000000000e+00  -1.4195231448431003e-01 6.4141516705090032e-03 0.0000000000000000e+00 6.4141516705090032e-03 -3.5019346840632577e-02 0.0000000000000000e+00 0.0000000000000000e+00 0.0000000000000000e+00 0.0000000000000000e+00  -1.1063019887112185e-01 -1.2727827004624600e-02 0.0000000000000000e+00 -1.2727827004624600e-02 -7.4340173779656571e-02 0.0000000000000000e+00 0.0000000000000000e+00 0.0000000000000000e+00 0.0000000000000000e+00  -8.7697073819640980e-02 -5.2198579409275091e-03 0.0000000000000000e+00 -5.2198579409275091e-03 -1.0738376876883382e-01 0.0000000000000000e+00 0.0000000000000000e+00 0.0000000000000000e+00 0.0000000000000000e+00  -9.1039415313043548e-02 1.5572824889210199e-02 0.0000000000000000e+00 1.5572824889210199e-02 -1.0788677837672429e-01 0.0000000000000000e+00 0.0000000000000000e+00 0.0000000000000000e+00 0.0000000000000000e+00  -1.0033886915682201e-01 2.3392695001793917e-02 0.0000000000000000e+00 2.3392695001793917e-02 -8.7851328612351953e-02 0.0000000000000000e+00 0.0000000000000000e+00 0.0000000000000000e+00 0.0000000000000000e+00  -1.0388566029517327e-01 1.9003863973361474e-02 0.0000000000000000e+00 1.9003863973361474e-02 -6.8863423912439201e-02 0.0000000000000000e+00 0.0000000000000000e+00 0.0000000000000000e+00 0.0000000000000000e+00  -1.0184443999602587e-01 1.1399732175174201e-02 0.0000000000000000e+00 1.1399732175174201e-02 -5.9138428931829051e-02 0.0000000000000000e+00 0.0000000000000000e+00 0.0000000000000000e+00 0.0000000000000000e+00  -9.8878145921493882e-02 5.5467386409492224e-03 0.0000000000000000e+00 5.5467386409492224e-03 -5.6247888199725801e-02 0.0000000000000000e+00 0.0000000000000000e+00 0.0000000000000000e+00 0.0000000000000000e+00  -9.8390873518736835e-02 7.1955964552179871e-04 0.0000000000000000e+00 7.1955964552179871e-04 -5.6498084809669440e-02 0.0000000000000000e+00 0.0000000000000000e+00 0.0000000000000000e+00 0.0000000000000000e+00  -1.0004649763393628e-01 -5.7369930925833725e-03 0.0000000000000000e+00 -5.7369930925833725e-03 -6.0292560192659168e-02 0.0000000000000000e+00 0.0000000000000000e+00 0.0000000000000000e+00 0.0000000000000000e+00  -9.9954070073359755e-02 -1.3783459196854895e-02 0.0000000000000000e+00 -1.3783459196854895e-02 -7.1648150858300105e-02 0.0000000000000000e+00 0.0000000000000000e+00 0.0000000000000000e+00 0.0000000000000000e+00  -9.3751125352992445e-02 -1.7395397206268742e-02 0.0000000000000000e+00 -1.7395397206268742e-02 -9.1838644227881031e-02 0.0000000000000000e+00 0.0000000000000000e+00 0.0000000000000000e+00 0.0000000000000000e+00  -8.2829363876942189e-02 -7.7848476275833326e-03 0.0000000000000000e+00 -7.7848476275833326e-03 -1.1002266888576184e-01 0.0000000000000000e+00 0.0000000000000000e+00 0.0000000000000000e+00 0.0000000000000000e+00  -8.1509940206370993e-02 1.2057327507285852e-02 0.0000000000000000e+00 1.2057327507285852e-02 -1.0375821257048387e-01 0.0000000000000000e+00 0.0000000000000000e+00 0.0000000000000000e+00 0.0000000000000000e+00  -1.0811871537133526e-01 1.2475510115769929e-02 0.0000000000000000e+00 1.2475510115769929e-02 -6.6833456918678438e-02 0.0000000000000000e+00 0.0000000000000000e+00 0.0000000000000000e+00 0.0000000000000000e+00  -1.3219743638110568e-01 -9.2951375576350755e-03 0.0000000000000000e+00 -9.2951375576350755e-03 -2.9348597396308088e-02 0.0000000000000000e+00 0.0000000000000000e+00 0.0000000000000000e+00 0.0000000000000000e+00  -7.4023955994377083e-02 3.1540562441902840e-03 0.0000000000000000e+00 3.1540562441902840e-03 2.1861133389092364e-02 0.0000000000000000e+00 0.0000000000000000e+00 0.0000000000000000e+00 0.0000000000000000e+00  2.3723505221613893e-02 3.8668970334019316e-02 0.0000000000000000e+00 3.8668970334019316e-02 -1.2804039260648594e-03 0.0000000000000000e+00 0.0000000000000000e+00 0.0000000000000000e+00 0.0000000000000000e+00  -1.1588346008393961e-01 -5.3897227742310032e-02 0.0000000000000000e+00 -5.3897227742310032e-02 -3.9527485094037901e-01 0.0000000000000000e+00 0.0000000000000000e+00 0.0000000000000000e+00 0.0000000000000000e+00  -2.4180450841115936e-01 6.0902449814519075e-02 0.0000000000000000e+00 6.0902449814519075e-02 -3.9011319560765612e-01 0.0000000000000000e+00 0.0000000000000000e+00 0.0000000000000000e+00 0.0000000000000000e+00  -2.9951478222290100e-02 7.3841260012168550e-02 0.0000000000000000e+00 7.3841260012168550e-02 7.9607670545772696e-02 0.0000000000000000e+00 0.0000000000000000e+00 0.0000000000000000e+00 0.0000000000000000e+00  3.3253826970835509e-02 -6.0851255813061340e-02 0.0000000000000000e+00 -6.0851255813061340e-02 3.7524351563474792e-02 0.0000000000000000e+00 0.0000000000000000e+00 0.0000000000000000e+00 0.0000000000000000e+00  -8.6318993024676934e-03 1.6945736955010358e-02 0.0000000000000000e+00 1.6945736955010358e-02 -5.8226831604795415e-03 0.0000000000000000e+00 0.0000000000000000e+00 0.0000000000000000e+00 0.0000000000000000e+00  1.3269983375446949e-02 -5.2004355092523345e-03 0.0000000000000000e+00 -5.2004355092523345e-03 1.4251117272508917e-02 0.0000000000000000e+00 0.0000000000000000e+00 0.0000000000000000e+00 0.0000000000000000e+00  5.6989184713892955e-03 1.2004823002275209e-03 0.0000000000000000e+00 1.2004823002275209e-03 5.3367461149024346e-03 0.0000000000000000e+00 0.0000000000000000e+00 0.0000000000000000e+00 0.0000000000000000e+00  8.1658028832290609e-03 -2.7807459229360404e-04 0.0000000000000000e+00 -2.7807459229360404e-04 8.1875923329604149e-03 0.0000000000000000e+00 0.0000000000000000e+00 0.0000000000000000e+00 0.0000000000000000e+00  7.3609980692473506e-03 8.2883019402708646e-05 0.0000000000000000e+00 8.2883019402708646e-05 7.3136167974706965e-03 0.0000000000000000e+00 0.0000000000000000e+00 0.0000000000000000e+00 0.0000000000000000e+00  7.5921502313858981e-03 -1.3915783819661730e-05 0.0000000000000000e+00 -1.3915783819661728e-05 7.5800843862136626e-03 0.0000000000000000e+00 0.0000000000000000e+00 0.0000000000000000e+00 0.0000000000000000e+00  7.5149733076752727e-03 1.2602596979511918e-05 0.0000000000000000e+00 1.2602596979511918e-05 7.5165784458730142e-03 0.0000000000000000e+00 0.0000000000000000e+00 0.0000000000000000e+00 0.0000000000000000e+00  7.5327568850331299e-03 2.0515120237862031e-06 0.0000000000000000e+00 2.0515120237862052e-06 7.5466238102579611e-03 0.0000000000000000e+00 0.0000000000000000e+00 0.0000000000000000e+00 0.0000000000000000e+00  7.5247124680769984e-03 6.0927322174173327e-06 0.0000000000000000e+00 6.0927322174173327e-06 7.5478533604331514e-03 0.0000000000000000e+00 0.0000000000000000e+00 0.0000000000000000e+00 0.0000000000000000e+00  7.5251416130934024e-03 7.3006771197747081e-06 0.0000000000000000e+00 7.3006771197747081e-06 7.5533156243283370e-03 0.0000000000000000e+00 0.0000000000000000e+00 0.0000000000000000e+00 0.0000000000000000e+00  7.5247189648163324e-03 1.1108502594709756e-05 0.0000000000000000e+00 1.1108502594709756e-05 7.5536007205062568e-03 0.0000000000000000e+00 0.0000000000000000e+00 0.0000000000000000e+00 0.0000000000000000e+00  7.5258890169239171e-03 1.5552226471218023e-05 0.0000000000000000e+00 1.5552226471218023e-05 7.5506574369870261e-03 0.0000000000000000e+00 0.0000000000000000e+00 0.0000000000000000e+00 0.0000000000000000e+00  7.5282339708316300e-03 2.0929635203978689e-05 0.0000000000000000e+00 2.0929635203978689e-05 7.5436113289803451e-03 0.0000000000000000e+00 0.0000000000000000e+00 0.0000000000000000e+00 0.0000000000000000e+00  7.5319958226932986e-03 2.7026667007334831e-05 0.0000000000000000e+00 2.7026667007334831e-05 7.5323395190653557e-03 0.0000000000000000e+00 0.0000000000000000e+00 0.0000000000000000e+00 0.0000000000000000e+00  7.5852393279888745e-03 -2.4257945318126175e-05 0.0000000000000000e+00 -2.4257945318126175e-05 7.5856099698548927e-03 0.0000000000000000e+00 0.0000000000000000e+00 0.0000000000000000e+00 0.0000000000000000e+00  7.5811529134407266e-03 -1.9077480281959399e-05 0.0000000000000000e+00 -1.9077480281959399e-05 7.5978442679131564e-03 0.0000000000000000e+00 0.0000000000000000e+00 0.0000000000000000e+00 0.0000000000000000e+00  7.5784213827230894e-03 -1.4745903855020567e-05 0.0000000000000000e+00 -1.4745903855020567e-05 7.6056188353911761e-03 0.0000000000000000e+00 0.0000000000000000e+00 0.0000000000000000e+00 0.0000000000000000e+00  7.5768277188578894e-03 -1.1192390461712258e-05 0.0000000000000000e+00 -1.1192390461712258e-05 7.6094433430979654e-03 0.0000000000000000e+00 0.0000000000000000e+00 0.0000000000000000e+00 0.0000000000000000e+00  7.5759720621541770e-03 -8.7306568239099631e-06 0.0000000000000000e+00 -8.7306568239099631e-06 7.6095208424161800e-03 0.0000000000000000e+00 0.0000000000000000e+00 0.0000000000000000e+00 0.0000000000000000e+00  7.5765194455956726e-03 -7.0138647177415609e-06 0.0000000000000000e+00 -7.0138647177415609e-06 7.6069310366740275e-03 0.0000000000000000e+00 0.0000000000000000e+00 0.0000000000000000e+00 0.0000000000000000e+00  7.5753575411925400e-03 -7.8065090375991591e-06 0.0000000000000000e+00 -7.8065090375991591e-06 7.5992887619518393e-03 0.0000000000000000e+00 0.0000000000000000e+00 0.0000000000000000e+00 0.0000000000000000e+00  7.5831700595006208e-03 -5.6561008640669991e-06 0.0000000000000000e+00 -5.6561008640669991e-06 7.5962900684330668e-03 0.0000000000000000e+00 0.0000000000000000e+00 0.0000000000000000e+00 0.0000000000000000e+00  7.5658419260288242e-03 -1.7646116313585547e-05 0.0000000000000000e+00 -1.7646116313585547e-05 7.5651844267519020e-03 0.0000000000000000e+00 0.0000000000000000e+00 0.0000000000000000e+00 0.0000000000000000e+00  7.6390394503707999e-03 1.9295927758685280e-05 0.0000000000000000e+00 1.9295927758685280e-05 7.6171994390333495e-03 0.0000000000000000e+00 0.0000000000000000e+00 0.0000000000000000e+00 0.0000000000000000e+00  7.4864171411253332e-03 -1.1752910080117213e-04 0.0000000000000000e+00 -1.1752910080117213e-04 7.3969977366033753e-03 0.0000000000000000e+00 0.0000000000000000e+00 0.0000000000000000e+00 0.0000000000000000e+00  8.1529206040910213e-03 3.9004274320348899e-04 0.0000000000000000e+00 3.9004274320348899e-04 8.1905813825238535e-03 0.0000000000000000e+00 0.0000000000000000e+00 0.0000000000000000e+00 0.0000000000000000e+00  6.4568145422321315e-03 -1.4535491978665519e-03 0.0000000000000000e+00 -1.4535491978665519e-03 6.3176363610848085e-03 0.0000000000000000e+00 0.0000000000000000e+00 0.0000000000000000e+00 0.0000000000000000e+00  1.0766597112641533e-02 4.4543094383459629e-03 0.0000000000000000e+00 4.4543094383459629e-03 1.0265526159360638e-02 0.0000000000000000e+00 0.0000000000000000e+00 0.0000000000000000e+00 0.0000000000000000e+00  2.5753333830377191e-03 -9.5599510885163771e-03 0.0000000000000000e+00 -9.5599510885163771e-03 8.9250634279421856e-03 0.0000000000000000e+00 0.0000000000000000e+00 0.0000000000000000e+00 0.0000000000000000e+00  -1.4346804379725118e-03 1.4050312714791135e-02 0.0000000000000000e+00 1.4050312714791135e-02 -7.3191640575898421e-03 0.0000000000000000e+00 0.0000000000000000e+00 0.0000000000000000e+00 0.0000000000000000e+00  2.8330734836065789e-02 3.5138102793551250e-02 0.0000000000000000e+00 3.5138102793551250e-02 8.5244701422310040e-02 0.0000000000000000e+00 0.0000000000000000e+00 0.0000000000000000e+00 0.0000000000000000e+00  -1.1546602632946051e-01 -1.0789280030804518e-01 0.0000000000000000e+00 -1.0789280030804518e-01 -1.9179799044577700e-02 0.0000000000000000e+00 0.0000000000000000e+00 0.0000000000000000e+00 0.0000000000000000e+00  -2.8920501657453535e-01 -7.1676910645839930e-03 0.0000000000000000e+00 -7.1676910645839930e-03 -4.8614527328408463e-01 0.0000000000000000e+00 0.0000000000000000e+00 0.0000000000000000e+00 0.0000000000000000e+00  -1.8080800599044117e-01 5.7697689130831148e-02 0.0000000000000000e+00 5.7697689130831148e-02 -5.0827488047696534e-01 0.0000000000000000e+00 0.0000000000000000e+00 0.0000000000000000e+00 0.0000000000000000e+00  1.1466392114667767e-02 -2.9648299816168115e-02 0.0000000000000000e+00 -2.9648299816168115e-02 -8.0820365363698701e-02 0.0000000000000000e+00 0.0000000000000000e+00 0.0000000000000000e+00 0.0000000000000000e+00  1.8907557515139648e-02 -5.5171133267926442e-02 0.0000000000000000e+00 -5.5171133267926442e-02 5.0343027502541451e-02 0.0000000000000000e+00 0.0000000000000000e+00 0.0000000000000000e+00 0.0000000000000000e+00  -4.5822839355827885e-02 -8.1434062639329143e-03 0.0000000000000000e+00 -8.1434062639329143e-03 -2.4419626619665399e-02 0.0000000000000000e+00 0.0000000000000000e+00 0.0000000000000000e+00 0.0000000000000000e+00  -1.0032898611214761e-01 2.7296591386706596e-02 0.0000000000000000e+00 2.7296591386706596e-02 -4.1386577339625565e-02 0.0000000000000000e+00 0.0000000000000000e+00 0.0000000000000000e+00 0.0000000000000000e+00  -1.2361275013572794e-01 2.9596281382360964e-02 0.0000000000000000e+00 2.9596281382360964e-02 -1.3444467363797218e-02 0.0000000000000000e+00 0.0000000000000000e+00 0.0000000000000000e+00 0.0000000000000000e+00  -1.2258274560816465e-01 1.4435394202752029e-02 0.0000000000000000e+00 1.4435394202752029e-02 4.1259893995945025e-03 0.0000000000000000e+00 0.0000000000000000e+00 0.0000000000000000e+00 0.0000000000000000e+00  -1.1149446560310347e-01 1.7081582867313207e-03 0.0000000000000000e+00 1.7081582867313207e-03 3.3126370124112489e-03 0.0000000000000000e+00 0.0000000000000000e+00 0.0000000000000000e+00 0.0000000000000000e+00  -1.0296072127047645e-01 -2.7653507191660854e-03 0.0000000000000000e+00 -2.7653507191660854e-03 -2.7952712490121141e-03 0.0000000000000000e+00 0.0000000000000000e+00 0.0000000000000000e+00 0.0000000000000000e+00  -1.0283637165126627e-01 -2.9320894693306240e-03 0.0000000000000000e+00 -2.9320894693306240e-03 -3.6504642085466001e-03 0.0000000000000000e+00 0.0000000000000000e+00 0.0000000000000000e+00 0.0000000000000000e+00  -1.1156222123468730e-01 -5.9078822261074051e-03 0.0000000000000000e+00 -5.9078822261074051e-03 1.7266356972853165e-03 0.0000000000000000e+00 0.0000000000000000e+00 0.0000000000000000e+00 0.0000000000000000e+00  -1.2441243471679155e-01 -1.6653466873199112e-02 0.0000000000000000e+00 -1.6653466873199112e-02 4.3666538390781905e-03 0.0000000000000000e+00 0.0000000000000000e+00 0.0000000000000000e+00 0.0000000000000000e+00  -1.2999484755505875e-01 -3.1794757687614188e-02 0.0000000000000000e+00 -3.1794757687614188e-02 -9.4757161490349497e-03 0.0000000000000000e+00 0.0000000000000000e+00 0.0000000000000000e+00 0.0000000000000000e+00  -1.1348709434598019e-01 -3.3587540355531208e-02 0.0000000000000000e+00 -3.3587540355531208e-02 -3.8386254808676412e-02 0.0000000000000000e+00 0.0000000000000000e+00 0.0000000000000000e+00 0.0000000000000000e+00  -6.5954450459518837e-02 -3.2609991718248457e-03 0.0000000000000000e+00 -3.2609991718248457e-03 -3.5434675234792622e-02 0.0000000000000000e+00 0.0000000000000000e+00 0.0000000000000000e+00 0.0000000000000000e+00  5.6133930595103356e-05 4.8171910818796487e-02 0.0000000000000000e+00 4.8171910818796487e-02 3.8862861063685528e-02 0.0000000000000000e+00 0.0000000000000000e+00 0.0000000000000000e+00 0.0000000000000000e+00  1.4534531631653132e-02 4.3411213350188417e-02 0.0000000000000000e+00 4.3411213350188417e-02 -2.5851688002582678e-02 0.0000000000000000e+00 0.0000000000000000e+00 0.0000000000000000e+00 0.0000000000000000e+00  -1.4392146626921110e-01 -4.2178940916865318e-02 0.0000000000000000e+00 -4.2178940916865318e-02 -4.3494368933588390e-01 0.0000000000000000e+00 0.0000000000000000e+00 0.0000000000000000e+00 0.0000000000000000e+00  -3.0797021027328342e-01 -2.3686099995591084e-02 0.0000000000000000e+00 -2.3686099995591084e-02 -5.5844541056151120e-01 0.0000000000000000e+00 0.0000000000000000e+00 0.0000000000000000e+00 0.0000000000000000e+00  -1.6419643984733237e-01 1.1139879353499992e-01 0.0000000000000000e+00 1.1139879353499992e-01 -1.0667885247515574e-01 0.0000000000000000e+00 0.0000000000000000e+00 0.0000000000000000e+00 0.0000000000000000e+00  7.8009630205273361e-03 -7.1464174709753546e-03 0.0000000000000000e+00 -7.1464174709753546e-03 9.3580615984440896e-02 0.0000000000000000e+00 0.0000000000000000e+00 0.0000000000000000e+00 0.0000000000000000e+00  4.2095441210034390e-03 -3.0497366409295582e-02 0.0000000000000000e+00 -3.0497366409295582e-02 6.7623381574503417e-04 0.0000000000000000e+00 0.0000000000000000e+00 0.0000000000000000e+00 0.0000000000000000e+00  -7.7279127961249472e-03 1.2527245779204126e-02 0.0000000000000000e+00 1.2527245779204126e-02 -2.0580078862970602e-03 0.0000000000000000e+00 0.0000000000000000e+00 0.0000000000000000e+00 0.0000000000000000e+00  6.6781446626386310e-03 -4.1333625427447873e-03 0.0000000000000000e+00 -4.1333625427447873e-03 7.7035318897380640e-03 0.0000000000000000e+00 0.0000000000000000e+00 0.0000000000000000e+00 0.0000000000000000e+00  1.1100808509031728e-03 6.5540866421125383e-04 0.0000000000000000e+00 6.5540866421125383e-04 7.5993326798875604e-04 0.0000000000000000e+00 0.0000000000000000e+00 0.0000000000000000e+00 0.0000000000000000e+00  2.9345447735811179e-03 -5.5710093399232433e-05 0.0000000000000000e+00 -5.5710093399232433e-05 3.1453620907059250e-03 0.0000000000000000e+00 0.0000000000000000e+00 0.0000000000000000e+00 0.0000000000000000e+00  2.3928159070947985e-03 -4.9125911879990972e-05 0.0000000000000000e+00 -4.9125911879990972e-05 2.3533645679424176e-03 0.0000000000000000e+00 0.0000000000000000e+00 0.0000000000000000e+00 0.0000000000000000e+00  2.5363990735770944e-03 2.6002909316245368e-05 0.0000000000000000e+00 2.6002909316245368e-05 2.5348789630248733e-03 0.0000000000000000e+00 0.0000000000000000e+00 0.0000000000000000e+00 0.0000000000000000e+00  2.4989971052180333e-03 -1.2341877321726073e-06 0.0000000000000000e+00 -1.2341877321726062e-06 2.4608087539144410e-03 0.0000000000000000e+00 0.0000000000000000e+00 0.0000000000000000e+00 0.0000000000000000e+00  2.5155627988856801e-03 8.5900499376356958e-06 0.0000000000000000e+00 8.5900499376356941e-06 2.4584948981020158e-03 0.0000000000000000e+00 0.0000000000000000e+00 0.0000000000000000e+00 0.0000000000000000e+00  2.5143565699812060e-03 2.8822075639052297e-06 0.0000000000000000e+00 2.8822075639052297e-06 2.4439920670268518e-03 0.0000000000000000e+00 0.0000000000000000e+00 0.0000000000000000e+00 0.0000000000000000e+00  2.5168848523897183e-03 -1.8157652963635113e-06 0.0000000000000000e+00 -1.8157652963635113e-06 2.4421343452837251e-03 0.0000000000000000e+00 0.0000000000000000e+00 0.0000000000000000e+00 0.0000000000000000e+00  2.5138456061100161e-03 -6.0004944041814912e-06 0.0000000000000000e+00 -6.0004944041814912e-06 2.4455404769221185e-03 0.0000000000000000e+00 0.0000000000000000e+00 0.0000000000000000e+00 0.0000000000000000e+00  2.5149168166449256e-03 -1.0349426968852752e-05 0.0000000000000000e+00 -1.0349426968852752e-05 2.4600362218386400e-03 0.0000000000000000e+00 0.0000000000000000e+00 0.0000000000000000e+00 0.0000000000000000e+00  2.5004073979928289e-03 1.9344114984591936e-06 0.0000000000000000e+00 1.9344114984591944e-06 2.4643425235768459e-03 0.0000000000000000e+00 0.0000000000000000e+00 0.0000000000000000e+00 0.0000000000000000e+00  2.5425189003418971e-03 -1.7529539004643647e-05 0.0000000000000000e+00 -1.7529539004643647e-05 2.5284365654062897e-03 0.0000000000000000e+00 0.0000000000000000e+00 0.0000000000000000e+00 0.0000000000000000e+00  2.4604084923049063e-03 6.0056199461063323e-05 0.0000000000000000e+00 6.0056199461063323e-05 2.3816751587487943e-03 0.0000000000000000e+00 0.0000000000000000e+00 0.0000000000000000e+00 0.0000000000000000e+00  2.9939034796584484e-03 9.0832782602500152e-05 0.0000000000000000e+00 9.0832782602500152e-05 3.2264799376039060e-03 0.0000000000000000e+00 0.0000000000000000e+00 0.0000000000000000e+00 0.0000000000000000e+00  1.3963208496912852e-03 -7.6118149113369707e-04 0.0000000000000000e+00 -7.6118149113369707e-04 1.0123737711753525e-03 0.0000000000000000e+00 0.0000000000000000e+00 0.0000000000000000e+00 0.0000000000000000e+00  6.6700193215197103e-03 4.1826599094746033e-03 0.0000000000000000e+00 4.1826599094746033e-03 7.6856472347849149e-03 0.0000000000000000e+00 0.0000000000000000e+00 0.0000000000000000e+00 0.0000000000000000e+00  -7.5989179293814140e-03 -1.2413874417289113e-02 0.0000000000000000e+00 -1.2413874417289113e-02 -1.8901518750971567e-03 0.0000000000000000e+00 0.0000000000000000e+00 0.0000000000000000e+00 0.0000000000000000e+00  2.9111453434096605e-03 2.9825462453849667e-02 0.0000000000000000e+00 2.9825462453849667e-02 -7.3334768924172085e-04 0.0000000000000000e+00 0.0000000000000000e+00 0.0000000000000000e+00 0.0000000000000000e+00  9.3948922476708337e-03 8.3745847145104725e-03 0.0000000000000000e+00 8.3745847145104725e-03 9.3190152356626463e-02 0.0000000000000000e+00 0.0000000000000000e+00 0.0000000000000000e+00 0.0000000000000000e+00  -1.6126316354332648e-01 -1.1128695987984852e-01 0.0000000000000000e+00 -1.1128695987984852e-01 -1.0231558718552192e-01 0.0000000000000000e+00 0.0000000000000000e+00 0.0000000000000000e+00 0.0000000000000000e+00  -3.0721731495144144e-01 2.2922378381380670e-02 0.0000000000000000e+00 2.2922378381380670e-02 -5.5579093017737258e-01 0.0000000000000000e+00 0.0000000000000000e+00 0.0000000000000000e+00 0.0000000000000000e+00  -1.4430958852742448e-01 4.2992090659227003e-02 0.0000000000000000e+00 4.2992090659227003e-02 -4.3734544634262551e-01 0.0000000000000000e+00 0.0000000000000000e+00 0.0000000000000000e+00 0.0000000000000000e+00  1.5301404835774775e-02 -4.2572623926959124e-02 0.0000000000000000e+00 -4.2572623926959124e-02 -2.7367083339845468e-02 0.0000000000000000e+00 0.0000000000000000e+00 0.0000000000000000e+00 0.0000000000000000e+00  9.7773775447517397e-04 -4.7876567059424224e-02 0.0000000000000000e+00 -4.7876567059424224e-02 3.8832581996271480e-02 0.0000000000000000e+00 0.0000000000000000e+00 0.0000000000000000e+00 0.0000000000000000e+00  -6.5073620982515540e-02 3.4062418871830613e-03 0.0000000000000000e+00 3.4062418871830613e-03 -3.5412711848489008e-02 0.0000000000000000e+00 0.0000000000000000e+00 0.0000000000000000e+00 0.0000000000000000e+00  -1.1273266848032799e-01 3.3772702239749625e-02 0.0000000000000000e+00 3.3772702239749625e-02 -3.8510436981398194e-02 0.0000000000000000e+00 0.0000000000000000e+00 0.0000000000000000e+00 0.0000000000000000e+00  -1.2936494926147357e-01 3.1981050030463372e-02 0.0000000000000000e+00 3.1981050030463372e-02 -9.5225102986957345e-03 0.0000000000000000e+00 0.0000000000000000e+00 0.0000000000000000e+00 0.0000000000000000e+00  -1.2386948201675316e-01 1.6734201670827946e-02 0.0000000000000000e+00 1.6734201670827946e-02 4.4095042230552625e-03 0.0000000000000000e+00 0.0000000000000000e+00 0.0000000000000000e+00 0.0000000000000000e+00  -1.1100008101742964e-01 5.8561428137045464e-03 0.0000000000000000e+00 5.8561428137045464e-03 1.7245233119534491e-03 0.0000000000000000e+00 0.0000000000000000e+00 0.0000000000000000e+00 0.0000000000000000e+00  -1.0221073228024188e-01 2.8249883340492614e-03 0.0000000000000000e+00 2.8249883340492614e-03 -3.7958079876061319e-03 0.0000000000000000e+00 0.0000000000000000e+00 0.0000000000000000e+00 0.0000000000000000e+00  -1.0229530012771831e-01 2.6995546890683747e-03 0.0000000000000000e+00 2.6995546890683747e-03 -3.0510952553668789e-03 0.0000000000000000e+00 0.0000000000000000e+00 0.0000000000000000e+00 0.0000000000000000e+00  -1.1083785573494136e-01 -1.6815990936080612e-03 0.0000000000000000e+00 -1.6815990936080612e-03 3.0736705350097684e-03 0.0000000000000000e+00 0.0000000000000000e+00 0.0000000000000000e+00 0.0000000000000000e+00  -1.2203226699555624e-01 -1.4344735367086994e-02 0.0000000000000000e+00 -1.4344735367086994e-02 4.0655728662733585e-03 0.0000000000000000e+00 0.0000000000000000e+00 0.0000000000000000e+00 0.0000000000000000e+00  -1.2329333861933067e-01 -2.9580255286539930e-02 0.0000000000000000e+00 -2.9580255286539930e-02 -1.3272959456171940e-02 0.0000000000000000e+00 0.0000000000000000e+00 0.0000000000000000e+00 0.0000000000000000e+00  -1.0027847271867664e-01 -2.7536042438852274e-02 0.0000000000000000e+00 -2.7536042438852274e-02 -4.1261259107303980e-02 0.0000000000000000e+00 0.0000000000000000e+00 0.0000000000000000e+00 0.0000000000000000e+00  -4.6029306715519511e-02 7.6452345553577371e-03 0.0000000000000000e+00 7.6452345553577371e-03 -2.4876150101404593e-02 0.0000000000000000e+00 0.0000000000000000e+00 0.0000000000000000e+00 0.0000000000000000e+00  1.8791236643105513e-02 5.4869220134559117e-02 0.0000000000000000e+00 5.4869220134559117e-02 5.0089345465820730e-02 0.0000000000000000e+00 0.0000000000000000e+00 0.0000000000000000e+00 0.0000000000000000e+00  1.2269457336277548e-02 3.0113109854996552e-02 0.0000000000000000e+00 3.0113109854996552e-02 -7.8482331343329423e-02 0.0000000000000000e+00 0.0000000000000000e+00 0.0000000000000000e+00 0.0000000000000000e+00  -1.7871721481604591e-01 -5.7564289801272830e-02 0.0000000000000000e+00 -5.7564289801272830e-02 -5.0567129570768887e-01 0.0000000000000000e+00 0.0000000000000000e+00 0.0000000000000000e+00 0.0000000000000000e+00  -2.8957955021165721e-01 5.9645744454916213e-03 0.0000000000000000e+00 5.9645744454916213e-03 -4.8899269830230446e-01 0.0000000000000000e+00 0.0000000000000000e+00 0.0000000000000000e+00 0.0000000000000000e+00  -1.1739849512400695e-01 1.0854615589437165e-01 0.0000000000000000e+00 1.0854615589437165e-01 -2.1645144159190017e-02 0.0000000000000000e+00 0.0000000000000000e+00 0.0000000000000000e+00 0.0000000000000000e+00  2.8270982650679788e-02 -3.4816945158650567e-02 0.0000000000000000e+00 -3.4816945158650567e-02 8.6087472142385185e-02 0.0000000000000000e+00 0.0000000000000000e+00 0.0000000000000000e+00 0.0000000000000000e+00  -3.6736760616412037e-04 -1.4316859051847550e-02 0.0000000000000000e+00 -1.4316859051847550e-02 -6.2049216252553054e-03 0.0000000000000000e+00 0.0000000000000000e+00 0.0000000000000000e+00 0.0000000000000000e+00  2.4525715178747372e-03 9.6623599678575620e-03 0.0000000000000000e+00 9.6623599678575603e-03 8.6889395095095141e-03 0.0000000000000000e+00 0.0000000000000000e+00 0.0000000000000000e+00 0.0000000000000000e+00  1.0695154872087480e-02 -4.4294617703177176e-03 0.0000000000000000e+00 -4.4294617703177176e-03 1.0151836141104816e-02 0.0000000000000000e+00 0.0000000000000000e+00 0.0000000000000000e+00 0.0000000000000000e+00  6.2576511762713113e-03 1.4068724547712319e-03 0.0000000000000000e+00 1.4068724547712319e-03 6.2224534669894343e-03 0.0000000000000000e+00 0.0000000000000000e+00 0.0000000000000000e+00 0.0000000000000000e+00  8.0630614404695600e-03 -3.8216073515048203e-04 0.0000000000000000e+00 -3.8216073515048203e-04 8.0535759602592839e-03 0.0000000000000000e+00 0.0000000000000000e+00 0.0000000000000000e+00 0.0000000000000000e+00  7.3651945729849011e-03 1.1886827666523715e-04 0.0000000000000000e+00 1.1886827666523715e-04 7.3209594142947983e-03 0.0000000000000000e+00 0.0000000000000000e+00 0.0000000000000000e+00 0.0000000000000000e+00  7.5735345174108848e-03 -1.0638248702529464e-05 0.0000000000000000e+00 -1.0638248702529464e-05 7.5744516556130789e-03 0.0000000000000000e+00 0.0000000000000000e+00 0.0000000000000000e+00 0.0000000000000000e+00  7.5037655888922057e-03 1.7932212834725827e-05 0.0000000000000000e+00 1.7932212834725827e-05 7.5087656066875827e-03 0.0000000000000000e+00 0.0000000000000000e+00 0.0000000000000000e+00 0.0000000000000000e+00  7.5233090525231106e-03 5.8853944463105739e-06 0.0000000000000000e+00 5.8853944463105739e-06 7.5402103089616170e-03 0.0000000000000000e+00 0.0000000000000000e+00 0.0000000000000000e+00 0.0000000000000000e+00  7.5161161435880813e-03 6.9384073351828502e-06 0.0000000000000000e+00 6.9384073351828502e-06 7.5412036552427800e-03 0.0000000000000000e+00 0.0000000000000000e+00 0.0000000000000000e+00 0.0000000000000000e+00  7.5174203150690597e-03 6.0329922933519045e-06 0.0000000000000000e+00 6.0329922933519045e-06 7.5483423173840335e-03 0.0000000000000000e+00 0.0000000000000000e+00 0.0000000000000000e+00 0.0000000000000000e+00  7.5169948797932885e-03 7.7139754741906391e-06 0.0000000000000000e+00 7.7139754741906391e-06 7.5504854913013833e-03 0.0000000000000000e+00 0.0000000000000000e+00 0.0000000000000000e+00 0.0000000000000000e+00  7.5179115407920270e-03 1.0181828459125044e-05 0.0000000000000000e+00 1.0181828459125044e-05 7.5501797438173243e-03 0.0000000000000000e+00 0.0000000000000000e+00 0.0000000000000000e+00 0.0000000000000000e+00  7.5195216590964679e-03 1.3653795582072938e-05 0.0000000000000000e+00 1.3653795582072938e-05 7.5462740283126157e-03 0.0000000000000000e+00 0.0000000000000000e+00 0.0000000000000000e+00 0.0000000000000000e+00  7.5222240929439105e-03 1.7744776751944050e-05 0.0000000000000000e+00 1.7744776751944050e-05 7.5385779125031931e-03 0.0000000000000000e+00 0.0000000000000000e+00 0.0000000000000000e+00 0.0000000000000000e+00  7.5262296926255461e-03 2.2410453890835602e-05 0.0000000000000000e+00 2.2410453890835602e-05 7.5265872420693901e-03 0.0000000000000000e+00 0.0000000000000000e+00 0.0000000000000000e+00 0.0000000000000000e+00  7.5803885607994758e-03 -1.9229946936833347e-05 0.0000000000000000e+00 -1.9229946936833347e-05 7.5807872520619636e-03 0.0000000000000000e+00 0.0000000000000000e+00 0.0000000000000000e+00 0.0000000000000000e+00  7.5760284755911206e-03 -1.5567594752237197e-05 0.0000000000000000e+00 -1.5567594752237197e-05 7.5937780821720841e-03 0.0000000000000000e+00 0.0000000000000000e+00 0.0000000000000000e+00 0.0000000000000000e+00  7.5729374182004327e-03 -1.2339917583562273e-05 0.0000000000000000e+00 -1.2339917583562273e-05 7.6021858872108734e-03 0.0000000000000000e+00 0.0000000000000000e+00 0.0000000000000000e+00 0.0000000000000000e+00  7.5706450339109166e-03 -9.6514804684839173e-06 0.0000000000000000e+00 -9.6514804684839173e-06 7.6067378823238907e-03 0.0000000000000000e+00 0.0000000000000000e+00 0.0000000000000000e+00 0.0000000000000000e+00  7.5689453711179884e-03 -7.6995238208248053e-06 0.0000000000000000e+00 -7.6995238208248053e-06 7.6079631386579832e-03 0.0000000000000000e+00 0.0000000000000000e+00 0.0000000000000000e+00 0.0000000000000000e+00  7.5673894373283843e-03 -6.8736974877407538e-06 0.0000000000000000e+00 -6.8736974877407538e-06 7.6059356986511442e-03 0.0000000000000000e+00 0.0000000000000000e+00 0.0000000000000000e+00 0.0000000000000000e+00  7.5667843581945556e-03 -6.8433124276220149e-06 0.0000000000000000e+00 -6.8433124276220149e-06 7.6016649205512838e-03 0.0000000000000000e+00 0.0000000000000000e+00 0.0000000000000000e+00 0.0000000000000000e+00  7.5640357598432571e-03 -9.3436408319407726e-06 0.0000000000000000e+00 -9.3436408319407726e-06 7.5924282456181534e-03 0.0000000000000000e+00 0.0000000000000000e+00 0.0000000000000000e+00 0.0000000000000000e+00  7.5694840311253606e-03 -8.5943283508433168e-06 0.0000000000000000e+00 -8.5943283508433168e-06 7.5874075013485269e-03 0.0000000000000000e+00 0.0000000000000000e+00 0.0000000000000000e+00 0.0000000000000000e+00  7.5543415195839939e-03 -2.5744914021488850e-05 0.0000000000000000e+00 -2.5744914021488850e-05 7.5572582082869951e-03 0.0000000000000000e+00 0.0000000000000000e+00 0.0000000000000000e+00 0.0000000000000000e+00  7.6148434869194575e-03 1.6401169058400215e-05 0.0000000000000000e+00 1.6401169058400215e-05 7.5920311611310633e-03 0.0000000000000000e+00 0.0000000000000000e+00 0.0000000000000000e+00 0.0000000000000000e+00  7.5333841890816381e-03 -1.4948843058702584e-04 0.0000000000000000e+00 -1.4948843058702584e-04 7.4989024706437158e-03 0.0000000000000000e+00 0.0000000000000000e+00 0.0000000000000000e+00 0.0000000000000000e+00  7.9260468314181990e-03 2.8227942714083445e-04 0.0000000000000000e+00 2.8227942714083445e-04 7.8824505209083295e-03 0.0000000000000000e+00 0.0000000000000000e+00 0.0000000000000000e+00 0.0000000000000000e+00  7.2337109251571436e-03 -8.0576948208091622e-04 0.0000000000000000e+00 -8.0576948208091622e-04 7.4295404351903535e-03 0.0000000000000000e+00 0.0000000000000000e+00 0.0000000000000000e+00 0.0000000000000000e+00  7.9215748583049174e-03 1.1867139940405487e-03 0.0000000000000000e+00 1.1867139940405487e-03 7.0144678539500746e-03 0.0000000000000000e+00 0.0000000000000000e+00 0.0000000000000000e+00 0.0000000000000000e+00  9.4978045366434817e-03 3.7066761868617383e-04 0.0000000000000000e+00 3.7066761868617383e-04 1.2155974458979974e-02 0.0000000000000000e+00 0.0000000000000000e+00 0.0000000000000000e+00 0.0000000000000000e+00  -2.5628534251966617e-03 -7.8081997695950657e-03 0.0000000000000000e+00 -7.8081997695950657e-03 1.1434500171254292e-03 0.0000000000000000e+00 0.0000000000000000e+00 0.0000000000000000e+00 0.0000000000000000e+00  5.0543374657042754e-03 2.2826962043690866e-02 0.0000000000000000e+00 2.2826962043690866e-02 6.2882709748892929e-03 0.0000000000000000e+00 0.0000000000000000e+00 0.0000000000000000e+00 0.0000000000000000e+00  7.1350987066914305e-03 1.1910096201033568e-02 0.0000000000000000e+00 1.1910096201033568e-02 7.1537758917015942e-02 0.0000000000000000e+00 0.0000000000000000e+00 0.0000000000000000e+00 0.0000000000000000e+00  -1.1633403442944774e-01 -7.9041808149781553e-02 0.0000000000000000e+00 -7.9041808149781553e-02 -9.3936778894965958e-03 0.0000000000000000e+00 0.0000000000000000e+00 0.0000000000000000e+00 0.0000000000000000e+00  -2.8864448408172916e-01 -3.2254560694379882e-02 0.0000000000000000e+00 -3.2254560694379882e-02 -3.4698503873491648e-01 0.0000000000000000e+00 0.0000000000000000e+00 0.0000000000000000e+00 0.0000000000000000e+00  -3.6800716238200037e-01 5.5077712725088025e-02 0.0000000000000000e+00 5.5077712725088025e-02 -6.6385870084635534e-01 0.0000000000000000e+00 0.0000000000000000e+00 0.0000000000000000e+00 0.0000000000000000e+00  -2.5025028290352541e-01 4.7681091376187916e-02 0.0000000000000000e+00 4.7681091376187916e-02 -5.8533728076719094e-01 0.0000000000000000e+00 0.0000000000000000e+00 0.0000000000000000e+00 0.0000000000000000e+00  -8.8596743487246679e-02 9.6444201376501559e-03 0.0000000000000000e+00 9.6444201376501559e-03 -3.0476299181854893e-01 0.0000000000000000e+00 0.0000000000000000e+00 0.0000000000000000e+00 0.0000000000000000e+00  3.0824714989040866e-02 -1.7067630646109683e-02 0.0000000000000000e+00 -1.7067630646109683e-02 -9.9471080826383881e-02 0.0000000000000000e+00 0.0000000000000000e+00 0.0000000000000000e+00 0.0000000000000000e+00  9.8401923179074161e-02 -2.7256898987168821e-02 0.0000000000000000e+00 -2.7256898987168821e-02 -5.4642098609515933e-03 0.0000000000000000e+00 0.0000000000000000e+00 0.0000000000000000e+00 0.0000000000000000e+00  1.2517783492627663e-01 -2.3832355193677098e-02 0.0000000000000000e+00 -2.3832355193677098e-02 2.4965790604934500e-02 0.0000000000000000e+00 0.0000000000000000e+00 0.0000000000000000e+00 0.0000000000000000e+00  1.3169900889132252e-01 -1.1523595806017009e-02 0.0000000000000000e+00 -1.1523595806017009e-02 2.9904065283780645e-02 0.0000000000000000e+00 0.0000000000000000e+00 0.0000000000000000e+00 0.0000000000000000e+00  1.3125820584503600e-01 4.3309536424905887e-03 0.0000000000000000e+00 4.3309536424905887e-03 2.9839776881060740e-02 0.0000000000000000e+00 0.0000000000000000e+00 0.0000000000000000e+00 0.0000000000000000e+00  1.2511365593048615e-01 1.7890792052900225e-02 0.0000000000000000e+00 1.7890792052900225e-02 2.6564963021861648e-02 0.0000000000000000e+00 0.0000000000000000e+00 0.0000000000000000e+00 0.0000000000000000e+00  1.0224595720955255e-01 2.3775575206269127e-02 0.0000000000000000e+00 2.3775575206269127e-02 3.0111579393593711e-03 0.0000000000000000e+00 0.0000000000000000e+00 0.0000000000000000e+00 0.0000000000000000e+00  4.2619709203788617e-02 1.7179523126533921e-02 0.0000000000000000e+00 1.7179523126533921e-02 -7.5429215995604176e-02 0.0000000000000000e+00 0.0000000000000000e+00 0.0000000000000000e+00 0.0000000000000000e+00  -6.8231393093883014e-02 -5.5762993094696641e-03 0.0000000000000000e+00 -5.5762993094696641e-03 -2.5790741984807386e-01 0.0000000000000000e+00 0.0000000000000000e+00 0.0000000000000000e+00 0.0000000000000000e+00  -2.2501645351650093e-01 -4.1607575141500507e-02 0.0000000000000000e+00 -4.1607575141500507e-02 -5.3781118448567666e-01 0.0000000000000000e+00 0.0000000000000000e+00 0.0000000000000000e+00 0.0000000000000000e+00  -3.6552010748129837e-01 -6.1032185977382879e-02 0.0000000000000000e+00 -6.1032185977382879e-02 -6.8428341935932668e-01 0.0000000000000000e+00 0.0000000000000000e+00 0.0000000000000000e+00 0.0000000000000000e+00  -3.2234649096212431e-01 1.1985827976963223e-02 0.0000000000000000e+00 1.1985827976963223e-02 -4.2604399134600274e-01 0.0000000000000000e+00 0.0000000000000000e+00 0.0000000000000000e+00 0.0000000000000000e+00  -1.5429458388885875e-01 8.2791454500355702e-02 0.0000000000000000e+00 8.2791454500355702e-02 -6.0794979693535679e-02 0.0000000000000000e+00 0.0000000000000000e+00 0.0000000000000000e+00 0.0000000000000000e+00  -1.1593950405051387e-02 5.6619492069650513e-03 0.0000000000000000e+00 5.6619492069650513e-03 7.1211617070336269e-02 0.0000000000000000e+00 0.0000000000000000e+00 0.0000000000000000e+00 0.0000000000000000e+00  5.9933191233198053e-03 -2.9293708397436558e-02 0.0000000000000000e+00 -2.9293708397436558e-02 1.3095407131471280e-02 0.0000000000000000e+00 0.0000000000000000e+00 0.0000000000000000e+00 0.0000000000000000e+00  -7.5552780751966747e-03 4.7015680962672847e-03 0.0000000000000000e+00 4.7015680962672847e-03 -5.5255597284165148e-03 0.0000000000000000e+00 0.0000000000000000e+00 0.0000000000000000e+00 0.0000000000000000e+00  2.6653494473125581e-03 2.2576990615490776e-03 0.0000000000000000e+00 2.2576990615490776e-03 7.2143353032898937e-03 0.0000000000000000e+00 0.0000000000000000e+00 0.0000000000000000e+00 0.0000000000000000e+00  3.9035195398849981e-03 -2.4137210219201031e-03 0.0000000000000000e+00 -2.4137210219201031e-03 3.0842034774386240e-03 0.0000000000000000e+00 0.0000000000000000e+00 0.0000000000000000e+00 0.0000000000000000e+00  1.7946888173305631e-03 9.0101510001765184e-04 0.0000000000000000e+00 9.0101510001765184e-04 2.0625613407855730e-03 0.0000000000000000e+00 0.0000000000000000e+00 0.0000000000000000e+00 0.0000000000000000e+00  2.9480829818456693e-03 -3.2612265315393131e-04 0.0000000000000000e+00 -3.2612265315393131e-04 2.9656198697653401e-03 0.0000000000000000e+00 0.0000000000000000e+00 0.0000000000000000e+00 0.0000000000000000e+00  2.4092203187224986e-03 2.0433804056329685e-05 0.0000000000000000e+00 2.0433804056329685e-05 2.3737500498655869e-03 0.0000000000000000e+00 0.0000000000000000e+00 0.0000000000000000e+00 0.0000000000000000e+00  2.5512908715881006e-03 -1.0273163276653438e-05 0.0000000000000000e+00 -1.0273163276653438e-05 2.5538427549448247e-03 0.0000000000000000e+00 0.0000000000000000e+00 0.0000000000000000e+00 0.0000000000000000e+00  2.5073611890722917e-03 -4.0925285416114336e-06 0.0000000000000000e+00 -4.0925285416114336e-06 2.4728516590281661e-03 0.0000000000000000e+00 0.0000000000000000e+00 0.0000000000000000e+00 0.0000000000000000e+00  2.5218224790398629e-03 5.1420512818675676e-06 0.0000000000000000e+00 5.1420512818675668e-06 2.4737444926063988e-03 0.0000000000000000e+00 0.0000000000000000e+00 0.0000000000000000e+00 0.0000000000000000e+00  2.5202324741038615e-03 3.2261298062991884e-06 0.0000000000000000e+00 3.2261298062991884e-06 2.4558371615151851e-03 0.0000000000000000e+00 0.0000000000000000e+00 0.0000000000000000e+00 0.0000000000000000e+00  2.5228598453851774e-03 1.9203188944636309e-06 0.0000000000000000e+00 1.9203188944636309e-06 2.4488120662973620e-03 0.0000000000000000e+00 0.0000000000000000e+00 0.0000000000000000e+00 0.0000000000000000e+00  2.5227663040083112e-03 -1.5395184216701101e-06 0.0000000000000000e+00 -1.5395184216701101e-06 2.4457615961992166e-03 0.0000000000000000e+00 0.0000000000000000e+00 0.0000000000000000e+00 0.0000000000000000e+00  2.5223993817767702e-03 -4.7067081824905367e-06 0.0000000000000000e+00 -4.7067081824905367e-06 2.4493930017990880e-03 0.0000000000000000e+00 0.0000000000000000e+00 0.0000000000000000e+00 0.0000000000000000e+00  2.5197223512938589e-03 -5.2526069273842088e-06 0.0000000000000000e+00 -5.2526069273842088e-06 2.4567819247356408e-03 0.0000000000000000e+00 0.0000000000000000e+00 0.0000000000000000e+00 0.0000000000000000e+00  2.5223803029770587e-03 -5.6853921491662463e-06 0.0000000000000000e+00 -5.6853921491662463e-06 2.4724915621025297e-03 0.0000000000000000e+00 0.0000000000000000e+00 0.0000000000000000e+00 0.0000000000000000e+00  2.5137539221939077e-03 2.8810278297740463e-06 0.0000000000000000e+00 2.8810278297740480e-06 2.4733356124341382e-03 0.0000000000000000e+00 0.0000000000000000e+00 0.0000000000000000e+00 0.0000000000000000e+00  2.5662684209626523e-03 1.4995439966460277e-05 0.0000000000000000e+00 1.4995439966460277e-05 2.5452526049179716e-03 0.0000000000000000e+00 0.0000000000000000e+00 0.0000000000000000e+00 0.0000000000000000e+00  2.5051865851729465e-03 -3.3785837663368190e-05 0.0000000000000000e+00 -3.3785837663368190e-05 2.4326577108927834e-03 0.0000000000000000e+00 0.0000000000000000e+00 0.0000000000000000e+00 0.0000000000000000e+00  2.9663178538029585e-03 2.8136986469783033e-04 0.0000000000000000e+00 2.8136986469783033e-04 3.1356734563537099e-03 0.0000000000000000e+00 0.0000000000000000e+00 0.0000000000000000e+00 0.0000000000000000e+00  1.8773472669086804e-03 -8.6904919640170598e-04 0.0000000000000000e+00 -8.6904919640170598e-04 2.0066747910342953e-03 0.0000000000000000e+00 0.0000000000000000e+00 0.0000000000000000e+00 0.0000000000000000e+00  3.8812723268801161e-03 2.3195314146482681e-03 0.0000000000000000e+00 2.3195314146482681e-03 3.2519531819656874e-03 0.0000000000000000e+00 0.0000000000000000e+00 0.0000000000000000e+00 0.0000000000000000e+00  2.6947226963097044e-03 -2.1541307013370685e-03 0.0000000000000000e+00 -2.1541307013370685e-03 7.1223689937447666e-03 0.0000000000000000e+00 0.0000000000000000e+00 0.0000000000000000e+00 0.0000000000000000e+00  -8.8381088747691815e-03 -4.5703343822089161e-03 0.0000000000000000e+00 -4.5703343822089161e-03 -6.7649004810760513e-03 0.0000000000000000e+00 0.0000000000000000e+00 0.0000000000000000e+00 0.0000000000000000e+00  4.7390742508588869e-03 2.9056119696807672e-02 0.0000000000000000e+00 2.9056119696807672e-02 1.2534911540583313e-02 0.0000000000000000e+00 0.0000000000000000e+00 0.0000000000000000e+00 0.0000000000000000e+00  -1.0124039974134828e-02 -5.1376219700291128e-03 0.0000000000000000e+00 -5.1376219700291128e-03 7.1442205173850803e-02 0.0000000000000000e+00 0.0000000000000000e+00 0.0000000000000000e+00 0.0000000000000000e+00  -1.5269051462892461e-01 -8.2438954647601481e-02 0.0000000000000000e+00 -8.2438954647601481e-02 -5.8883937291896359e-02 0.0000000000000000e+00 0.0000000000000000e+00 0.0000000000000000e+00 0.0000000000000000e+00  -3.2162284401408170e-01 -1.2300484314941037e-02 0.0000000000000000e+00 -1.2300484314941037e-02 -4.2422239486389718e-01 0.0000000000000000e+00 0.0000000000000000e+00 0.0000000000000000e+00 0.0000000000000000e+00  -3.6537527884746651e-01 6.1294803460375163e-02 0.0000000000000000e+00 6.1294803460375163e-02 -6.8395028440099193e-01 0.0000000000000000e+00 0.0000000000000000e+00 0.0000000000000000e+00 0.0000000000000000e+00  -2.2484177661273644e-01 4.2056291132098467e-02 0.0000000000000000e+00 4.2056291132098467e-02 -5.3870860441651103e-01 0.0000000000000000e+00 0.0000000000000000e+00 0.0000000000000000e+00 0.0000000000000000e+00  -6.7915296059852581e-02 5.9658905820430316e-03 0.0000000000000000e+00 5.9658905820430316e-03 -2.5861124315459227e-01 0.0000000000000000e+00 0.0000000000000000e+00 0.0000000000000000e+00 0.0000000000000000e+00  4.3014727653499944e-02 -1.6988103613233885e-02 0.0000000000000000e+00 -1.6988103613233885e-02 -7.5631729810338680e-02 0.0000000000000000e+00 0.0000000000000000e+00 0.0000000000000000e+00 0.0000000000000000e+00  1.0282787218556794e-01 -2.3772860136383477e-02 0.0000000000000000e+00 -2.3772860136383477e-02 3.2039505361104730e-03 0.0000000000000000e+00 0.0000000000000000e+00 0.0000000000000000e+00 0.0000000000000000e+00  1.2576311337399176e-01 -1.8055823494881731e-02 0.0000000000000000e+00 -1.8055823494881731e-02 2.6798494786379808e-02 0.0000000000000000e+00 0.0000000000000000e+00 0.0000000000000000e+00 0.0000000000000000e+00  1.3186469345650184e-01 -4.5319379625616109e-03 0.0000000000000000e+00 -4.5319379625616109e-03 2.9945645364240218e-02 0.0000000000000000e+00 0.0000000000000000e+00 0.0000000000000000e+00 0.0000000000000000e+00  1.3228708627797084e-01 1.1373799035066211e-02 0.0000000000000000e+00 1.1373799035066211e-02 2.9967820705691987e-02 0.0000000000000000e+00 0.0000000000000000e+00 0.0000000000000000e+00 0.0000000000000000e+00  1.2586699781493818e-01 2.3780563751783113e-02 0.0000000000000000e+00 2.3780563751783113e-02 2.5176198081655044e-02 0.0000000000000000e+00 0.0000000000000000e+00 0.0000000000000000e+00 0.0000000000000000e+00  9.9387012212221404e-02 2.7320476218543506e-02 0.0000000000000000e+00 2.7320476218543506e-02 -4.7978419714752168e-03 0.0000000000000000e+00 0.0000000000000000e+00 0.0000000000000000e+00 0.0000000000000000e+00  3.2232064012907596e-02 1.7249769814387358e-02 0.0000000000000000e+00 1.7249769814387358e-02 -9.8035923341166856e-02 0.0000000000000000e+00 0.0000000000000000e+00 0.0000000000000000e+00 0.0000000000000000e+00  -8.6966920740458309e-02 -9.3432395633311037e-03 0.0000000000000000e+00 -9.3432395633311037e-03 -3.0252453128459722e-01 0.0000000000000000e+00 0.0000000000000000e+00 0.0000000000000000e+00 0.0000000000000000e+00  -2.4852679693472055e-01 -4.7461701771867058e-02 0.0000000000000000e+00 -4.7461701771867058e-02 -5.8342995540925435e-01 0.0000000000000000e+00 0.0000000000000000e+00 0.0000000000000000e+00 0.0000000000000000e+00  -3.6730847909574788e-01 -5.5399041062688323e-02 0.0000000000000000e+00 -5.5399041062688323e-02 -6.6497745493670501e-01 0.0000000000000000e+00 0.0000000000000000e+00 0.0000000000000000e+00 0.0000000000000000e+00  -2.8963386961021298e-01 3.1497184894901012e-02 0.0000000000000000e+00 3.1497184894901012e-02 -3.4977584534624878e-01 0.0000000000000000e+00 0.0000000000000000e+00 0.0000000000000000e+00 0.0000000000000000e+00  -1.1804153477142509e-01 7.9538604032826477e-02 0.0000000000000000e+00 7.9538604032826477e-02 -1.1099674623843474e-02 0.0000000000000000e+00 0.0000000000000000e+00 0.0000000000000000e+00 0.0000000000000000e+00  6.4644930898819942e-03 -1.1556352412097001e-02 0.0000000000000000e+00 -1.1556352412097001e-02 7.1846126462475957e-02 0.0000000000000000e+00 0.0000000000000000e+00 0.0000000000000000e+00 0.0000000000000000e+00  6.1570609768447906e-03 -2.3185226094449937e-02 0.0000000000000000e+00 -2.3185226094449937e-02 7.0108624682268814e-03 0.0000000000000000e+00 0.0000000000000000e+00 0.0000000000000000e+00 0.0000000000000000e+00  -1.8784800222906967e-03 7.9040139836079222e-03 0.0000000000000000e+00 7.9040139836079222e-03 1.8456498220349208e-03 0.0000000000000000e+00 0.0000000000000000e+00 0.0000000000000000e+00 0.0000000000000000e+00  9.5080200121900604e-03 -2.9386412430028812e-04 0.0000000000000000e+00 -2.9386412430028812e-04 1.2376748061796365e-02 0.0000000000000000e+00 0.0000000000000000e+00 0.0000000000000000e+00 0.0000000000000000e+00  7.9069028574675695e-03 -1.3239440335834926e-03 0.0000000000000000e+00 -1.3239440335834924e-03 6.7630589627969452e-03 0.0000000000000000e+00 0.0000000000000000e+00 0.0000000000000000e+00 0.0000000000000000e+00  7.1140151374775081e-03 8.8262225525326764e-04 0.0000000000000000e+00 8.8262225525326742e-04 7.4452881045254686e-03 0.0000000000000000e+00 0.0000000000000000e+00 0.0000000000000000e+00 0.0000000000000000e+00  7.8391071181820732e-03 -3.3778863898434601e-04 0.0000000000000000e+00 -3.3778863898434601e-04 7.7290383726591914e-03 0.0000000000000000e+00 0.0000000000000000e+00 0.0000000000000000e+00 0.0000000000000000e+00  7.3879875790349193e-03 1.2632314488783230e-04 0.0000000000000000e+00 1.2632314488783230e-04 7.3801106319389131e-03 0.0000000000000000e+00 0.0000000000000000e+00 0.0000000000000000e+00 0.0000000000000000e+00  7.5425196548085513e-03 -1.6378296776080346e-05 0.0000000000000000e+00 -1.6378296776080346e-05 7.5535552357879586e-03 0.0000000000000000e+00 0.0000000000000000e+00 0.0000000000000000e+00 0.0000000000000000e+00  7.4875964952293801e-03 2.2219722747101532e-05 0.0000000000000000e+00 2.2219722747101532e-05 7.5043822377276114e-03 0.0000000000000000e+00 0.0000000000000000e+00 0.0000000000000000e+00 0.0000000000000000e+00  7.5089989195590550e-03 7.9304859287198699e-06 0.0000000000000000e+00 7.9304859287198699e-06 7.5347538823948516e-03 0.0000000000000000e+00 0.0000000000000000e+00 0.0000000000000000e+00 0.0000000000000000e+00  7.5052985928480889e-03 8.1059023124169813e-06 0.0000000000000000e+00 8.1059023124169813e-06 7.5360707309028632e-03 0.0000000000000000e+00 0.0000000000000000e+00 0.0000000000000000e+00 0.0000000000000000e+00  7.5087016809665535e-03 5.7397045660434495e-06 0.0000000000000000e+00 5.7397045660434487e-06 7.5440071726442714e-03 0.0000000000000000e+00 0.0000000000000000e+00 0.0000000000000000e+00 0.0000000000000000e+00  7.5095131613400314e-03 5.7542075706087008e-06 0.0000000000000000e+00 5.7542075706087025e-06 7.5473173278042451e-03 0.0000000000000000e+00 0.0000000000000000e+00 0.0000000000000000e+00 0.0000000000000000e+00  7.5110688859696042e-03 6.6621606804969542e-06 0.0000000000000000e+00 6.6621606804969542e-06 7.5488958200405258e-03 0.0000000000000000e+00 0.0000000000000000e+00 0.0000000000000000e+00 0.0000000000000000e+00  7.5127115185702814e-03 8.6571938420185206e-06 0.0000000000000000e+00 8.6571938420185206e-06 7.5474777175451556e-03 0.0000000000000000e+00 0.0000000000000000e+00 0.0000000000000000e+00 0.0000000000000000e+00  7.5149152038516799e-03 1.1303413629620820e-05 0.0000000000000000e+00 1.1303413629620820e-05 7.5429662364078272e-03 0.0000000000000000e+00 0.0000000000000000e+00 0.0000000000000000e+00 0.0000000000000000e+00  7.5178836996480048e-03 1.4338081700476473e-05 0.0000000000000000e+00 1.4338081700476473e-05 7.5348363071642086e-03 0.0000000000000000e+00 0.0000000000000000e+00 0.0000000000000000e+00 0.0000000000000000e+00  7.5220491482152901e-03 1.7562805620122871e-05 0.0000000000000000e+00 1.7562805620122871e-05 7.5224212761170420e-03 0.0000000000000000e+00 0.0000000000000000e+00 0.0000000000000000e+00 0.0000000000000000e+00  7.5774014399979670e-03 -1.4003119239574975e-05 0.0000000000000000e+00 -1.4003119239574975e-05 7.5778118718989162e-03 0.0000000000000000e+00 0.0000000000000000e+00 0.0000000000000000e+00 0.0000000000000000e+00  7.5729777654605325e-03 -1.1851073485846855e-05 0.0000000000000000e+00 -1.1851073485846855e-05 7.5909371713431704e-03 0.0000000000000000e+00 0.0000000000000000e+00 0.0000000000000000e+00 0.0000000000000000e+00  7.5696462075788336e-03 -9.4928092259838973e-06 0.0000000000000000e+00 -9.4928092259838973e-06 7.5995440884041813e-03 0.0000000000000000e+00 0.0000000000000000e+00 0.0000000000000000e+00 0.0000000000000000e+00  7.5668028144853881e-03 -7.2734764658934169e-06 0.0000000000000000e+00 -7.2734764658934169e-06 7.6046077595026337e-03 0.0000000000000000e+00 0.0000000000000000e+00 0.0000000000000000e+00 0.0000000000000000e+00  7.5640979022968497e-03 -5.5908702720519823e-06 0.0000000000000000e+00 -5.5908702720519823e-06 7.6065824061907822e-03 0.0000000000000000e+00 0.0000000000000000e+00 0.0000000000000000e+00 0.0000000000000000e+00  7.5613832966629291e-03 -4.7021777395456488e-06 0.0000000000000000e+00 -4.7021777395456488e-06 7.6057750667498378e-03 0.0000000000000000e+00 0.0000000000000000e+00 0.0000000000000000e+00 0.0000000000000000e+00  7.5581912486568630e-03 -4.9778193581671646e-06 0.0000000000000000e+00 -4.9778193581671646e-06 7.6020663679499684e-03 0.0000000000000000e+00 0.0000000000000000e+00 0.0000000000000000e+00 0.0000000000000000e+00  7.5552282966888998e-03 -6.0466845392807965e-06 0.0000000000000000e+00 -6.0466845392807965e-06 7.5962904246398028e-03 0.0000000000000000e+00 0.0000000000000000e+00 0.0000000000000000e+00 0.0000000000000000e+00  7.5496974893873017e-03 -1.0012999804370945e-05 0.0000000000000000e+00 -1.0012999804370945e-05 7.5858864903039216e-03 0.0000000000000000e+00 0.0000000000000000e+00 0.0000000000000000e+00 0.0000000000000000e+00  7.5494520805357663e-03 -1.0232004873244638e-05 0.0000000000000000e+00 -1.0232004873244638e-05 7.5787561204739787e-03 0.0000000000000000e+00 0.0000000000000000e+00 0.0000000000000000e+00 0.0000000000000000e+00  7.5333517599637471e-03 -2.9613465225736308e-05 0.0000000000000000e+00 -2.9613465225736308e-05 7.5556362234487605e-03 0.0000000000000000e+00 0.0000000000000000e+00 0.0000000000000000e+00 0.0000000000000000e+00  7.5627582190143138e-03 1.2157716328699784e-05 0.0000000000000000e+00 1.2157716328699784e-05 7.5636615975152380e-03 0.0000000000000000e+00 0.0000000000000000e+00 0.0000000000000000e+00 0.0000000000000000e+00  7.5449518697042767e-03 -1.0943138778412814e-04 0.0000000000000000e+00 -1.0943138778412814e-04 7.6211644705004812e-03 0.0000000000000000e+00 0.0000000000000000e+00 0.0000000000000000e+00 0.0000000000000000e+00  7.6464157723927081e-03 1.3449770947812956e-04 0.0000000000000000e+00 1.3449770947812956e-04 7.4829878327198184e-03 0.0000000000000000e+00 0.0000000000000000e+00 0.0000000000000000e+00 0.0000000000000000e+00  7.7610763517737182e-03 -1.3504768140905991e-04 0.0000000000000000e+00 -1.3504768140905991e-04 7.9528110859466688e-03 0.0000000000000000e+00 0.0000000000000000e+00 0.0000000000000000e+00 0.0000000000000000e+00  7.3492838319500122e-03 -4.8684060627283125e-04 0.0000000000000000e+00 -4.8684060627283125e-04 7.1067666881256932e-03 0.0000000000000000e+00 0.0000000000000000e+00 0.0000000000000000e+00 0.0000000000000000e+00  8.4812920401664150e-03 1.4784534585576671e-03 0.0000000000000000e+00 1.4784534585576671e-03 8.1672088301515070e-03 0.0000000000000000e+00 0.0000000000000000e+00 0.0000000000000000e+00 0.0000000000000000e+00  7.5045189610986303e-03 -1.4574444316001133e-03 0.0000000000000000e+00 -1.4574444316001133e-03 1.0130317989539946e-02 0.0000000000000000e+00 0.0000000000000000e+00 0.0000000000000000e+00 0.0000000000000000e+00  5.9041866764520983e-05 -3.4280649133955413e-03 0.0000000000000000e+00 -3.4280649133955404e-03 3.3204129284714170e-03 0.0000000000000000e+00 0.0000000000000000e+00 0.0000000000000000e+00 0.0000000000000000e+00  4.7616119057891491e-04 1.0156336645624918e-02 0.0000000000000000e+00 1.0156336645624918e-02 4.9792413217347332e-03 0.0000000000000000e+00 0.0000000000000000e+00 0.0000000000000000e+00 0.0000000000000000e+00  4.2964382935473258e-03 1.4706101087547356e-02 0.0000000000000000e+00 1.4706101087547356e-02 3.2447767696843287e-02 0.0000000000000000e+00 0.0000000000000000e+00 0.0000000000000000e+00 0.0000000000000000e+00  -3.5543432398371058e-02 -2.2976522123499231e-02 0.0000000000000000e+00 -2.2976522123499231e-02 3.5587589192468752e-02 0.0000000000000000e+00 0.0000000000000000e+00 0.0000000000000000e+00 0.0000000000000000e+00  -1.5118260365416616e-01 -5.2162472532272297e-02 0.0000000000000000e+00 -5.2162472532272297e-02 -6.4787384580290167e-02 0.0000000000000000e+00 0.0000000000000000e+00 0.0000000000000000e+00 0.0000000000000000e+00  -2.7999758740997333e-01 -3.0994113748299537e-02 0.0000000000000000e+00 -3.0994113748299537e-02 -2.1882117647050264e-01 0.0000000000000000e+00 0.0000000000000000e+00 0.0000000000000000e+00 0.0000000000000000e+00  -3.7635057131876493e-01 -7.5178715322939058e-03 0.0000000000000000e+00 -7.5178715322939058e-03 -3.6428008069054191e-01 0.0000000000000000e+00 0.0000000000000000e+00 0.0000000000000000e+00 0.0000000000000000e+00  -4.3847496728183261e-01 2.8413719681467989e-03 0.0000000000000000e+00 2.8413719681467989e-03 -4.8199220216577793e-01 0.0000000000000000e+00 0.0000000000000000e+00 0.0000000000000000e+00 0.0000000000000000e+00  -4.7624720867727821e-01 4.4816919521970238e-03 0.0000000000000000e+00 4.4816919521970238e-03 -5.6634888710034936e-01 0.0000000000000000e+00 0.0000000000000000e+00 0.0000000000000000e+00 0.0000000000000000e+00  -4.9505322850368738e-01 1.5320872498118293e-03 0.0000000000000000e+00 1.5320872498118293e-03 -6.1203874788855017e-01 0.0000000000000000e+00 0.0000000000000000e+00 0.0000000000000000e+00 0.0000000000000000e+00  -4.9722650446422789e-01 -3.0885445844381016e-03 0.0000000000000000e+00 -3.0885445844381016e-03 -6.1636404685765989e-01 0.0000000000000000e+00 0.0000000000000000e+00 0.0000000000000000e+00 0.0000000000000000e+00  -4.8298048610904054e-01 -6.5984186195857343e-03 0.0000000000000000e+00 -6.5984186195857343e-03 -5.7917732299747759e-01 0.0000000000000000e+00 0.0000000000000000e+00 0.0000000000000000e+00 0.0000000000000000e+00  -4.5019865391145114e-01 -6.0339452463899976e-03 0.0000000000000000e+00 -6.0339452463899976e-03 -5.0274644183545114e-01 0.0000000000000000e+00 0.0000000000000000e+00 0.0000000000000000e+00 0.0000000000000000e+00  -3.9420321052868323e-01 2.5350794601632868e-03 0.0000000000000000e+00 2.5350794601632868e-03 -3.9166269413695215e-01 0.0000000000000000e+00 0.0000000000000000e+00 0.0000000000000000e+00 0.0000000000000000e+00  -3.0520892408652023e-01 2.4041407705498823e-02 0.0000000000000000e+00 2.4041407705498823e-02 -2.5081984008158459e-01 0.0000000000000000e+00 0.0000000000000000e+00 0.0000000000000000e+00 0.0000000000000000e+00  -1.8054607532356598e-01 4.9722556465557476e-02 0.0000000000000000e+00 4.9722556465557476e-02 -9.5265937522275093e-02 0.0000000000000000e+00 0.0000000000000000e+00 0.0000000000000000e+00 0.0000000000000000e+00  -5.6982485007289460e-02 3.1818938783465915e-02 0.0000000000000000e+00 3.1818938783465915e-02 2.1732544176013637e-02 0.0000000000000000e+00 0.0000000000000000e+00 0.0000000000000000e+00 0.0000000000000000e+00  -1.7709955942780855e-03 -1.2185763699792677e-02 0.0000000000000000e+00 -1.2185763699792677e-02 3.5026254570668609e-02 0.0000000000000000e+00 0.0000000000000000e+00 0.0000000000000000e+00 0.0000000000000000e+00  -2.2400892972165454e-03 -1.3066227366437195e-02 0.0000000000000000e+00 -1.3066227366437195e-02 3.9609903295938160e-03 0.0000000000000000e+00 0.0000000000000000e+00 0.0000000000000000e+00 0.0000000000000000e+00  -4.4006454808298108e-03 1.6972370573489547e-03 0.0000000000000000e+00 1.6972370573489547e-03 -1.0003205543824105e-03 0.0000000000000000e+00 0.0000000000000000e+00 0.0000000000000000e+00 0.0000000000000000e+00  1.5638232053893164e-03 2.4566188543550692e-03 0.0000000000000000e+00 2.4566188543550692e-03 5.3630161780669188e-03 0.0000000000000000e+00 0.0000000000000000e+00 0.0000000000000000e+00 0.0000000000000000e+00  4.0322446452002361e-03 -1.5252722676142630e-03 0.0000000000000000e+00 -1.5252722676142630e-03 4.2358889376932305e-03 0.0000000000000000e+00 0.0000000000000000e+00 0.0000000000000000e+00 0.0000000000000000e+00  2.3030782579778575e-03 -1.3898564707070068e-04 0.0000000000000000e+00 -1.3898564707070068e-04 1.9963869589450303e-03 0.0000000000000000e+00 0.0000000000000000e+00 0.0000000000000000e+00 0.0000000000000000e+00  2.5407208357675621e-03 2.9967142245127031e-04 0.0000000000000000e+00 2.9967142245127031e-04 2.8866329011328052e-03 0.0000000000000000e+00 0.0000000000000000e+00 0.0000000000000000e+00 0.0000000000000000e+00  2.7582479048183870e-03 -2.2951099593355602e-04 0.0000000000000000e+00 -2.2951099593355602e-04 2.6741492409401908e-03 0.0000000000000000e+00 0.0000000000000000e+00 0.0000000000000000e+00 0.0000000000000000e+00  2.4950890307755130e-03 4.2478879715445979e-05 0.0000000000000000e+00 4.2478879715445979e-05 2.4856459691461720e-03 0.0000000000000000e+00 0.0000000000000000e+00 0.0000000000000000e+00 0.0000000000000000e+00  2.5726872148922951e-03 -3.6290957572027937e-05 0.0000000000000000e+00 -3.6290957572027937e-05 2.5421579150068157e-03 0.0000000000000000e+00 0.0000000000000000e+00 0.0000000000000000e+00 0.0000000000000000e+00  2.5207360183325022e-03 -4.0734050030760283e-06 0.0000000000000000e+00 -4.0734050030760283e-06 2.4830854066508431e-03 0.0000000000000000e+00 0.0000000000000000e+00 0.0000000000000000e+00 0.0000000000000000e+00  2.5300522521559785e-03 -8.4328156654383685e-07 0.0000000000000000e+00 -8.4328156654383685e-07 2.4851488784309993e-03 0.0000000000000000e+00 0.0000000000000000e+00 0.0000000000000000e+00 0.0000000000000000e+00  2.5253257838117179e-03 2.0957471694354520e-06 0.0000000000000000e+00 2.0957471694354520e-06 2.4668334106871317e-03 0.0000000000000000e+00 0.0000000000000000e+00 0.0000000000000000e+00 0.0000000000000000e+00  2.5263601206688235e-03 2.9766830086613557e-06 0.0000000000000000e+00 2.9766830086613557e-06 2.4579374597781989e-03 0.0000000000000000e+00 0.0000000000000000e+00 0.0000000000000000e+00 0.0000000000000000e+00  2.5261162687102759e-03 1.2431721052668598e-06 0.0000000000000000e+00 1.2431721052668598e-06 2.4509044503373176e-03 0.0000000000000000e+00 0.0000000000000000e+00 0.0000000000000000e+00 0.0000000000000000e+00  2.5260982621648199e-03 -1.2582703175587960e-06 0.0000000000000000e+00 -1.2582703175587958e-06 2.4488929477623914e-03 0.0000000000000000e+00 0.0000000000000000e+00 0.0000000000000000e+00 0.0000000000000000e+00  2.5255216119345072e-03 -3.6429261960211505e-06 0.0000000000000000e+00 -3.6429261960211505e-06 2.4511743111318095e-03 0.0000000000000000e+00 0.0000000000000000e+00 0.0000000000000000e+00 0.0000000000000000e+00  2.5254487220654456e-03 -5.0446953301560243e-06 0.0000000000000000e+00 -5.0446953301560243e-06 2.4579693850385431e-03 0.0000000000000000e+00 0.0000000000000000e+00 0.0000000000000000e+00 0.0000000000000000e+00  2.5246967942445259e-03 -4.2241543155273243e-06 0.0000000000000000e+00 -4.2241543155273243e-06 2.4664518478567004e-03 0.0000000000000000e+00 0.0000000000000000e+00 0.0000000000000000e+00 0.0000000000000000e+00  2.5298280041136374e-03 -9.5158519128125251e-07 0.0000000000000000e+00 -9.5158519128125272e-07 2.4828225197013301e-03 0.0000000000000000e+00 0.0000000000000000e+00 0.0000000000000000e+00 0.0000000000000000e+00  2.5249071874458048e-03 1.8364419668990320e-07 0.0000000000000000e+00 1.8364419668990383e-07 2.4852180017696894e-03 0.0000000000000000e+00 0.0000000000000000e+00 0.0000000000000000e+00 0.0000000000000000e+00  2.5770389046170230e-03 4.1660035430526322e-05 0.0000000000000000e+00 4.1660035430526322e-05 2.5391199533841445e-03 0.0000000000000000e+00 0.0000000000000000e+00 0.0000000000000000e+00 0.0000000000000000e+00  2.5616265892508374e-03 -5.6936165916759185e-05 0.0000000000000000e+00 -5.6936165916759171e-05 2.5840315439101627e-03 0.0000000000000000e+00 0.0000000000000000e+00 0.0000000000000000e+00 0.0000000000000000e+00  2.8086023360120393e-03 2.3150512277969544e-04 0.0000000000000000e+00 2.3150512277969539e-04 2.7190080561871987e-03 0.0000000000000000e+00 0.0000000000000000e+00 0.0000000000000000e+00 0.0000000000000000e+00  2.6677371828620925e-03 -1.8168843285253875e-04 0.0000000000000000e+00 -1.8168843285253875e-04 2.9238066427489792e-03 0.0000000000000000e+00 0.0000000000000000e+00 0.0000000000000000e+00 0.0000000000000000e+00  2.6111680816263043e-03 -5.1111604423004010e-05 0.0000000000000000e+00 -5.1111604423004030e-05 2.3303967103968388e-03 0.0000000000000000e+00 0.0000000000000000e+00 0.0000000000000000e+00 0.0000000000000000e+00  3.8843120045067422e-03 1.6329126104455110e-03 0.0000000000000000e+00 1.6329126104455110e-03 4.2579876684290825e-03 0.0000000000000000e+00 0.0000000000000000e+00 0.0000000000000000e+00 0.0000000000000000e+00  1.5018353078104405e-03 -2.4069270310154698e-03 0.0000000000000000e+00 -2.4069270310154698e-03 5.1073182132413070e-03 0.0000000000000000e+00 0.0000000000000000e+00 0.0000000000000000e+00 0.0000000000000000e+00  -5.6455692829785386e-03 -1.3934057584042438e-03 0.0000000000000000e+00 -1.3934057584042438e-03 -2.2763630874457451e-03 0.0000000000000000e+00 0.0000000000000000e+00 0.0000000000000000e+00 0.0000000000000000e+00  -3.1436071230490190e-03 1.3116176542301948e-02 0.0000000000000000e+00 1.3116176542301948e-02 4.1703445178442504e-03 0.0000000000000000e+00 0.0000000000000000e+00 0.0000000000000000e+00 0.0000000000000000e+00  -1.5544962309477950e-03 1.2074773934558814e-02 0.0000000000000000e+00 1.2074773934558814e-02 3.5040791033594476e-02 0.0000000000000000e+00 0.0000000000000000e+00 0.0000000000000000e+00 0.0000000000000000e+00  -5.6111316982397068e-02 -3.1609967564356876e-02 0.0000000000000000e+00 -3.1609967564356883e-02 2.2127483016771837e-02 0.0000000000000000e+00 0.0000000000000000e+00 0.0000000000000000e+00 0.0000000000000000e+00  -1.8003695562771804e-01 -4.9510681454081454e-02 0.0000000000000000e+00 -4.9510681454081454e-02 -9.4716258744507106e-02 0.0000000000000000e+00 0.0000000000000000e+00 0.0000000000000000e+00 0.0000000000000000e+00  -3.0485461627028093e-01 -2.3907695256597875e-02 0.0000000000000000e+00 -2.3907695256597875e-02 -2.5033304593204958e-01 0.0000000000000000e+00 0.0000000000000000e+00 0.0000000000000000e+00 0.0000000000000000e+00  -3.9374939205221754e-01 -2.4797283186861448e-03 0.0000000000000000e+00 -2.4797283186861448e-03 -3.9099758775721616e-01 0.0000000000000000e+00 0.0000000000000000e+00 0.0000000000000000e+00 0.0000000000000000e+00  -4.4973892019247735e-01 5.9610074130979551e-03 0.0000000000000000e+00 5.9610074130979551e-03 -5.0237906664423060e-01 0.0000000000000000e+00 0.0000000000000000e+00 0.0000000000000000e+00 0.0000000000000000e+00  -4.8252389162487047e-01 6.6134846166860288e-03 0.0000000000000000e+00 6.6134846166860288e-03 -5.7934170702612120e-01 0.0000000000000000e+00 0.0000000000000000e+00 0.0000000000000000e+00 0.0000000000000000e+00  -4.9698573326498990e-01 3.2047070304974646e-03 0.0000000000000000e+00 3.2047070304974646e-03 -6.1693991272984683e-01 0.0000000000000000e+00 0.0000000000000000e+00 0.0000000000000000e+00 0.0000000000000000e+00  -4.9509010299693235e-01 -1.4769508701227543e-03 0.0000000000000000e+00 -1.4769508701227543e-03 -6.1301966232695448e-01 0.0000000000000000e+00 0.0000000000000000e+00 0.0000000000000000e+00 0.0000000000000000e+00  -4.7646107127569659e-01 -4.5474887435009229e-03 0.0000000000000000e+00 -4.5474887435009229e-03 -5.6762671009138266e-01 0.0000000000000000e+00 0.0000000000000000e+00 0.0000000000000000e+00 0.0000000000000000e+00  -4.3883162799867975e-01 -2.9309518183277938e-03 0.0000000000000000e+00 -2.9309518183277938e-03 -4.8351177639979659e-01 0.0000000000000000e+00 0.0000000000000000e+00 0.0000000000000000e+00 0.0000000000000000e+00  -3.7706011792674210e-01 7.4336651697639146e-03 0.0000000000000000e+00 7.4336651697639146e-03 -3.6577515041046860e-01 0.0000000000000000e+00 0.0000000000000000e+00 0.0000000000000000e+00 0.0000000000000000e+00  -2.8087632691681119e-01 3.0814671470358799e-02 0.0000000000000000e+00 3.0814671470358799e-02 -2.2004111896669970e-01 0.0000000000000000e+00 0.0000000000000000e+00 0.0000000000000000e+00 0.0000000000000000e+00  -1.5239172863482978e-01 5.2271677393920232e-02 0.0000000000000000e+00 5.2271677393920232e-02 -6.5970595459118639e-02 0.0000000000000000e+00 0.0000000000000000e+00 0.0000000000000000e+00 0.0000000000000000e+00  -3.6737306280292918e-02 2.3442065494267549e-02 0.0000000000000000e+00 2.3442065494267549e-02 3.5048066799722742e-02 0.0000000000000000e+00 0.0000000000000000e+00 0.0000000000000000e+00 0.0000000000000000e+00  4.3912431391134954e-03 -1.4859401443249017e-02 0.0000000000000000e+00 -1.4859401443249017e-02 3.3001827710222711e-02 0.0000000000000000e+00 0.0000000000000000e+00 0.0000000000000000e+00 0.0000000000000000e+00  1.3240003934282250e-03 -1.0283339774421451e-02 0.0000000000000000e+00 -1.0283339774421451e-02 5.0243570755063739e-03 0.0000000000000000e+00 0.0000000000000000e+00 0.0000000000000000e+00 0.0000000000000000e+00  8.5185304782587311e-04 3.5652496012532095e-03 0.0000000000000000e+00 3.5652496012532095e-03 4.1419538995231498e-03 0.0000000000000000e+00 0.0000000000000000e+00 0.0000000000000000e+00 0.0000000000000000e+00  7.6845390431288562e-03 1.5341436186558156e-03 0.0000000000000000e+00 1.5341436186558156e-03 1.0595282958365794e-02 0.0000000000000000e+00 0.0000000000000000e+00 0.0000000000000000e+00 0.0000000000000000e+00  8.5655397458745276e-03 -1.3538008402185974e-03 0.0000000000000000e+00 -1.3538008402185974e-03 8.0284361952643463e-03 0.0000000000000000e+00 0.0000000000000000e+00 0.0000000000000000e+00 0.0000000000000000e+00  7.0843707941884021e-03 3.7500364931593549e-04 0.0000000000000000e+00 3.7500364931593549e-04 6.8899081627205403e-03 0.0000000000000000e+00 0.0000000000000000e+00 0.0000000000000000e+00 0.0000000000000000e+00  7.5986732513058670e-03 1.6921105140834994e-04 0.0000000000000000e+00 1.6921105140834994e-04 7.8079483410373992e-03 0.0000000000000000e+00 0.0000000000000000e+00 0.0000000000000000e+00 0.0000000000000000e+00  7.5714530612613472e-03 -9.9749202837114208e-05 0.0000000000000000e+00 -9.9749202837114180e-05 7.4826320199422357e-03 0.0000000000000000e+00 0.0000000000000000e+00 0.0000000000000000e+00 0.0000000000000000e+00  7.4428959977453262e-03 8.9587138680605798e-05 0.0000000000000000e+00 8.9587138680605798e-05 7.4661298243698469e-03 0.0000000000000000e+00 0.0000000000000000e+00 0.0000000000000000e+00 0.0000000000000000e+00  7.5062540901488645e-03 -1.5194663765259576e-05 0.0000000000000000e+00 -1.5194663765259576e-05 7.5119358095367067e-03 0.0000000000000000e+00 0.0000000000000000e+00 0.0000000000000000e+00 0.0000000000000000e+00  7.4710824471435709e-03 1.9810288547779900e-05 0.0000000000000000e+00 1.9810288547779900e-05 7.5000109427525701e-03 0.0000000000000000e+00 0.0000000000000000e+00 0.0000000000000000e+00 0.0000000000000000e+00  7.4910612227305296e-03 5.6212438589527225e-06 0.0000000000000000e+00 5.6212438589527225e-06 7.5267659834414337e-03 0.0000000000000000e+00 0.0000000000000000e+00 0.0000000000000000e+00 0.0000000000000000e+00  7.4919719717131397e-03 6.8481692306435666e-06 0.0000000000000000e+00 6.8481692306435666e-06 7.5310720988764441e-03 0.0000000000000000e+00 0.0000000000000000e+00 0.0000000000000000e+00 0.0000000000000000e+00  7.4983034931846177e-03 4.1997320236486295e-06 0.0000000000000000e+00 4.1997320236486295e-06 7.5398250694093481e-03 0.0000000000000000e+00 0.0000000000000000e+00 0.0000000000000000e+00 0.0000000000000000e+00  7.5014858346745990e-03 3.5838181002783337e-06 0.0000000000000000e+00 3.5838181002783337e-06 7.5441304610898230e-03 0.0000000000000000e+00 0.0000000000000000e+00 0.0000000000000000e+00 0.0000000000000000e+00  7.5046227442668850e-03 3.6093718580024118e-06 0.0000000000000000e+00 3.6093718580024118e-06 7.5470333859433284e-03 0.0000000000000000e+00 0.0000000000000000e+00 0.0000000000000000e+00 0.0000000000000000e+00  7.5071734808874850e-03 4.6575373903069903e-06 0.0000000000000000e+00 4.6575373903069903e-06 7.5474125478879432e-03 0.0000000000000000e+00 0.0000000000000000e+00 0.0000000000000000e+00 0.0000000000000000e+00  7.5096840564413507e-03 6.4135951308510519e-06 0.0000000000000000e+00 6.4135951308510519e-06 7.5453268559916237e-03 0.0000000000000000e+00 0.0000000000000000e+00 0.0000000000000000e+00 0.0000000000000000e+00  7.5123355460138264e-03 8.6055191987804634e-06 0.0000000000000000e+00 8.6055191987804634e-06 7.5404163270901912e-03 0.0000000000000000e+00 0.0000000000000000e+00 0.0000000000000000e+00 0.0000000000000000e+00  7.5154616863992510e-03 1.0814647173084905e-05 0.0000000000000000e+00 1.0814647173084905e-05 7.5322538219813120e-03 0.0000000000000000e+00 0.0000000000000000e+00 0.0000000000000000e+00 0.0000000000000000e+00  7.5195985134444959e-03 1.2643360771052925e-05 0.0000000000000000e+00 1.2643360771052925e-05 7.5199712395915864e-03 0.0000000000000000e+00 0.0000000000000000e+00 0.0000000000000000e+00 0.0000000000000000e+00  7.5764354498191119e-03 -8.8991726087987063e-06 0.0000000000000000e+00 -8.8991726087987063e-06 7.5768200932954137e-03 0.0000000000000000e+00 0.0000000000000000e+00 0.0000000000000000e+00 0.0000000000000000e+00  7.5722678720444693e-03 -8.1407458804287980e-06 0.0000000000000000e+00 -8.1407458804287980e-06 7.5891134039291503e-03 0.0000000000000000e+00 0.0000000000000000e+00 0.0000000000000000e+00 0.0000000000000000e+00  7.5689056893081088e-03 -6.3351893925884723e-06 0.0000000000000000e+00 -6.3351893925884723e-06 7.5973755407633282e-03 0.0000000000000000e+00 0.0000000000000000e+00 0.0000000000000000e+00 0.0000000000000000e+00  7.5656776604623062e-03 -4.2446225624242774e-06 0.0000000000000000e+00 -4.2446225624242774e-06 7.6026177245559620e-03 0.0000000000000000e+00 0.0000000000000000e+00 0.0000000000000000e+00 0.0000000000000000e+00  7.5622731473864412e-03 -2.4065821346175998e-06 0.0000000000000000e+00 -2.4065821346175998e-06 7.6051840864954775e-03 0.0000000000000000e+00 0.0000000000000000e+00 0.0000000000000000e+00 0.0000000000000000e+00  7.5584064653734804e-03 -1.1684674195871800e-06 0.0000000000000000e+00 -1.1684674195871800e-06 7.6051606231880651e-03 0.0000000000000000e+00 0.0000000000000000e+00 0.0000000000000000e+00 0.0000000000000000e+00  7.5538657297478922e-03 -6.8748617914570156e-07 0.0000000000000000e+00 -6.8748617914570156e-07 7.6026558592733277e-03 0.0000000000000000e+00 0.0000000000000000e+00 0.0000000000000000e+00 0.0000000000000000e+00  7.5480860291782638e-03 -1.2823855319242442e-06 0.0000000000000000e+00 -1.2823855319242442e-06 7.5974608422583858e-03 0.0000000000000000e+00 0.0000000000000000e+00 0.0000000000000000e+00 0.0000000000000000e+00  7.5413419749061203e-03 -2.4453487026212948e-06 0.0000000000000000e+00 -2.4453487026212948e-06 7.5902378210789996e-03 0.0000000000000000e+00 0.0000000000000000e+00 0.0000000000000000e+00 0.0000000000000000e+00  7.5313481941919657e-03 -6.1703219916234237e-06 0.0000000000000000e+00 -6.1703219916234237e-06 7.5789547526744121e-03 0.0000000000000000e+00 0.0000000000000000e+00 0.0000000000000000e+00 0.0000000000000000e+00  7.5221553051481888e-03 -5.5918090119787755e-06 0.0000000000000000e+00 -5.5918090119787755e-06 7.5687871155971660e-03 0.0000000000000000e+00 0.0000000000000000e+00 0.0000000000000000e+00 0.0000000000000000e+00  7.5075217740312155e-03 -1.6963992055749446e-05 0.0000000000000000e+00 -1.6963992055749446e-05 7.5452540881502019e-03 0.0000000000000000e+00 0.0000000000000000e+00 0.0000000000000000e+00 0.0000000000000000e+00  7.5137035168701734e-03 6.0808028092610875e-06 0.0000000000000000e+00 6.0808028092610875e-06 7.5516175008081615e-03 0.0000000000000000e+00 0.0000000000000000e+00 0.0000000000000000e+00 0.0000000000000000e+00  7.5661610476529095e-03 -5.8593138953825598e-05 0.0000000000000000e+00 -5.8593138953825598e-05 7.5579402934124341e-03 0.0000000000000000e+00 0.0000000000000000e+00 0.0000000000000000e+00 0.0000000000000000e+00  7.5982589642003854e-03 -2.6910474145361009e-05 0.0000000000000000e+00 -2.6910474145361009e-05 7.5155162878108176e-03 0.0000000000000000e+00 0.0000000000000000e+00 0.0000000000000000e+00 0.0000000000000000e+00  7.6592687630738683e-03 -7.7957638574526264e-05 0.0000000000000000e+00 -7.7957638574526264e-05 7.7379642520558475e-03 0.0000000000000000e+00 0.0000000000000000e+00 0.0000000000000000e+00 0.0000000000000000e+00  7.6135853191872330e-03 -1.5246393956967581e-04 0.0000000000000000e+00 -1.5246393956967581e-04 7.6901066598376684e-03 0.0000000000000000e+00 0.0000000000000000e+00 0.0000000000000000e+00 0.0000000000000000e+00  7.4723685187116631e-03 -2.3192490792205915e-04 0.0000000000000000e+00 -2.3192490792205915e-04 7.2357994240336131e-03 0.0000000000000000e+00 0.0000000000000000e+00 0.0000000000000000e+00 0.0000000000000000e+00  7.7962227272716181e-03 4.2332678508129155e-04 0.0000000000000000e+00 4.2332678508129145e-04 7.6362776709018735e-03 0.0000000000000000e+00 0.0000000000000000e+00 0.0000000000000000e+00 0.0000000000000000e+00  7.8429624414093260e-03 -2.9489522228945869e-04 0.0000000000000000e+00 -2.9489522228945869e-04 8.9060650973055745e-03 0.0000000000000000e+00 0.0000000000000000e+00 0.0000000000000000e+00 0.0000000000000000e+00  5.1175806214733442e-03 -1.7680257621235900e-03 0.0000000000000000e+00 -1.7680257621235900e-03 7.0963090743634289e-03 0.0000000000000000e+00 0.0000000000000000e+00 0.0000000000000000e+00 0.0000000000000000e+00  1.3797912790567567e-03 8.0708728916218503e-04 0.0000000000000000e+00 8.0708728916218503e-04 4.9595131052230764e-03 0.0000000000000000e+00 0.0000000000000000e+00 0.0000000000000000e+00 0.0000000000000000e+00  6.0393198049429745e-04 3.9608822031297706e-03 0.0000000000000000e+00 3.9608822031297706e-03 9.2528227753502276e-03 0.0000000000000000e+00 0.0000000000000000e+00 0.0000000000000000e+00 0.0000000000000000e+00  -1.9512472584649247e-03 2.0358907694532895e-03 0.0000000000000000e+00 2.0358907694532895e-03 1.2371825767439427e-02 0.0000000000000000e+00 0.0000000000000000e+00 0.0000000000000000e+00 0.0000000000000000e+00  -5.0673492392854132e-03 9.0295365147467779e-05 0.0000000000000000e+00 9.0295365147467779e-05 1.1691661684565691e-02 0.0000000000000000e+00 0.0000000000000000e+00 0.0000000000000000e+00 0.0000000000000000e+00  -8.2537082977489108e-03 -1.1264308023256786e-03 0.0000000000000000e+00 -1.1264308023256786e-03 8.7889937125778354e-03 0.0000000000000000e+00 0.0000000000000000e+00 0.0000000000000000e+00 0.0000000000000000e+00  -1.2218087042928157e-02 -1.6929712499877407e-03 0.0000000000000000e+00 -1.6929712499877407e-03 4.9142774220624560e-03 0.0000000000000000e+00 0.0000000000000000e+00 0.0000000000000000e+00 0.0000000000000000e+00  -1.5687804150574317e-02 -1.4622858213058643e-03 0.0000000000000000e+00 -1.4622858213058643e-03 1.5555026737839131e-03 0.0000000000000000e+00 0.0000000000000000e+00 0.0000000000000000e+00 0.0000000000000000e+00  -1.6299059076038125e-02 -5.5990299835248329e-04 0.0000000000000000e+00 -5.5990299835248329e-04 9.6603489884547402e-04 0.0000000000000000e+00 0.0000000000000000e+00 0.0000000000000000e+00 0.0000000000000000e+00  -1.3893568635554941e-02 1.2817601466987171e-04 0.0000000000000000e+00 1.2817601466987171e-04 3.5153927776943195e-03 0.0000000000000000e+00 0.0000000000000000e+00 0.0000000000000000e+00 0.0000000000000000e+00  -1.0759060180732454e-02 -2.8059831575295212e-04 0.0000000000000000e+00 -2.8059831575295212e-04 6.8415417511812201e-03 0.0000000000000000e+00 0.0000000000000000e+00 0.0000000000000000e+00 0.0000000000000000e+00  -7.9774283564519616e-03 -1.1378986355989244e-03 0.0000000000000000e+00 -1.1378986355989244e-03 9.4123762344600140e-03 0.0000000000000000e+00 0.0000000000000000e+00 0.0000000000000000e+00 0.0000000000000000e+00  -5.5775047982119215e-03 -2.6740655416081652e-03 0.0000000000000000e+00 -2.6740655416081652e-03 9.9072578688080594e-03 0.0000000000000000e+00 0.0000000000000000e+00 0.0000000000000000e+00 0.0000000000000000e+00  -3.3659586943035678e-03 -4.6329896143565835e-03 0.0000000000000000e+00 -4.6329896143565835e-03 6.8031967233155950e-03 0.0000000000000000e+00 0.0000000000000000e+00 0.0000000000000000e+00 0.0000000000000000e+00  -2.5727642930996595e-03 -2.3720096168665253e-03 0.0000000000000000e+00 -2.3720096168665253e-03 2.1754215274202315e-03 0.0000000000000000e+00 0.0000000000000000e+00 0.0000000000000000e+00 0.0000000000000000e+00  2.1903847775134124e-04 1.3996360038103924e-03 0.0000000000000000e+00 1.3996360038103924e-03 3.2111411369823623e-03 0.0000000000000000e+00 0.0000000000000000e+00 0.0000000000000000e+00 0.0000000000000000e+00  2.8591615376945172e-03 3.2875714343239318e-04 0.0000000000000000e+00 3.2875714343239318e-04 4.5912625155029516e-03 0.0000000000000000e+00 0.0000000000000000e+00 0.0000000000000000e+00 0.0000000000000000e+00  3.5097229522214461e-03 -5.9594054264945878e-04 0.0000000000000000e+00 -5.9594054264945878e-04 3.7325613617790673e-03 0.0000000000000000e+00 0.0000000000000000e+00 0.0000000000000000e+00 0.0000000000000000e+00  2.6692369631926799e-03 -3.2335945253417816e-04 0.0000000000000000e+00 -3.2335945253417816e-04 2.5030910208791108e-03 0.0000000000000000e+00 0.0000000000000000e+00 0.0000000000000000e+00 0.0000000000000000e+00  2.6858391129135385e-03 1.8052377354489552e-04 0.0000000000000000e+00 1.8052377354489552e-04 2.8978631629520525e-03 0.0000000000000000e+00 0.0000000000000000e+00 0.0000000000000000e+00 0.0000000000000000e+00  2.8808727056872999e-03 -1.1331601318799866e-04 0.0000000000000000e+00 -1.1331601318799866e-04 2.8323157746761424e-03 0.0000000000000000e+00 0.0000000000000000e+00 0.0000000000000000e+00 0.0000000000000000e+00  2.6212639211695746e-03 -5.6608839423696003e-05 0.0000000000000000e+00 -5.6608839423696003e-05 2.5395733220672529e-03 0.0000000000000000e+00 0.0000000000000000e+00 0.0000000000000000e+00 0.0000000000000000e+00  2.5677952036913944e-03 6.4382228586859215e-06 0.0000000000000000e+00 6.4382228586859215e-06 2.5658110422039394e-03 0.0000000000000000e+00 0.0000000000000000e+00 0.0000000000000000e+00 0.0000000000000000e+00  2.5794166314905202e-03 -3.0736064907393810e-05 0.0000000000000000e+00 -3.0736064907393810e-05 2.5317308274332394e-03 0.0000000000000000e+00 0.0000000000000000e+00 0.0000000000000000e+00 0.0000000000000000e+00  2.5428427408647780e-03 -1.0678571890628369e-06 0.0000000000000000e+00 -1.0678571890628369e-06 2.4976376893344927e-03 0.0000000000000000e+00 0.0000000000000000e+00 0.0000000000000000e+00 0.0000000000000000e+00  2.5417075907017842e-03 -2.6642363373478775e-06 0.0000000000000000e+00 -2.6642363373478775e-06 2.4919326009642511e-03 0.0000000000000000e+00 0.0000000000000000e+00 0.0000000000000000e+00 0.0000000000000000e+00  2.5319809131594310e-03 2.6040032065283884e-06 0.0000000000000000e+00 2.6040032065283884e-06 2.4763008376814987e-03 0.0000000000000000e+00 0.0000000000000000e+00 0.0000000000000000e+00 0.0000000000000000e+00  2.5293688476094854e-03 3.9891459947862188e-06 0.0000000000000000e+00 3.9891459947862188e-06 2.4671242233035768e-03 0.0000000000000000e+00 0.0000000000000000e+00 0.0000000000000000e+00 0.0000000000000000e+00  2.5269356798081144e-03 3.5719644353502681e-06 0.0000000000000000e+00 3.5719644353502681e-06 2.4583847552645611e-03 0.0000000000000000e+00 0.0000000000000000e+00 0.0000000000000000e+00 0.0000000000000000e+00  2.5258553469906042e-03 1.7425040162627752e-06 0.0000000000000000e+00 1.7425040162627752e-06 2.4532473643472472e-03 0.0000000000000000e+00 0.0000000000000000e+00 0.0000000000000000e+00 0.0000000000000000e+00  2.5251782460092519e-03 -8.9193792003971240e-07 0.0000000000000000e+00 -8.9193792003971240e-07 2.4514561475235544e-03 0.0000000000000000e+00 0.0000000000000000e+00 0.0000000000000000e+00 0.0000000000000000e+00  2.5250221403190806e-03 -3.4851993494165426e-06 0.0000000000000000e+00 -3.4851993494165426e-06 2.4533590118097854e-03 0.0000000000000000e+00 0.0000000000000000e+00 0.0000000000000000e+00 0.0000000000000000e+00  2.5253690915056008e-03 -5.2870669149164462e-06 0.0000000000000000e+00 -5.2870669149164462e-06 2.4584129467964144e-03 0.0000000000000000e+00 0.0000000000000000e+00 0.0000000000000000e+00 0.0000000000000000e+00  2.5271016931185976e-03 -5.6978030910110557e-06 0.0000000000000000e+00 -5.6978030910110557e-06 2.4666437609485647e-03 0.0000000000000000e+00 0.0000000000000000e+00 0.0000000000000000e+00 0.0000000000000000e+00  2.5292738931104977e-03 -4.7339835582894191e-06 0.0000000000000000e+00 -4.7339835582894191e-06 2.4752380707913180e-03 0.0000000000000000e+00 0.0000000000000000e+00 0.0000000000000000e+00 0.0000000000000000e+00  2.5368121985370551e-03 1.2035099592520158e-06 0.0000000000000000e+00 1.2035099592520158e-06 2.4905620460886676e-03 0.0000000000000000e+00 0.0000000000000000e+00 0.0000000000000000e+00 0.0000000000000000e+00  2.5425377637054393e-03 5.9177687552981145e-07 0.0000000000000000e+00 5.9177687552981177e-07 2.4924619863726260e-03 0.0000000000000000e+00 0.0000000000000000e+00 0.0000000000000000e+00 0.0000000000000000e+00  2.5876657887251302e-03 3.3932258968648669e-05 0.0000000000000000e+00 3.3932258968648669e-05 2.5475062601239469e-03 0.0000000000000000e+00 0.0000000000000000e+00 0.0000000000000000e+00 0.0000000000000000e+00  2.6445113838865345e-03 -3.4975393730041365e-05 0.0000000000000000e+00 -3.4975393730041365e-05 2.6121594963001726e-03 0.0000000000000000e+00 0.0000000000000000e+00 0.0000000000000000e+00 0.0000000000000000e+00  2.7947078361428776e-03 8.3099030552393228e-05 0.0000000000000000e+00 8.3099030552393228e-05 2.6307067488179963e-03 0.0000000000000000e+00 0.0000000000000000e+00 0.0000000000000000e+00 0.0000000000000000e+00  2.8286171298845986e-03 -3.1519596099326449e-05 0.0000000000000000e+00 -3.1519596099326449e-05 2.9350711179929509e-03 0.0000000000000000e+00 0.0000000000000000e+00 0.0000000000000000e+00 0.0000000000000000e+00  2.8452680255112756e-03 -3.7373595313356339e-05 0.0000000000000000e+00 -3.7373595313356339e-05 2.9111682528541343e-03 0.0000000000000000e+00 0.0000000000000000e+00 0.0000000000000000e+00 0.0000000000000000e+00  2.9761900083443526e-03 9.7596072749816823e-05 0.0000000000000000e+00 9.7596072749816796e-05 2.8092032194319896e-03 0.0000000000000000e+00 0.0000000000000000e+00 0.0000000000000000e+00 0.0000000000000000e+00  3.2992351399365018e-03 6.1623889785632181e-04 0.0000000000000000e+00 6.1623889785632181e-04 3.5251249252609891e-03 0.0000000000000000e+00 0.0000000000000000e+00 0.0000000000000000e+00 0.0000000000000000e+00  3.1541867904911467e-03 -2.5669152899814046e-04 0.0000000000000000e+00 -2.5669152899814046e-04 4.7490006216709202e-03 0.0000000000000000e+00 0.0000000000000000e+00 0.0000000000000000e+00 0.0000000000000000e+00  -1.4202504078273711e-05 -1.3246734351813059e-03 0.0000000000000000e+00 -1.3246734351813061e-03 2.8836179084036498e-03 0.0000000000000000e+00 0.0000000000000000e+00 0.0000000000000000e+00 0.0000000000000000e+00  -3.1194347360204294e-03 2.5515666151913479e-03 0.0000000000000000e+00 2.5515666151913483e-03 1.8499155985265486e-03 0.0000000000000000e+00 0.0000000000000000e+00 0.0000000000000000e+00 0.0000000000000000e+00  -3.4692059271399520e-03 4.6562162589521318e-03 0.0000000000000000e+00 4.6562162589521318e-03 7.0010675365087451e-03 0.0000000000000000e+00 0.0000000000000000e+00 0.0000000000000000e+00 0.0000000000000000e+00  -5.5338680189854468e-03 2.5778366309341131e-03 0.0000000000000000e+00 2.5778366309341131e-03 9.9460313496457300e-03 0.0000000000000000e+00 0.0000000000000000e+00 0.0000000000000000e+00 0.0000000000000000e+00  -7.8052097828118470e-03 1.1149296617979506e-03 0.0000000000000000e+00 1.1149296617979506e-03 9.5665197761839963e-03 0.0000000000000000e+00 0.0000000000000000e+00 0.0000000000000000e+00 0.0000000000000000e+00  -1.0421003010140607e-02 2.0051688907335764e-04 0.0000000000000000e+00 2.0051688907335764e-04 7.0189881180847931e-03 0.0000000000000000e+00 0.0000000000000000e+00 0.0000000000000000e+00 0.0000000000000000e+00  -1.3822965717662963e-02 5.9678453811882031e-06 0.0000000000000000e+00 5.9678453811882031e-06 3.4891735913907115e-03 0.0000000000000000e+00 0.0000000000000000e+00 0.0000000000000000e+00 0.0000000000000000e+00  -1.6379114821949599e-02 6.2886167331603518e-04 0.0000000000000000e+00 6.2886167331603518e-04 9.6855021846072834e-04 0.0000000000000000e+00 0.0000000000000000e+00 0.0000000000000000e+00 0.0000000000000000e+00  -1.5765051037420603e-02 1.4925136808104260e-03 0.0000000000000000e+00 1.4925136808104260e-03 1.5524156936821579e-03 0.0000000000000000e+00 0.0000000000000000e+00 0.0000000000000000e+00 0.0000000000000000e+00  -1.2397060214715731e-02 1.7310229591849776e-03 0.0000000000000000e+00 1.7310229591849776e-03 4.8394299982106332e-03 0.0000000000000000e+00 0.0000000000000000e+00 0.0000000000000000e+00 0.0000000000000000e+00  -8.5090155513941577e-03 1.0767174218690692e-03 0.0000000000000000e+00 1.0767174218690692e-03 8.6221035786957171e-03 0.0000000000000000e+00 0.0000000000000000e+00 0.0000000000000000e+00 0.0000000000000000e+00  -4.9546083032556290e-03 -1.6997050225215648e-04 0.0000000000000000e+00 -1.6997050225215648e-04 1.1898035999412309e-02 0.0000000000000000e+00 0.0000000000000000e+00 0.0000000000000000e+00 0.0000000000000000e+00  -1.7719402490242459e-03 -2.1316076478917292e-03 0.0000000000000000e+00 -2.1316076478917292e-03 1.2481717395553090e-02 0.0000000000000000e+00 0.0000000000000000e+00 0.0000000000000000e+00 0.0000000000000000e+00  8.6161447800536719e-04 -3.9093803372460883e-03 0.0000000000000000e+00 -3.9093803372460883e-03 9.0841156398728182e-03 0.0000000000000000e+00 0.0000000000000000e+00 0.0000000000000000e+00 0.0000000000000000e+00  1.9589882973904400e-03 -7.6211370949869105e-04 0.0000000000000000e+00 -7.6211370949869105e-04 5.3812344704849699e-03 0.0000000000000000e+00 0.0000000000000000e+00 0.0000000000000000e+00 0.0000000000000000e+00  5.3850556689777687e-03 1.7223896854245467e-03 0.0000000000000000e+00 1.7223896854245467e-03 7.5348743814579854e-03 0.0000000000000000e+00 0.0000000000000000e+00 0.0000000000000000e+00 0.0000000000000000e+00  7.6882402020829778e-03 4.3992319686217939e-04 0.0000000000000000e+00 4.3992319686217939e-04 8.7329594903166295e-03 0.0000000000000000e+00 0.0000000000000000e+00 0.0000000000000000e+00 0.0000000000000000e+00  7.9344013838085446e-03 -3.4478005609163773e-04 0.0000000000000000e+00 -3.4478005609163773e-04 7.7133323435804721e-03 0.0000000000000000e+00 0.0000000000000000e+00 0.0000000000000000e+00 0.0000000000000000e+00  7.4293579688371504e-03 2.1096746324448652e-05 0.0000000000000000e+00 2.1096746324448652e-05 7.2201997817593969e-03 0.0000000000000000e+00 0.0000000000000000e+00 0.0000000000000000e+00 0.0000000000000000e+00  7.4880224009902553e-03 2.6893597646649239e-04 0.0000000000000000e+00 2.6893597646649239e-04 7.6586765311396467e-03 0.0000000000000000e+00 0.0000000000000000e+00 0.0000000000000000e+00 0.0000000000000000e+00  7.5273091464169873e-03 -8.0221203457972465e-05 0.0000000000000000e+00 -8.0221203457972465e-05 7.5167135239912692e-03 0.0000000000000000e+00 0.0000000000000000e+00 0.0000000000000000e+00 0.0000000000000000e+00  7.3930985722667599e-03 3.6268860996603270e-05 0.0000000000000000e+00 3.6268860996603277e-05 7.4182981365330230e-03 0.0000000000000000e+00 0.0000000000000000e+00 0.0000000000000000e+00 0.0000000000000000e+00  7.4394551326184112e-03 3.8564641915800549e-05 0.0000000000000000e+00 3.8564641915800549e-05 7.5064489980992324e-03 0.0000000000000000e+00 0.0000000000000000e+00 0.0000000000000000e+00 0.0000000000000000e+00  7.4615446359257587e-03 -2.8581606192317779e-08 0.0000000000000000e+00 -2.8581606192316191e-08 7.4849692236545126e-03 0.0000000000000000e+00 0.0000000000000000e+00 0.0000000000000000e+00 0.0000000000000000e+00  7.4570190450147138e-03 1.2589546828937026e-05 0.0000000000000000e+00 1.2589546828937026e-05 7.4946011966186476e-03 0.0000000000000000e+00 0.0000000000000000e+00 0.0000000000000000e+00 0.0000000000000000e+00  7.4726641630611951e-03 2.9969576922974172e-07 0.0000000000000000e+00 2.9969576922974172e-07 7.5140870956185869e-03 0.0000000000000000e+00 0.0000000000000000e+00 0.0000000000000000e+00 0.0000000000000000e+00  7.4781648611087206e-03 1.5704529898508184e-06 0.0000000000000000e+00 1.5704529898508184e-06 7.5239327705388433e-03 0.0000000000000000e+00 0.0000000000000000e+00 0.0000000000000000e+00 0.0000000000000000e+00  7.4871912629568904e-03 -4.1134260193404207e-07 0.0000000000000000e+00 -4.1134260193404207e-07 7.5341345339218048e-03 0.0000000000000000e+00 0.0000000000000000e+00 0.0000000000000000e+00 0.0000000000000000e+00  7.4931920267788266e-03 -5.6027368095061447e-07 0.0000000000000000e+00 -5.6027368095061437e-07 7.5400528529248655e-03 0.0000000000000000e+00 0.0000000000000000e+00 0.0000000000000000e+00 0.0000000000000000e+00  7.4984758866513132e-03 -4.8367225468561003e-07 0.0000000000000000e+00 -4.8367225468561003e-07 7.5442907085156493e-03 0.0000000000000000e+00 0.0000000000000000e+00 0.0000000000000000e+00 0.0000000000000000e+00  7.5025705940701360e-03 3.4133294297938193e-07 0.0000000000000000e+00 3.4133294297938193e-07 7.5461641838957929e-03 0.0000000000000000e+00 0.0000000000000000e+00 0.0000000000000000e+00 0.0000000000000000e+00  7.5060404597154604e-03 1.7518139367823927e-06 0.0000000000000000e+00 1.7518139367823927e-06 7.5458968486535423e-03 0.0000000000000000e+00 0.0000000000000000e+00 0.0000000000000000e+00 0.0000000000000000e+00  7.5091063593874484e-03 3.6376777275300284e-06 0.0000000000000000e+00 3.6376777275300284e-06 7.5433195735635696e-03 0.0000000000000000e+00 0.0000000000000000e+00 0.0000000000000000e+00 0.0000000000000000e+00  7.5120476304079576e-03 5.6818142890293395e-06 0.0000000000000000e+00 5.6818142890293395e-06 7.5383296381805222e-03 0.0000000000000000e+00 0.0000000000000000e+00 0.0000000000000000e+00 0.0000000000000000e+00  7.5151432204842317e-03 7.3642642502635684e-06 0.0000000000000000e+00 7.3642642502635684e-06 7.5306172972649538e-03 0.0000000000000000e+00 0.0000000000000000e+00 0.0000000000000000e+00 0.0000000000000000e+00  7.5189719282834425e-03 7.9348633504478740e-06 0.0000000000000000e+00 7.9348633504478740e-06 7.5193129239846156e-03 0.0000000000000000e+00 0.0000000000000000e+00 0.0000000000000000e+00 0.0000000000000000e+00  7.5774723213441059e-03 -4.4029112173937604e-06 0.0000000000000000e+00 -4.4029112173937604e-06 7.5777631608125520e-03 0.0000000000000000e+00 0.0000000000000000e+00 0.0000000000000000e+00 0.0000000000000000e+00  7.5739774418977640e-03 -4.7133561753365834e-06 0.0000000000000000e+00 -4.7133561753365834e-06 7.5879848253487996e-03 0.0000000000000000e+00 0.0000000000000000e+00 0.0000000000000000e+00 0.0000000000000000e+00  7.5708503870672616e-03 -3.0978518841054175e-06 0.0000000000000000e+00 -3.0978518841054175e-06 7.5953309594197554e-03 0.0000000000000000e+00 0.0000000000000000e+00 0.0000000000000000e+00 0.0000000000000000e+00  7.5675613640510979e-03 -8.3427379111807534e-07 0.0000000000000000e+00 -8.3427379111807534e-07 7.6004562418800917e-03 0.0000000000000000e+00 0.0000000000000000e+00 0.0000000000000000e+00 0.0000000000000000e+00  7.5638652721283610e-03 1.4390024789364644e-06 0.0000000000000000e+00 1.4390024789364644e-06 7.6033350036651777e-03 0.0000000000000000e+00 0.0000000000000000e+00 0.0000000000000000e+00 0.0000000000000000e+00  7.5594664816865187e-03 3.4336709327222869e-06 0.0000000000000000e+00 3.4336709327222869e-06 7.6038772542824703e-03 0.0000000000000000e+00 0.0000000000000000e+00 0.0000000000000000e+00 0.0000000000000000e+00  7.5539634576985036e-03 4.9832544554553012e-06 0.0000000000000000e+00 4.9832544554553012e-06 7.6020130181538147e-03 0.0000000000000000e+00 0.0000000000000000e+00 0.0000000000000000e+00 0.0000000000000000e+00  7.5469771498223089e-03 6.0540245536272097e-06 0.0000000000000000e+00 6.0540245536272097e-06 7.5977626692902102e-03 0.0000000000000000e+00 0.0000000000000000e+00 0.0000000000000000e+00 0.0000000000000000e+00  7.5378749176898841e-03 6.4390645237878042e-06 0.0000000000000000e+00 6.4390645237878042e-06 7.5908550795538987e-03 0.0000000000000000e+00 0.0000000000000000e+00 0.0000000000000000e+00 0.0000000000000000e+00  7.5265282275531727e-03 6.7545227612762625e-06 0.0000000000000000e+00 6.7545227612762625e-06 7.5815159814532950e-03 0.0000000000000000e+00 0.0000000000000000e+00 0.0000000000000000e+00 0.0000000000000000e+00  7.5120253050388599e-03 5.6334992216626076e-06 0.0000000000000000e+00 5.6334992216626076e-06 7.5677867814727771e-03 0.0000000000000000e+00 0.0000000000000000e+00 0.0000000000000000e+00 0.0000000000000000e+00  7.4959472552992758e-03 6.5198279891276110e-06 0.0000000000000000e+00 6.5198279891276110e-06 7.5524033996208200e-03 0.0000000000000000e+00 0.0000000000000000e+00 0.0000000000000000e+00 0.0000000000000000e+00  7.4807193979371384e-03 3.5276182934094473e-06 0.0000000000000000e+00 3.5276182934094473e-06 7.5272640653180492e-03 0.0000000000000000e+00 0.0000000000000000e+00 0.0000000000000000e+00 0.0000000000000000e+00  7.4693296347321074e-03 -6.3823374378713555e-06 0.0000000000000000e+00 -6.3823374378713555e-06 7.5445699661698925e-03 0.0000000000000000e+00 0.0000000000000000e+00 0.0000000000000000e+00 0.0000000000000000e+00  7.4644246692513183e-03 1.2971512665876289e-05 0.0000000000000000e+00 1.2971512665876289e-05 7.4786659230220483e-03 0.0000000000000000e+00 0.0000000000000000e+00 0.0000000000000000e+00 0.0000000000000000e+00  7.4912704140852725e-03 -8.3796417158588511e-05 0.0000000000000000e+00 -8.3796417158588511e-05 7.6043619462230951e-03 0.0000000000000000e+00 0.0000000000000000e+00 0.0000000000000000e+00 0.0000000000000000e+00  7.5854123666245447e-03 4.1270831210843207e-05 0.0000000000000000e+00 4.1270831210843207e-05 7.5402046338430779e-03 0.0000000000000000e+00 0.0000000000000000e+00 0.0000000000000000e+00 0.0000000000000000e+00  7.4975490663459375e-03 -1.7968814048194422e-04 0.0000000000000000e+00 -1.7968814048194422e-04 7.5809473389278920e-03 0.0000000000000000e+00 0.0000000000000000e+00 0.0000000000000000e+00 0.0000000000000000e+00  7.4373456320933713e-03 -7.6719621151136110e-05 0.0000000000000000e+00 -7.6719621151136083e-05 7.5758036714389876e-03 0.0000000000000000e+00 0.0000000000000000e+00 0.0000000000000000e+00 0.0000000000000000e+00  7.4207996405841114e-03 -5.3904293393732077e-05 0.0000000000000000e+00 -5.3904293393732091e-05 7.3208676289955241e-03 0.0000000000000000e+00 0.0000000000000000e+00 0.0000000000000000e+00 0.0000000000000000e+00  7.1764709205922490e-03 -2.3245286646331550e-04 0.0000000000000000e+00 -2.3245286646331550e-04 7.0597560819893497e-03 0.0000000000000000e+00 0.0000000000000000e+00 0.0000000000000000e+00 0.0000000000000000e+00  7.1703434817272206e-03 -2.2215119423059024e-04 0.0000000000000000e+00 -2.2215119423059024e-04 7.3623455435617002e-03 0.0000000000000000e+00 0.0000000000000000e+00 0.0000000000000000e+00 0.0000000000000000e+00  6.9631693288349757e-03 -4.4118104905178370e-04 0.0000000000000000e+00 -4.4118104905178370e-04 7.2090803588554042e-03 0.0000000000000000e+00 0.0000000000000000e+00 0.0000000000000000e+00 0.0000000000000000e+00  6.9392378628208781e-03 -2.1385526422741628e-04 0.0000000000000000e+00 -2.1385526422741628e-04 7.3265946470892438e-03 0.0000000000000000e+00 0.0000000000000000e+00 0.0000000000000000e+00 0.0000000000000000e+00  6.4829542246365758e-03 -2.2427167168914022e-04 0.0000000000000000e+00 -2.2427167168914022e-04 7.2438304650618577e-03 0.0000000000000000e+00 0.0000000000000000e+00 0.0000000000000000e+00 0.0000000000000000e+00  5.3115535606309524e-03 -4.2130490790278025e-04 0.0000000000000000e+00 -4.2130490790278025e-04 6.4691220154865763e-03 0.0000000000000000e+00 0.0000000000000000e+00 0.0000000000000000e+00 0.0000000000000000e+00  4.3112950312001064e-03 -5.2492499932758538e-04 0.0000000000000000e+00 -5.2492499932758538e-04 6.1309219919355902e-03 0.0000000000000000e+00 0.0000000000000000e+00 0.0000000000000000e+00 0.0000000000000000e+00  3.6371440449738980e-03 -6.1058260071962707e-04 0.0000000000000000e+00 -6.1058260071962707e-04 5.9592395662630285e-03 0.0000000000000000e+00 0.0000000000000000e+00 0.0000000000000000e+00 0.0000000000000000e+00  3.1696572907784801e-03 -7.1960610360084320e-04 0.0000000000000000e+00 -7.1960610360084320e-04 5.6080902972881685e-03 0.0000000000000000e+00 0.0000000000000000e+00 0.0000000000000000e+00 0.0000000000000000e+00  3.1008884834783403e-03 -7.6347349276075860e-04 0.0000000000000000e+00 -7.6347349276075860e-04 5.1058152295064829e-03 0.0000000000000000e+00 0.0000000000000000e+00 0.0000000000000000e+00 0.0000000000000000e+00  3.6942461102403169e-03 -4.4501851662246344e-04 0.0000000000000000e+00 -4.4501851662246344e-04 5.3595064700297018e-03 0.0000000000000000e+00 0.0000000000000000e+00 0.0000000000000000e+00 0.0000000000000000e+00  3.8129995855207006e-03 -3.4456786189834723e-04 0.0000000000000000e+00 -3.4456786189834723e-04 5.1943586706791828e-03 0.0000000000000000e+00 0.0000000000000000e+00 0.0000000000000000e+00 0.0000000000000000e+00  3.6070542212033744e-03 -2.7524467811856907e-04 0.0000000000000000e+00 -2.7524467811856907e-04 4.3803153237829840e-03 0.0000000000000000e+00 0.0000000000000000e+00 0.0000000000000000e+00 0.0000000000000000e+00  3.4354131492087725e-03 -6.6250812197945425e-05 0.0000000000000000e+00 -6.6250812197945425e-05 4.0735445876228134e-03 0.0000000000000000e+00 0.0000000000000000e+00 0.0000000000000000e+00 0.0000000000000000e+00  3.3929597749886632e-03 -1.0867633887997301e-04 0.0000000000000000e+00 -1.0867633887997301e-04 3.7162634979501820e-03 0.0000000000000000e+00 0.0000000000000000e+00 0.0000000000000000e+00 0.0000000000000000e+00  3.3213166161621412e-03 -2.5093694388753464e-04 0.0000000000000000e+00 -2.5093694388753464e-04 3.3265985663791875e-03 0.0000000000000000e+00 0.0000000000000000e+00 0.0000000000000000e+00 0.0000000000000000e+00  2.8614107561230505e-03 -1.6813093389194211e-04 0.0000000000000000e+00 -1.6813093389194211e-04 2.8986188944328125e-03 0.0000000000000000e+00 0.0000000000000000e+00 0.0000000000000000e+00 0.0000000000000000e+00  2.9586190946724847e-03 3.3556399160000573e-05 0.0000000000000000e+00 3.3556399160000573e-05 3.0127252139600727e-03 0.0000000000000000e+00 0.0000000000000000e+00 0.0000000000000000e+00 0.0000000000000000e+00  3.0346167659036608e-03 -2.0986472896905847e-05 0.0000000000000000e+00 -2.0986472896905847e-05 2.9180713773248189e-03 0.0000000000000000e+00 0.0000000000000000e+00 0.0000000000000000e+00 0.0000000000000000e+00  2.7731073300494135e-03 -6.5781110297766755e-05 0.0000000000000000e+00 -6.5781110297766755e-05 2.6690863781185562e-03 0.0000000000000000e+00 0.0000000000000000e+00 0.0000000000000000e+00 0.0000000000000000e+00  2.6715714458055264e-03 -9.3356380720907198e-06 0.0000000000000000e+00 -9.3356380720907198e-06 2.6583323217357433e-03 0.0000000000000000e+00 0.0000000000000000e+00 0.0000000000000000e+00 0.0000000000000000e+00  2.6416070118365199e-03 1.2493613442907208e-06 0.0000000000000000e+00 1.2493613442907208e-06 2.5758312091038265e-03 0.0000000000000000e+00 0.0000000000000000e+00 0.0000000000000000e+00 0.0000000000000000e+00  2.5979530591481010e-03 -5.6440176593735232e-06 0.0000000000000000e+00 -5.6440176593735232e-06 2.5306630208623325e-03 0.0000000000000000e+00 0.0000000000000000e+00 0.0000000000000000e+00 0.0000000000000000e+00  2.5683960883981301e-03 4.0307195457722707e-06 0.0000000000000000e+00 4.0307195457722707e-06 2.5122419187068772e-03 0.0000000000000000e+00 0.0000000000000000e+00 0.0000000000000000e+00 0.0000000000000000e+00  2.5546228899964566e-03 3.7554581500145430e-06 0.0000000000000000e+00 3.7554581500145430e-06 2.4988324539766669e-03 0.0000000000000000e+00 0.0000000000000000e+00 0.0000000000000000e+00 0.0000000000000000e+00  2.5405696357698720e-03 7.9150894424672516e-06 0.0000000000000000e+00 7.9150894424672516e-06 2.4857236287367693e-03 0.0000000000000000e+00 0.0000000000000000e+00 0.0000000000000000e+00 0.0000000000000000e+00  2.5327967685798143e-03 8.2434594723876314e-06 0.0000000000000000e+00 8.2434594723876314e-06 2.4761253340841445e-03 0.0000000000000000e+00 0.0000000000000000e+00 0.0000000000000000e+00 0.0000000000000000e+00  2.5266911867711603e-03 7.7680559441291891e-06 0.0000000000000000e+00 7.7680559441291891e-06 2.4670079662785205e-03 0.0000000000000000e+00 0.0000000000000000e+00 0.0000000000000000e+00 0.0000000000000000e+00  2.5230697899454131e-03 5.8572400762870143e-06 0.0000000000000000e+00 5.8572400762870143e-06 2.4602920481919055e-03 0.0000000000000000e+00 0.0000000000000000e+00 0.0000000000000000e+00 0.0000000000000000e+00  2.5208531335884883e-03 2.9743175779825160e-06 0.0000000000000000e+00 2.9743175779825160e-06 2.4559365543190977e-03 0.0000000000000000e+00 0.0000000000000000e+00 0.0000000000000000e+00 0.0000000000000000e+00  2.5198326255433906e-03 -4.1542295874020010e-07 0.0000000000000000e+00 -4.1542295874020010e-07 2.4545150158290199e-03 0.0000000000000000e+00 0.0000000000000000e+00 0.0000000000000000e+00 0.0000000000000000e+00  2.5198214619445779e-03 -3.7950582653463852e-06 0.0000000000000000e+00 -3.7950582653463852e-06 2.4560268625916340e-03 0.0000000000000000e+00 0.0000000000000000e+00 0.0000000000000000e+00 0.0000000000000000e+00  2.5209905853860685e-03 -6.6516690668184833e-06 0.0000000000000000e+00 -6.6516690668184833e-06 2.4603051031303045e-03 0.0000000000000000e+00 0.0000000000000000e+00 0.0000000000000000e+00 0.0000000000000000e+00  2.5235377752066087e-03 -8.5882084352344041e-06 0.0000000000000000e+00 -8.5882084352344041e-06 2.4666654569642471e-03 0.0000000000000000e+00 0.0000000000000000e+00 0.0000000000000000e+00 0.0000000000000000e+00  2.5282602955890056e-03 -8.9992757195265725e-06 0.0000000000000000e+00 -8.9992757195265725e-06 2.4750738432778195e-03 0.0000000000000000e+00 0.0000000000000000e+00 0.0000000000000000e+00 0.0000000000000000e+00  2.5352393973433014e-03 -8.5494851007372293e-06 0.0000000000000000e+00 -8.5494851007372293e-06 2.4829578408474204e-03 0.0000000000000000e+00 0.0000000000000000e+00 0.0000000000000000e+00 0.0000000000000000e+00  2.5472756621417302e-03 -4.4662092995747589e-06 0.0000000000000000e+00 -4.4662092995747589e-06 2.4962863926792766e-03 0.0000000000000000e+00 0.0000000000000000e+00 0.0000000000000000e+00 0.0000000000000000e+00  2.5631745355521548e-03 -1.3798302434026693e-06 0.0000000000000000e+00 -1.3798302434026693e-06 2.5011359747382565e-03 0.0000000000000000e+00 0.0000000000000000e+00 0.0000000000000000e+00 0.0000000000000000e+00  2.6004742522671644e-03 3.3853257914075199e-06 0.0000000000000000e+00 3.3853257914075186e-06 2.5764616081435823e-03 0.0000000000000000e+00 0.0000000000000000e+00 0.0000000000000000e+00 0.0000000000000000e+00  2.6518234955268155e-03 3.5090054473049760e-05 0.0000000000000000e+00 3.5090054473049760e-05 2.5736895662775514e-03 0.0000000000000000e+00 0.0000000000000000e+00 0.0000000000000000e+00 0.0000000000000000e+00  2.7558317390970221e-03 -3.5556323862893246e-05 0.0000000000000000e+00 -3.5556323862893246e-05 2.7173843640938872e-03 0.0000000000000000e+00 0.0000000000000000e+00 0.0000000000000000e+00 0.0000000000000000e+00  3.0295107349221696e-03 1.0695617092291994e-04 0.0000000000000000e+00 1.0695617092291994e-04 2.8861719097166734e-03 0.0000000000000000e+00 0.0000000000000000e+00 0.0000000000000000e+00 0.0000000000000000e+00  2.9493606316100987e-03 -1.1118831043550546e-04 0.0000000000000000e+00 -1.1118831043550546e-04 2.9014739462649838e-03 0.0000000000000000e+00 0.0000000000000000e+00 0.0000000000000000e+00 0.0000000000000000e+00  3.1308081321288314e-03 7.8286936780629050e-05 0.0000000000000000e+00 7.8286936780629050e-05 3.2596801078130242e-03 0.0000000000000000e+00 0.0000000000000000e+00 0.0000000000000000e+00 0.0000000000000000e+00  3.0715779498533616e-03 1.1965134480892445e-04 0.0000000000000000e+00 1.1965134480892442e-04 2.9391565112058819e-03 0.0000000000000000e+00 0.0000000000000000e+00 0.0000000000000000e+00 0.0000000000000000e+00  3.3741124601581853e-03 1.4207828122729529e-04 0.0000000000000000e+00 1.4207828122729535e-04 3.2768128995069173e-03 0.0000000000000000e+00 0.0000000000000000e+00 0.0000000000000000e+00 0.0000000000000000e+00  3.6224206855877445e-03 1.2075739030219957e-04 0.0000000000000000e+00 1.2075739030219952e-04 4.0174966235054189e-03 0.0000000000000000e+00 0.0000000000000000e+00 0.0000000000000000e+00 0.0000000000000000e+00  3.4962812433487734e-03 9.7058654944126634e-05 0.0000000000000000e+00 9.7058654944126647e-05 4.0286353406816409e-03 0.0000000000000000e+00 0.0000000000000000e+00 0.0000000000000000e+00 0.0000000000000000e+00  3.6489938394399187e-03 3.1497678999379273e-04 0.0000000000000000e+00 3.1497678999379267e-04 4.4796275703988088e-03 0.0000000000000000e+00 0.0000000000000000e+00 0.0000000000000000e+00 0.0000000000000000e+00  3.7056267969535054e-03 3.6684441584633698e-04 0.0000000000000000e+00 3.6684441584633698e-04 4.9449130304556194e-03 0.0000000000000000e+00 0.0000000000000000e+00 0.0000000000000000e+00 0.0000000000000000e+00  3.3046869065944382e-03 5.6885428390669247e-04 0.0000000000000000e+00 5.6885428390669247e-04 4.9838932021489188e-03 0.0000000000000000e+00 0.0000000000000000e+00 0.0000000000000000e+00 0.0000000000000000e+00  2.9756158587785973e-03 7.4547104280891705e-04 0.0000000000000000e+00 7.4547104280891705e-04 5.1391284134685595e-03 0.0000000000000000e+00 0.0000000000000000e+00 0.0000000000000000e+00 0.0000000000000000e+00  3.2571030978796743e-03 6.8163106321617159e-04 0.0000000000000000e+00 6.8163106321617159e-04 5.7171025311647120e-03 0.0000000000000000e+00 0.0000000000000000e+00 0.0000000000000000e+00 0.0000000000000000e+00  3.7534637535168373e-03 5.8511215653497969e-04 0.0000000000000000e+00 5.8511215653497969e-04 6.0400371533736808e-03 0.0000000000000000e+00 0.0000000000000000e+00 0.0000000000000000e+00 0.0000000000000000e+00  4.5424849743412876e-03 4.6718476250931187e-04 0.0000000000000000e+00 4.6718476250931187e-04 6.1926031524907939e-03 0.0000000000000000e+00 0.0000000000000000e+00 0.0000000000000000e+00 0.0000000000000000e+00  5.8324724478041609e-03 2.8771288389281113e-04 0.0000000000000000e+00 2.8771288389281113e-04 7.0033905106533590e-03 0.0000000000000000e+00 0.0000000000000000e+00 0.0000000000000000e+00 0.0000000000000000e+00  6.6719265851367150e-03 1.9693342903797796e-04 0.0000000000000000e+00 1.9693342903797796e-04 7.5439605814182666e-03 0.0000000000000000e+00 0.0000000000000000e+00 0.0000000000000000e+00 0.0000000000000000e+00  6.8813528723151276e-03 2.9949549194517372e-04 0.0000000000000000e+00 2.9949549194517372e-04 7.2007098154249286e-03 0.0000000000000000e+00 0.0000000000000000e+00 0.0000000000000000e+00 0.0000000000000000e+00  6.8434355616493218e-03 4.8741960249964512e-04 0.0000000000000000e+00 4.8741960249964512e-04 7.1804463218475513e-03 0.0000000000000000e+00 0.0000000000000000e+00 0.0000000000000000e+00 0.0000000000000000e+00  7.1523817892717913e-03 2.4142142144968956e-04 0.0000000000000000e+00 2.4142142144968956e-04 7.2366485492001090e-03 0.0000000000000000e+00 0.0000000000000000e+00 0.0000000000000000e+00 0.0000000000000000e+00  7.3687967318589254e-03 -3.2233011166195831e-05 0.0000000000000000e+00 -3.2233011166195831e-05 7.2821698729894401e-03 0.0000000000000000e+00 0.0000000000000000e+00 0.0000000000000000e+00 0.0000000000000000e+00  7.3663095604067893e-03 9.6409258635410484e-05 0.0000000000000000e+00 9.6409258635410484e-05 7.3459521638769201e-03 0.0000000000000000e+00 0.0000000000000000e+00 0.0000000000000000e+00 0.0000000000000000e+00  7.4283923063130815e-03 1.1469824559541368e-04 0.0000000000000000e+00 1.1469824559541368e-04 7.5258623357735031e-03 0.0000000000000000e+00 0.0000000000000000e+00 0.0000000000000000e+00 0.0000000000000000e+00  7.3839293756511213e-03 8.3309058229979365e-08 0.0000000000000000e+00 8.3309058229979365e-08 7.4444977334827507e-03 0.0000000000000000e+00 0.0000000000000000e+00 0.0000000000000000e+00 0.0000000000000000e+00  7.3799330501092423e-03 -3.8500871267905010e-06 0.0000000000000000e+00 -3.8500871267905010e-06 7.4803386166966438e-03 0.0000000000000000e+00 0.0000000000000000e+00 0.0000000000000000e+00 0.0000000000000000e+00  7.3784468724548639e-03 1.4606257200654369e-05 0.0000000000000000e+00 1.4606257200654369e-05 7.4317698338284425e-03 0.0000000000000000e+00 0.0000000000000000e+00 0.0000000000000000e+00 0.0000000000000000e+00  7.3951170290719945e-03 -6.6528152567449853e-06 0.0000000000000000e+00 -6.6528152567449853e-06 7.4516127623344341e-03 0.0000000000000000e+00 0.0000000000000000e+00 0.0000000000000000e+00 0.0000000000000000e+00  7.4115502087506117e-03 -2.4572287585793425e-06 0.0000000000000000e+00 -2.4572287585793416e-06 7.4719984220273684e-03 0.0000000000000000e+00 0.0000000000000000e+00 0.0000000000000000e+00 0.0000000000000000e+00  7.4349818389286811e-03 -1.7232805832488302e-06 0.0000000000000000e+00 -1.7232805832488308e-06 7.4888508481071757e-03 0.0000000000000000e+00 0.0000000000000000e+00 0.0000000000000000e+00 0.0000000000000000e+00  7.4532460509761254e-03 -7.9535665606205044e-06 0.0000000000000000e+00 -7.9535665606205044e-06 7.5009542266720342e-03 0.0000000000000000e+00 0.0000000000000000e+00 0.0000000000000000e+00 0.0000000000000000e+00  7.4653183148515332e-03 -7.7986817136635661e-06 0.0000000000000000e+00 -7.7986817136635661e-06 7.5140018391855164e-03 0.0000000000000000e+00 0.0000000000000000e+00 0.0000000000000000e+00 0.0000000000000000e+00  7.4771032080644621e-03 -8.7567552580750427e-06 0.0000000000000000e+00 -8.7567552580750427e-06 7.5255304380230726e-03 0.0000000000000000e+00 0.0000000000000000e+00 0.0000000000000000e+00 0.0000000000000000e+00  7.4859985571276676e-03 -7.8918405671928354e-06 0.0000000000000000e+00 -7.8918405671928354e-06 7.5336878249460913e-03 0.0000000000000000e+00 0.0000000000000000e+00 0.0000000000000000e+00 0.0000000000000000e+00  7.4935423656581806e-03 -6.8969503445930438e-06 0.0000000000000000e+00 -6.8969503445930438e-06 7.5396670692403581e-03 0.0000000000000000e+00 0.0000000000000000e+00 0.0000000000000000e+00 0.0000000000000000e+00  7.4994192543867393e-03 -5.4439585100954542e-06 0.0000000000000000e+00 -5.4439585100954542e-06 7.5432330316023049e-03 0.0000000000000000e+00 0.0000000000000000e+00 0.0000000000000000e+00 0.0000000000000000e+00  7.5041245365574929e-03 -3.6953227139537885e-06 0.0000000000000000e+00 -3.6953227139537885e-06 7.5446845657096851e-03 0.0000000000000000e+00 0.0000000000000000e+00 0.0000000000000000e+00 0.0000000000000000e+00  7.5079292389565577e-03 -1.6464578530942539e-06 0.0000000000000000e+00 -1.6464578530942539e-06 7.5439862102372546e-03 0.0000000000000000e+00 0.0000000000000000e+00 0.0000000000000000e+00 0.0000000000000000e+00  7.5111757020044729e-03 5.8442482156273196e-07 0.0000000000000000e+00 5.8442482156273196e-07 7.5411947335877298e-03 0.0000000000000000e+00 0.0000000000000000e+00 0.0000000000000000e+00 0.0000000000000000e+00  7.5141155765967764e-03 2.7403170922114148e-06 0.0000000000000000e+00 2.7403170922114148e-06 7.5363893592177468e-03 0.0000000000000000e+00 0.0000000000000000e+00 0.0000000000000000e+00 0.0000000000000000e+00  7.5169491724083196e-03 4.2279731897329038e-06 0.0000000000000000e+00 4.2279731897329038e-06 7.5296189687580903e-03 0.0000000000000000e+00 0.0000000000000000e+00 0.0000000000000000e+00 0.0000000000000000e+00  7.5201105159183003e-03 3.8580169202338215e-06 0.0000000000000000e+00 3.8580169202338215e-06 7.5203606842148656e-03 0.0000000000000000e+00 0.0000000000000000e+00 0.0000000000000000e+00 0.0000000000000000e+00  7.5801505907436119e-03 -1.1315157410395415e-06 0.0000000000000000e+00 -1.1315157410395415e-06 7.5802351029687527e-03 0.0000000000000000e+00 0.0000000000000000e+00 0.0000000000000000e+00 0.0000000000000000e+00  7.5777858307703311e-03 -1.8898576358667092e-06 0.0000000000000000e+00 -1.8898576358667092e-06 7.5870863706647279e-03 0.0000000000000000e+00 0.0000000000000000e+00 0.0000000000000000e+00 0.0000000000000000e+00  7.5752533679716329e-03 -1.2954695834834844e-07 0.0000000000000000e+00 -1.2954695834834844e-07 7.5931320324337474e-03 0.0000000000000000e+00 0.0000000000000000e+00 0.0000000000000000e+00 0.0000000000000000e+00  7.5724618066959192e-03 2.4508685102534662e-06 0.0000000000000000e+00 2.4508685102534662e-06 7.5979066738018240e-03 0.0000000000000000e+00 0.0000000000000000e+00 0.0000000000000000e+00 0.0000000000000000e+00  7.5692055526349559e-03 5.3339065644699139e-06 0.0000000000000000e+00 5.3339065644699139e-06 7.6007935570332110e-03 0.0000000000000000e+00 0.0000000000000000e+00 0.0000000000000000e+00 0.0000000000000000e+00  7.5650631591113763e-03 8.3323781982912497e-06 0.0000000000000000e+00 8.3323781982912497e-06 7.6014977425520247e-03 0.0000000000000000e+00 0.0000000000000000e+00 0.0000000000000000e+00 0.0000000000000000e+00  7.5595649166489177e-03 1.1351761524073550e-05 0.0000000000000000e+00 1.1351761524073550e-05 7.5999045969455184e-03 0.0000000000000000e+00 0.0000000000000000e+00 0.0000000000000000e+00 0.0000000000000000e+00  7.5522132066550675e-03 1.4316241528705537e-05 0.0000000000000000e+00 1.4316241528705537e-05 7.5959153905647914e-03 0.0000000000000000e+00 0.0000000000000000e+00 0.0000000000000000e+00 0.0000000000000000e+00  7.5425578527755204e-03 1.7252671080764201e-05 0.0000000000000000e+00 1.7252671080764201e-05 7.5894220914556948e-03 0.0000000000000000e+00 0.0000000000000000e+00 0.0000000000000000e+00 0.0000000000000000e+00  7.5300909200690684e-03 2.0043399591141769e-05 0.0000000000000000e+00 2.0043399591141769e-05 7.5799759918933210e-03 0.0000000000000000e+00 0.0000000000000000e+00 0.0000000000000000e+00 0.0000000000000000e+00  7.5145465411051594e-03 2.2958712163154701e-05 0.0000000000000000e+00 2.2958712163154701e-05 7.5673588422948100e-03 0.0000000000000000e+00 0.0000000000000000e+00 0.0000000000000000e+00 0.0000000000000000e+00  7.4953408665674156e-03 2.5226316387915513e-05 0.0000000000000000e+00 2.5226316387915513e-05 7.5505350204546308e-03 0.0000000000000000e+00 0.0000000000000000e+00 0.0000000000000000e+00 0.0000000000000000e+00  7.4731637331824849e-03 2.7189652276326332e-05 0.0000000000000000e+00 2.7189652276326332e-05 7.5296511157231264e-03 0.0000000000000000e+00 0.0000000000000000e+00 0.0000000000000000e+00 0.0000000000000000e+00  7.4438897274415232e-03 3.0947544780616384e-05 0.0000000000000000e+00 3.0947544780616384e-05 7.5166319936167030e-03 0.0000000000000000e+00 0.0000000000000000e+00 0.0000000000000000e+00 0.0000000000000000e+00  7.4243028513602399e-03 2.5121628897306382e-05 0.0000000000000000e+00 2.5121628897306382e-05 7.4776477403843767e-03 0.0000000000000000e+00 0.0000000000000000e+00 0.0000000000000000e+00 0.0000000000000000e+00  7.3919503534496814e-03 3.2882473417710668e-05 0.0000000000000000e+00 3.2882473417710668e-05 7.5214577804276657e-03 0.0000000000000000e+00 0.0000000000000000e+00 0.0000000000000000e+00 0.0000000000000000e+00  7.3976458372196872e-03 4.3050666578317076e-05 0.0000000000000000e+00 4.3050666578317076e-05 7.4554683427837717e-03 0.0000000000000000e+00 0.0000000000000000e+00 0.0000000000000000e+00 0.0000000000000000e+00  7.3945434808412617e-03 -2.5810668619519019e-05 0.0000000000000000e+00 -2.5810668619519016e-05 7.5265975171850590e-03 0.0000000000000000e+00 0.0000000000000000e+00 0.0000000000000000e+00 0.0000000000000000e+00  7.3816234530015767e-03 5.4589281725642478e-05 0.0000000000000000e+00 5.4589281725642478e-05 7.5315655601450229e-03 0.0000000000000000e+00 0.0000000000000000e+00 0.0000000000000000e+00 0.0000000000000000e+00  7.2915744196432129e-03 -3.7827428213487031e-05 0.0000000000000000e+00 -3.7827428213487024e-05 7.2908744616554449e-03 0.0000000000000000e+00 0.0000000000000000e+00 0.0000000000000000e+00 0.0000000000000000e+00  7.1040386079350669e-03 -9.6366968769276000e-05 0.0000000000000000e+00 -9.6366968769276014e-05 7.2158076836908334e-03 0.0000000000000000e+00 0.0000000000000000e+00 0.0000000000000000e+00 0.0000000000000000e+00  7.0878894990251233e-03 -1.3920038414526819e-05 0.0000000000000000e+00 -1.3920038414526819e-05 7.2582645029285820e-03 0.0000000000000000e+00 0.0000000000000000e+00 0.0000000000000000e+00 0.0000000000000000e+00  7.0483828543233661e-03 -8.4365316575594098e-06 0.0000000000000000e+00 -8.4365316575594098e-06 7.1438155849047570e-03 0.0000000000000000e+00 0.0000000000000000e+00 0.0000000000000000e+00 0.0000000000000000e+00  6.8052449283011445e-03 -3.4778112333962246e-05 0.0000000000000000e+00 -3.4778112333962246e-05 6.8807460839158700e-03 0.0000000000000000e+00 0.0000000000000000e+00 0.0000000000000000e+00 0.0000000000000000e+00  6.4515418502645088e-03 -1.2356708682944394e-04 0.0000000000000000e+00 -1.2356708682944394e-04 6.4152623456377534e-03 0.0000000000000000e+00 0.0000000000000000e+00 0.0000000000000000e+00 0.0000000000000000e+00  6.1224118823589467e-03 -2.2208809470338552e-04 0.0000000000000000e+00 -2.2208809470338552e-04 6.0818520319353645e-03 0.0000000000000000e+00 0.0000000000000000e+00 0.0000000000000000e+00 0.0000000000000000e+00  5.7580823719429212e-03 -2.1901319343955628e-04 0.0000000000000000e+00 -2.1901319343955628e-04 5.7954263848365708e-03 0.0000000000000000e+00 0.0000000000000000e+00 0.0000000000000000e+00 0.0000000000000000e+00  5.4404068605573676e-03 -2.3161069482455812e-04 0.0000000000000000e+00 -2.3161069482455812e-04 5.4976408536743151e-03 0.0000000000000000e+00 0.0000000000000000e+00 0.0000000000000000e+00 0.0000000000000000e+00  5.0543476940745364e-03 -2.1718879456502391e-04 0.0000000000000000e+00 -2.1718879456502391e-04 5.1416728632564402e-03 0.0000000000000000e+00 0.0000000000000000e+00 0.0000000000000000e+00 0.0000000000000000e+00  4.6033034116135787e-03 -1.5949223792363054e-04 0.0000000000000000e+00 -1.5949223792363054e-04 4.6446028117523757e-03 0.0000000000000000e+00 0.0000000000000000e+00 0.0000000000000000e+00 0.0000000000000000e+00  4.3632051468614052e-03 -1.1622859548897422e-04 0.0000000000000000e+00 -1.1622859548897422e-04 4.3025625384202279e-03 0.0000000000000000e+00 0.0000000000000000e+00 0.0000000000000000e+00 0.0000000000000000e+00  4.1352417849169279e-03 -1.8390865822171375e-04 0.0000000000000000e+00 -1.8390865822171375e-04 4.1105769219762500e-03 0.0000000000000000e+00 0.0000000000000000e+00 0.0000000000000000e+00 0.0000000000000000e+00  3.8920245926774020e-03 -1.0491462970420055e-04 0.0000000000000000e+00 -1.0491462970420055e-04 3.9204981413397287e-03 0.0000000000000000e+00 0.0000000000000000e+00 0.0000000000000000e+00 0.0000000000000000e+00  3.5939451409864728e-03 -6.9026382209438360e-05 0.0000000000000000e+00 -6.9026382209438360e-05 3.6091073630117264e-03 0.0000000000000000e+00 0.0000000000000000e+00 0.0000000000000000e+00 0.0000000000000000e+00  3.4663544644837176e-03 -4.7894334510561902e-05 0.0000000000000000e+00 -4.7894334510561902e-05 3.3657322706828227e-03 0.0000000000000000e+00 0.0000000000000000e+00 0.0000000000000000e+00 0.0000000000000000e+00  3.1286021018916733e-03 1.2144610850296490e-04 0.0000000000000000e+00 1.2144610850296490e-04 2.9804984422867808e-03 0.0000000000000000e+00 0.0000000000000000e+00 0.0000000000000000e+00 0.0000000000000000e+00  3.2800656201245992e-03 -7.4872886111816722e-06 0.0000000000000000e+00 -7.4872886111816722e-06 3.1194183696633274e-03 0.0000000000000000e+00 0.0000000000000000e+00 0.0000000000000000e+00 0.0000000000000000e+00  2.9186959222355681e-03 -1.1911941365153265e-05 0.0000000000000000e+00 -1.1911941365153265e-05 2.7471881223796934e-03 0.0000000000000000e+00 0.0000000000000000e+00 0.0000000000000000e+00 0.0000000000000000e+00  2.8180013198597503e-03 2.0627445587464967e-05 0.0000000000000000e+00 2.0627445587464967e-05 2.8008021218347040e-03 0.0000000000000000e+00 0.0000000000000000e+00 0.0000000000000000e+00 0.0000000000000000e+00  2.7457942874581560e-03 2.5510539143391811e-05 0.0000000000000000e+00 2.5510539143391811e-05 2.6576888296667204e-03 0.0000000000000000e+00 0.0000000000000000e+00 0.0000000000000000e+00 0.0000000000000000e+00  2.6654141716398036e-03 1.5769270306376279e-05 0.0000000000000000e+00 1.5769270306376279e-05 2.5975713873842153e-03 0.0000000000000000e+00 0.0000000000000000e+00 0.0000000000000000e+00 0.0000000000000000e+00  2.6237829975024039e-03 2.9047106102813918e-05 0.0000000000000000e+00 2.9047106102813918e-05 2.5609192054786918e-03 0.0000000000000000e+00 0.0000000000000000e+00 0.0000000000000000e+00 0.0000000000000000e+00  2.5954046872683190e-03 2.6404738669849839e-05 0.0000000000000000e+00 2.6404738669849839e-05 2.5306381331068762e-03 0.0000000000000000e+00 0.0000000000000000e+00 0.0000000000000000e+00 0.0000000000000000e+00  2.5699277726057845e-03 2.1634821028501878e-05 0.0000000000000000e+00 2.1634821028501878e-05 2.5098317311535515e-03 0.0000000000000000e+00 0.0000000000000000e+00 0.0000000000000000e+00 0.0000000000000000e+00  2.5497926129058146e-03 2.0621198057268205e-05 0.0000000000000000e+00 2.0621198057268205e-05 2.4968532845612928e-03 0.0000000000000000e+00 0.0000000000000000e+00 0.0000000000000000e+00 0.0000000000000000e+00  2.5358851710660401e-03 1.8550501219299619e-05 0.0000000000000000e+00 1.8550501219299619e-05 2.4864470338916891e-03 0.0000000000000000e+00 0.0000000000000000e+00 0.0000000000000000e+00 0.0000000000000000e+00  2.5254341224861848e-03 1.6297919590151484e-05 0.0000000000000000e+00 1.6297919590151484e-05 2.4771516952960689e-03 0.0000000000000000e+00 0.0000000000000000e+00 0.0000000000000000e+00 0.0000000000000000e+00  2.5183253607369300e-03 1.3083345934878767e-05 0.0000000000000000e+00 1.3083345934878767e-05 2.4694944083096188e-03 0.0000000000000000e+00 0.0000000000000000e+00 0.0000000000000000e+00 0.0000000000000000e+00  2.5135436798567898e-03 9.2083180798129539e-06 0.0000000000000000e+00 9.2083180798129539e-06 2.4635347274205126e-03 0.0000000000000000e+00 0.0000000000000000e+00 0.0000000000000000e+00 0.0000000000000000e+00  2.5107087308764479e-03 4.7953396771845476e-06 0.0000000000000000e+00 4.7953396771845476e-06 2.4598080562921927e-03 0.0000000000000000e+00 0.0000000000000000e+00 0.0000000000000000e+00 0.0000000000000000e+00  2.5094489993970023e-03 1.1316354967083728e-07 0.0000000000000000e+00 1.1316354967083728e-07 2.4585565832601626e-03 0.0000000000000000e+00 0.0000000000000000e+00 0.0000000000000000e+00 0.0000000000000000e+00  2.5096530250567559e-03 -4.5386818127936308e-06 0.0000000000000000e+00 -4.5386818127936308e-06 2.4598633913119894e-03 0.0000000000000000e+00 0.0000000000000000e+00 0.0000000000000000e+00 0.0000000000000000e+00  2.5113755523468212e-03 -8.8720669928939466e-06 0.0000000000000000e+00 -8.8720669928939466e-06 2.4635015775112271e-03 0.0000000000000000e+00 0.0000000000000000e+00 0.0000000000000000e+00 0.0000000000000000e+00  2.5149036902337085e-03 -1.2618330988186873e-05 0.0000000000000000e+00 -1.2618330988186873e-05 2.4690930869813907e-03 0.0000000000000000e+00 0.0000000000000000e+00 0.0000000000000000e+00 0.0000000000000000e+00  2.5206493503644144e-03 -1.5667999157761710e-05 0.0000000000000000e+00 -1.5667999157761710e-05 2.4758881229165080e-03 0.0000000000000000e+00 0.0000000000000000e+00 0.0000000000000000e+00 0.0000000000000000e+00  2.5294268523333749e-03 -1.7753519255538250e-05 0.0000000000000000e+00 -1.7753519255538250e-05 2.4838899943876451e-03 0.0000000000000000e+00 0.0000000000000000e+00 0.0000000000000000e+00 0.0000000000000000e+00  2.5416608956736688e-03 -1.9206814038296578e-05 0.0000000000000000e+00 -1.9206814038296578e-05 2.4919676138992434e-03 0.0000000000000000e+00 0.0000000000000000e+00 0.0000000000000000e+00 0.0000000000000000e+00  2.5609181881533494e-03 -2.0023656474613817e-05 0.0000000000000000e+00 -2.0023656474613817e-05 2.5019511310412361e-03 0.0000000000000000e+00 0.0000000000000000e+00 0.0000000000000000e+00 0.0000000000000000e+00  2.5811306080424355e-03 -1.7079973703692725e-05 0.0000000000000000e+00 -1.7079973703692725e-05 2.5314109429325975e-03 0.0000000000000000e+00 0.0000000000000000e+00 0.0000000000000000e+00 0.0000000000000000e+00  2.6315722876897106e-03 -1.9105945625272464e-05 0.0000000000000000e+00 -1.9105945625272464e-05 2.5382458954218453e-03 0.0000000000000000e+00 0.0000000000000000e+00 0.0000000000000000e+00 0.0000000000000000e+00  2.6968827917933482e-03 -1.5408615555667862e-05 0.0000000000000000e+00 -1.5408615555667862e-05 2.6607200539251171e-03 0.0000000000000000e+00 0.0000000000000000e+00 0.0000000000000000e+00 0.0000000000000000e+00  2.7726704266299780e-03 -2.7008056936983789e-06 0.0000000000000000e+00 -2.7008056936983789e-06 2.7165374675232300e-03 0.0000000000000000e+00 0.0000000000000000e+00 0.0000000000000000e+00 0.0000000000000000e+00  2.9139055283911733e-03 -5.2910446019232567e-05 0.0000000000000000e+00 -5.2910446019232567e-05 2.8076657589052121e-03 0.0000000000000000e+00 0.0000000000000000e+00 0.0000000000000000e+00 0.0000000000000000e+00  3.2110399033584433e-03 5.1932915851194745e-05 0.0000000000000000e+00 5.1932915851194745e-05 3.1746785428670779e-03 0.0000000000000000e+00 0.0000000000000000e+00 0.0000000000000000e+00 0.0000000000000000e+00  3.1873121807503000e-03 -8.7137336165156207e-05 0.0000000000000000e+00 -8.7137336165156207e-05 2.9693131242376804e-03 0.0000000000000000e+00 0.0000000000000000e+00 0.0000000000000000e+00 0.0000000000000000e+00  3.2377424754519895e-03 -4.3388126898513384e-05 0.0000000000000000e+00 -4.3388126898513391e-05 3.1626200500149419e-03 0.0000000000000000e+00 0.0000000000000000e+00 0.0000000000000000e+00 0.0000000000000000e+00  3.6289864521071385e-03 5.1970485820665542e-05 0.0000000000000000e+00 5.1970485820665556e-05 3.6593573485293189e-03 0.0000000000000000e+00 0.0000000000000000e+00 0.0000000000000000e+00 0.0000000000000000e+00  3.8242518671753084e-03 8.9244294029406645e-05 0.0000000000000000e+00 8.9244294029406645e-05 3.8185720648804431e-03 0.0000000000000000e+00 0.0000000000000000e+00 0.0000000000000000e+00 0.0000000000000000e+00  3.9776653522434167e-03 1.3530833135762019e-04 0.0000000000000000e+00 1.3530833135762019e-04 3.9556702123266828e-03 0.0000000000000000e+00 0.0000000000000000e+00 0.0000000000000000e+00 0.0000000000000000e+00  4.1431100321370909e-03 1.0749608857154398e-04 0.0000000000000000e+00 1.0749608857154398e-04 4.0287283665012682e-03 0.0000000000000000e+00 0.0000000000000000e+00 0.0000000000000000e+00 0.0000000000000000e+00  4.3167180456457023e-03 1.0234807280414054e-04 0.0000000000000000e+00 1.0234807280414054e-04 4.2824229717858464e-03 0.0000000000000000e+00 0.0000000000000000e+00 0.0000000000000000e+00 0.0000000000000000e+00  4.7346353618553383e-03 1.9085773525836570e-04 0.0000000000000000e+00 1.9085773525836570e-04 4.8182906603875062e-03 0.0000000000000000e+00 0.0000000000000000e+00 0.0000000000000000e+00 0.0000000000000000e+00  5.1188359376456525e-03 2.3385048145053584e-04 0.0000000000000000e+00 2.3385048145053584e-04 5.1895292519694757e-03 0.0000000000000000e+00 0.0000000000000000e+00 0.0000000000000000e+00 0.0000000000000000e+00  5.4848244394423047e-03 2.4161066865676555e-04 0.0000000000000000e+00 2.4161066865676555e-04 5.5408681079006285e-03 0.0000000000000000e+00 0.0000000000000000e+00 0.0000000000000000e+00 0.0000000000000000e+00  5.8306512998732478e-03 2.2285480288084523e-04 0.0000000000000000e+00 2.2285480288084523e-04 5.8367658291949235e-03 0.0000000000000000e+00 0.0000000000000000e+00 0.0000000000000000e+00 0.0000000000000000e+00  6.2670949861506099e-03 1.7697570136608072e-04 0.0000000000000000e+00 1.7697570136608072e-04 6.2061928455171399e-03 0.0000000000000000e+00 0.0000000000000000e+00 0.0000000000000000e+00 0.0000000000000000e+00  6.5542050086324069e-03 4.2070542176578002e-05 0.0000000000000000e+00 4.2070542176578002e-05 6.5640314901370669e-03 0.0000000000000000e+00 0.0000000000000000e+00 0.0000000000000000e+00 0.0000000000000000e+00  6.8171878532512437e-03 5.3415521932164869e-05 0.0000000000000000e+00 5.3415521932164869e-05 6.9037032163953736e-03 0.0000000000000000e+00 0.0000000000000000e+00 0.0000000000000000e+00 0.0000000000000000e+00  6.9871214693002278e-03 2.4664190490629153e-05 0.0000000000000000e+00 2.4664190490629153e-05 7.0877086724839521e-03 0.0000000000000000e+00 0.0000000000000000e+00 0.0000000000000000e+00 0.0000000000000000e+00  7.0107173307195200e-03 2.6334088909359180e-05 0.0000000000000000e+00 2.6334088909359180e-05 7.0425769857773738e-03 0.0000000000000000e+00 0.0000000000000000e+00 0.0000000000000000e+00 0.0000000000000000e+00  7.1016266269288740e-03 2.8453891207508209e-05 0.0000000000000000e+00 2.8453891207508209e-05 7.2169065081699353e-03 0.0000000000000000e+00 0.0000000000000000e+00 0.0000000000000000e+00 0.0000000000000000e+00  7.2281625090768516e-03 -9.3281028354001391e-06 0.0000000000000000e+00 -9.3281028354001391e-06 7.3615464048909195e-03 0.0000000000000000e+00 0.0000000000000000e+00 0.0000000000000000e+00 0.0000000000000000e+00  7.2564868502217406e-03 -3.6399319246720966e-05 0.0000000000000000e+00 -3.6399319246720966e-05 7.3897776592488293e-03 0.0000000000000000e+00 0.0000000000000000e+00 0.0000000000000000e+00 0.0000000000000000e+00  7.2731131761706799e-03 -2.5684852394872798e-05 0.0000000000000000e+00 -2.5684852394872798e-05 7.3626574869377738e-03 0.0000000000000000e+00 0.0000000000000000e+00 0.0000000000000000e+00 0.0000000000000000e+00  7.3184509083609427e-03 -3.5135741800324178e-05 0.0000000000000000e+00 -3.5135741800324178e-05 7.4209881409680713e-03 0.0000000000000000e+00 0.0000000000000000e+00 0.0000000000000000e+00 0.0000000000000000e+00  7.3542621781530933e-03 -3.2644272102345370e-05 0.0000000000000000e+00 -3.2644272102345370e-05 7.4243278609941749e-03 0.0000000000000000e+00 0.0000000000000000e+00 0.0000000000000000e+00 0.0000000000000000e+00  7.3811617178515324e-03 -2.8572437136331998e-05 0.0000000000000000e+00 -2.8572437136331998e-05 7.4409172122506910e-03 0.0000000000000000e+00 0.0000000000000000e+00 0.0000000000000000e+00 0.0000000000000000e+00  7.4097802248421912e-03 -2.7620394681363485e-05 0.0000000000000000e+00 -2.7620394681363485e-05 7.4699209526322913e-03 0.0000000000000000e+00 0.0000000000000000e+00 0.0000000000000000e+00 0.0000000000000000e+00  7.4338564428392540e-03 -2.5426621100868433e-05 0.0000000000000000e+00 -2.5426621100868433e-05 7.4866895017007056e-03 0.0000000000000000e+00 0.0000000000000000e+00 0.0000000000000000e+00 0.0000000000000000e+00  7.4534941065520196e-03 -2.3215871414359898e-05 0.0000000000000000e+00 -2.3215871414359898e-05 7.5012705328092672e-03 0.0000000000000000e+00 0.0000000000000000e+00 0.0000000000000000e+00 0.0000000000000000e+00  7.4692452491426781e-03 -2.1698028206729315e-05 0.0000000000000000e+00 -2.1698028206729315e-05 7.5137442151001236e-03 0.0000000000000000e+00 0.0000000000000000e+00 0.0000000000000000e+00 0.0000000000000000e+00  7.4814616440402942e-03 -1.9190347969004791e-05 0.0000000000000000e+00 -1.9190347969004791e-05 7.5239872678693406e-03 0.0000000000000000e+00 0.0000000000000000e+00 0.0000000000000000e+00 0.0000000000000000e+00  7.4913391107439206e-03 -1.6544007304701636e-05 0.0000000000000000e+00 -1.6544007304701636e-05 7.5319636094518822e-03 0.0000000000000000e+00 0.0000000000000000e+00 0.0000000000000000e+00 0.0000000000000000e+00  7.4990368965462744e-03 -1.3654200767305426e-05 0.0000000000000000e+00 -1.3654200767305426e-05 7.5375756148486506e-03 0.0000000000000000e+00 0.0000000000000000e+00 0.0000000000000000e+00 0.0000000000000000e+00  7.5050158305866917e-03 -1.0745721290089733e-05 0.0000000000000000e+00 -1.0745721290089733e-05 7.5410117431946250e-03 0.0000000000000000e+00 0.0000000000000000e+00 0.0000000000000000e+00 0.0000000000000000e+00  7.5095590174820677e-03 -7.8385932672734748e-06 0.0000000000000000e+00 -7.8385932672734748e-06 7.5423043325120159e-03 0.0000000000000000e+00 0.0000000000000000e+00 0.0000000000000000e+00 0.0000000000000000e+00  7.5130418700973759e-03 -4.9966431752508617e-06 0.0000000000000000e+00 -4.9966431752508617e-06 7.5415257538967518e-03 0.0000000000000000e+00 0.0000000000000000e+00 0.0000000000000000e+00 0.0000000000000000e+00  7.5158362336282874e-03 -2.2984008977999456e-06 0.0000000000000000e+00 -2.2984008977999456e-06 7.5387797333126769e-03 0.0000000000000000e+00 0.0000000000000000e+00 0.0000000000000000e+00 0.0000000000000000e+00  7.5182874316372149e-03 8.6219977253239448e-08 0.0000000000000000e+00 8.6219977253239448e-08 7.5343505262529505e-03 0.0000000000000000e+00 0.0000000000000000e+00 0.0000000000000000e+00 0.0000000000000000e+00  7.5205493264358970e-03 1.6799817812431218e-06 0.0000000000000000e+00 1.6799817812431218e-06 7.5288303880846992e-03 0.0000000000000000e+00 0.0000000000000000e+00 0.0000000000000000e+00 0.0000000000000000e+00  7.5226556861914089e-03 9.4319272843986645e-07 0.0000000000000000e+00 9.4319272843986645e-07 7.5227161587691450e-03 0.0000000000000000e+00 0.0000000000000000e+00 0.0000000000000000e+00 0.0000000000000000e+00  7.5834778101799907e-03 2.2425063406536554e-07 0.0000000000000000e+00 2.2425063406536554e-07 7.5830862714618159e-03 0.0000000000000000e+00 0.0000000000000000e+00 0.0000000000000000e+00 0.0000000000000000e+00  7.5825612435004731e-03 3.4767206846131086e-09 0.0000000000000000e+00 3.4767206846131086e-09 7.5859240746276556e-03 0.0000000000000000e+00 0.0000000000000000e+00 0.0000000000000000e+00 0.0000000000000000e+00  7.5813494283303480e-03 1.8770946271918677e-06 0.0000000000000000e+00 1.8770946271918677e-06 7.5907541190157659e-03 0.0000000000000000e+00 0.0000000000000000e+00 0.0000000000000000e+00 0.0000000000000000e+00  7.5802111806469886e-03 4.7186979256261151e-06 0.0000000000000000e+00 4.7186979256261151e-06 7.5949042044903209e-03 0.0000000000000000e+00 0.0000000000000000e+00 0.0000000000000000e+00 0.0000000000000000e+00  7.5785254287416733e-03 8.3442228504311476e-06 0.0000000000000000e+00 8.3442228504311476e-06 7.5973645118003882e-03 0.0000000000000000e+00 0.0000000000000000e+00 0.0000000000000000e+00 0.0000000000000000e+00  7.5756916268987385e-03 1.2595838124952372e-05 0.0000000000000000e+00 1.2595838124952372e-05 7.5977620701269434e-03 0.0000000000000000e+00 0.0000000000000000e+00 0.0000000000000000e+00 0.0000000000000000e+00  7.5712071393390116e-03 1.7348680933018417e-05 0.0000000000000000e+00 1.7348680933018417e-05 7.5959415424706866e-03 0.0000000000000000e+00 0.0000000000000000e+00 0.0000000000000000e+00 0.0000000000000000e+00  7.5646334249272222e-03 2.2525694021983643e-05 0.0000000000000000e+00 2.2525694021983643e-05 7.5917885112677403e-03 0.0000000000000000e+00 0.0000000000000000e+00 0.0000000000000000e+00 0.0000000000000000e+00  7.5555454763652436e-03 2.8079189235444717e-05 0.0000000000000000e+00 2.8079189235444717e-05 7.5850984371162418e-03 0.0000000000000000e+00 0.0000000000000000e+00 0.0000000000000000e+00 0.0000000000000000e+00  7.5435378392499216e-03 3.4028855174430449e-05 0.0000000000000000e+00 3.4028855174430449e-05 7.5755759130050398e-03 0.0000000000000000e+00 0.0000000000000000e+00 0.0000000000000000e+00 0.0000000000000000e+00  7.5281486512894938e-03 4.0308939826087953e-05 0.0000000000000000e+00 4.0308939826087953e-05 7.5627038383758553e-03 0.0000000000000000e+00 0.0000000000000000e+00 0.0000000000000000e+00 0.0000000000000000e+00  7.5089529385494458e-03 4.6930831073098143e-05 0.0000000000000000e+00 4.6930831073098143e-05 7.5461444687409951e-03 0.0000000000000000e+00 0.0000000000000000e+00 0.0000000000000000e+00 0.0000000000000000e+00  7.4848347279482183e-03 5.3835104919289045e-05 0.0000000000000000e+00 5.3835104919289045e-05 7.5256569023080221e-03 0.0000000000000000e+00 0.0000000000000000e+00 0.0000000000000000e+00 0.0000000000000000e+00  7.4561691811499305e-03 6.2281821648666309e-05 0.0000000000000000e+00 6.2281821648666309e-05 7.5010665371992935e-03 0.0000000000000000e+00 0.0000000000000000e+00 0.0000000000000000e+00 0.0000000000000000e+00  7.4242265468560387e-03 6.9642421278520757e-05 0.0000000000000000e+00 6.9642421278520757e-05 7.4736224305418150e-03 0.0000000000000000e+00 0.0000000000000000e+00 0.0000000000000000e+00 0.0000000000000000e+00  7.3901256573472044e-03 8.4355142613934078e-05 0.0000000000000000e+00 8.4355142613934078e-05 7.4575258521248616e-03 0.0000000000000000e+00 0.0000000000000000e+00 0.0000000000000000e+00 0.0000000000000000e+00  7.3536816952856692e-03 7.9402289575274156e-05 0.0000000000000000e+00 7.9402289575274156e-05 7.4325277992802813e-03 0.0000000000000000e+00 0.0000000000000000e+00 0.0000000000000000e+00 0.0000000000000000e+00  7.3047046319901507e-03 1.0581192233006719e-04 0.0000000000000000e+00 1.0581192233006719e-04 7.4278672282224612e-03 0.0000000000000000e+00 0.0000000000000000e+00 0.0000000000000000e+00 0.0000000000000000e+00  7.2802264518436934e-03 1.4854396061600143e-04 0.0000000000000000e+00 1.4854396061600143e-04 7.3820052274173693e-03 0.0000000000000000e+00 0.0000000000000000e+00 0.0000000000000000e+00 0.0000000000000000e+00  7.2210451860331018e-03 6.4135528801652242e-05 0.0000000000000000e+00 6.4135528801652242e-05 7.3286487484574012e-03 0.0000000000000000e+00 0.0000000000000000e+00 0.0000000000000000e+00 0.0000000000000000e+00  7.0618676388253376e-03 1.3016040087668418e-04 0.0000000000000000e+00 1.3016040087668418e-04 7.2060152311070273e-03 0.0000000000000000e+00 0.0000000000000000e+00 0.0000000000000000e+00 0.0000000000000000e+00  6.9683753401105185e-03 1.7905337274927823e-04 0.0000000000000000e+00 1.7905337274927823e-04 7.1532290988999625e-03 0.0000000000000000e+00 0.0000000000000000e+00 0.0000000000000000e+00 0.0000000000000000e+00  6.8393214491814158e-03 1.6884427056693284e-04 0.0000000000000000e+00 1.6884427056693284e-04 6.9972630171544811e-03 0.0000000000000000e+00 0.0000000000000000e+00 0.0000000000000000e+00 0.0000000000000000e+00  6.6114465685467982e-03 1.7232203710170171e-04 0.0000000000000000e+00 1.7232203710170171e-04 6.7412367729444214e-03 0.0000000000000000e+00 0.0000000000000000e+00 0.0000000000000000e+00 0.0000000000000000e+00  6.3298581475920426e-03 1.0308637007674260e-04 0.0000000000000000e+00 1.0308637007674260e-04 6.4219068660562543e-03 0.0000000000000000e+00 0.0000000000000000e+00 0.0000000000000000e+00 0.0000000000000000e+00  5.9923094056571332e-03 1.4156706653676166e-04 0.0000000000000000e+00 1.4156706653676166e-04 6.1055200491767431e-03 0.0000000000000000e+00 0.0000000000000000e+00 0.0000000000000000e+00 0.0000000000000000e+00  5.6992768991491151e-03 1.7069100572198148e-04 0.0000000000000000e+00 1.7069100572198148e-04 5.7964442859194283e-03 0.0000000000000000e+00 0.0000000000000000e+00 0.0000000000000000e+00 0.0000000000000000e+00  5.3716164448330403e-03 1.6436605967311843e-04 0.0000000000000000e+00 1.6436605967311843e-04 5.4276021994148519e-03 0.0000000000000000e+00 0.0000000000000000e+00 0.0000000000000000e+00 0.0000000000000000e+00  4.9977492554730820e-03 1.6668130565679662e-04 0.0000000000000000e+00 1.6668130565679662e-04 5.0070047108551384e-03 0.0000000000000000e+00 0.0000000000000000e+00 0.0000000000000000e+00 0.0000000000000000e+00  4.6306839755293466e-03 1.5352720296947270e-04 0.0000000000000000e+00 1.5352720296947270e-04 4.5777278025783902e-03 0.0000000000000000e+00 0.0000000000000000e+00 0.0000000000000000e+00 0.0000000000000000e+00  4.2244027529966619e-03 1.6886895507959099e-04 0.0000000000000000e+00 1.6886895507959099e-04 4.1603904857208983e-03 0.0000000000000000e+00 0.0000000000000000e+00 0.0000000000000000e+00 0.0000000000000000e+00  4.0342229895693393e-03 1.6251984271841609e-04 0.0000000000000000e+00 1.6251984271841609e-04 3.9072961545230829e-03 0.0000000000000000e+00 0.0000000000000000e+00 0.0000000000000000e+00 0.0000000000000000e+00  3.8687431756087524e-03 1.7996641795909403e-04 0.0000000000000000e+00 1.7996641795909403e-04 3.7294502413339325e-03 0.0000000000000000e+00 0.0000000000000000e+00 0.0000000000000000e+00 0.0000000000000000e+00  3.6600638742240658e-03 1.1791251053485497e-04 0.0000000000000000e+00 1.1791251053485497e-04 3.5148245279922607e-03 0.0000000000000000e+00 0.0000000000000000e+00 0.0000000000000000e+00 0.0000000000000000e+00  3.3395214916645674e-03 9.8479547241667892e-05 0.0000000000000000e+00 9.8479547241667892e-05 3.2316210655445152e-03 0.0000000000000000e+00 0.0000000000000000e+00 0.0000000000000000e+00 0.0000000000000000e+00  3.1438094299046579e-03 1.4354277497367671e-04 0.0000000000000000e+00 1.4354277497367671e-04 3.0131498523882768e-03 0.0000000000000000e+00 0.0000000000000000e+00 0.0000000000000000e+00 0.0000000000000000e+00  2.9908474081578452e-03 9.5999117736454646e-05 0.0000000000000000e+00 9.5999117736454646e-05 2.9535915585063651e-03 0.0000000000000000e+00 0.0000000000000000e+00 0.0000000000000000e+00 0.0000000000000000e+00  2.8796770847720064e-03 8.8204749947812792e-05 0.0000000000000000e+00 8.8204749947812792e-05 2.7854455152253261e-03 0.0000000000000000e+00 0.0000000000000000e+00 0.0000000000000000e+00 0.0000000000000000e+00  2.7560181010062731e-03 7.7305850090083524e-05 0.0000000000000000e+00 7.7305850090083524e-05 2.6962398495622413e-03 0.0000000000000000e+00 0.0000000000000000e+00 0.0000000000000000e+00 0.0000000000000000e+00  2.6976496424845182e-03 7.7517929718920676e-05 0.0000000000000000e+00 7.7517929718920676e-05 2.6483229911438751e-03 0.0000000000000000e+00 0.0000000000000000e+00 0.0000000000000000e+00 0.0000000000000000e+00  2.6473917422220688e-03 6.5804474289605347e-05 0.0000000000000000e+00 6.5804474289605347e-05 2.5899681642520549e-03 0.0000000000000000e+00 0.0000000000000000e+00 0.0000000000000000e+00 0.0000000000000000e+00  2.6068628237216132e-03 5.9039607732003605e-05 0.0000000000000000e+00 5.9039607732003605e-05 2.5597842239297166e-03 0.0000000000000000e+00 0.0000000000000000e+00 0.0000000000000000e+00 0.0000000000000000e+00  2.5779817136829647e-03 5.2037613091661698e-05 0.0000000000000000e+00 5.2037613091661698e-05 2.5344968746286939e-03 0.0000000000000000e+00 0.0000000000000000e+00 0.0000000000000000e+00 0.0000000000000000e+00  2.5547789079565226e-03 4.4098186286373395e-05 0.0000000000000000e+00 4.4098186286373395e-05 2.5146580796417822e-03 0.0000000000000000e+00 0.0000000000000000e+00 0.0000000000000000e+00 0.0000000000000000e+00  2.5359532649577845e-03 3.7074897662343286e-05 0.0000000000000000e+00 3.7074897662343286e-05 2.5008813512087686e-03 0.0000000000000000e+00 0.0000000000000000e+00 0.0000000000000000e+00 0.0000000000000000e+00  2.5215157942308436e-03 3.1065006455783643e-05 0.0000000000000000e+00 3.1065006455783643e-05 2.4903244770757707e-03 0.0000000000000000e+00 0.0000000000000000e+00 0.0000000000000000e+00 0.0000000000000000e+00  2.5109492626901497e-03 2.5180643718812083e-05 0.0000000000000000e+00 2.5180643718812083e-05 2.4815408625994562e-03 0.0000000000000000e+00 0.0000000000000000e+00 0.0000000000000000e+00 0.0000000000000000e+00  2.5032931369129816e-03 1.9280682462383249e-05 0.0000000000000000e+00 1.9280682462383249e-05 2.4742447201368603e-03 0.0000000000000000e+00 0.0000000000000000e+00 0.0000000000000000e+00 0.0000000000000000e+00  2.4980683756337437e-03 1.3189423647963985e-05 0.0000000000000000e+00 1.3189423647963985e-05 2.4687104728708152e-03 0.0000000000000000e+00 0.0000000000000000e+00 0.0000000000000000e+00 0.0000000000000000e+00  2.4949007613099222e-03 6.9279456415596449e-06 0.0000000000000000e+00 6.9279456415596449e-06 2.4652298847602921e-03 0.0000000000000000e+00 0.0000000000000000e+00 0.0000000000000000e+00 0.0000000000000000e+00  2.4936053785387020e-03 5.8811029044169791e-07 0.0000000000000000e+00 5.8811029044169791e-07 2.4640449368269735e-03 0.0000000000000000e+00 0.0000000000000000e+00 0.0000000000000000e+00 0.0000000000000000e+00  2.4940845762554281e-03 -5.6838060792046451e-06 0.0000000000000000e+00 -5.6838060792046451e-06 2.4651927939457045e-03 0.0000000000000000e+00 0.0000000000000000e+00 0.0000000000000000e+00 0.0000000000000000e+00  2.4963389073198957e-03 -1.1745420145668821e-05 0.0000000000000000e+00 -1.1745420145668821e-05 2.4685032383913899e-03 0.0000000000000000e+00 0.0000000000000000e+00 0.0000000000000000e+00 0.0000000000000000e+00  2.5004662202923762e-03 -1.7520655956067236e-05 0.0000000000000000e+00 -1.7520655956067236e-05 2.4735883333058782e-03 0.0000000000000000e+00 0.0000000000000000e+00 0.0000000000000000e+00 0.0000000000000000e+00  2.5067365349724733e-03 -2.3019260575303476e-05 0.0000000000000000e+00 -2.3019260575303476e-05 2.4800236447910609e-03 0.0000000000000000e+00 0.0000000000000000e+00 0.0000000000000000e+00 0.0000000000000000e+00  2.5155938859023957e-03 -2.8420076220556683e-05 0.0000000000000000e+00 -2.8420076220556683e-05 2.4872957638386616e-03 0.0000000000000000e+00 0.0000000000000000e+00 0.0000000000000000e+00 0.0000000000000000e+00  2.5280979333640228e-03 -3.4020121636837744e-05 0.0000000000000000e+00 -3.4020121636837744e-05 2.4955662174414714e-03 0.0000000000000000e+00 0.0000000000000000e+00 0.0000000000000000e+00 0.0000000000000000e+00  2.5445838974708346e-03 -4.0253153763731798e-05 0.0000000000000000e+00 -4.0253153763731798e-05 2.5057735231783741e-03 0.0000000000000000e+00 0.0000000000000000e+00 0.0000000000000000e+00 0.0000000000000000e+00  2.5689898271385471e-03 -4.6009120754051804e-05 0.0000000000000000e+00 -4.6009120754051804e-05 2.5196116304096179e-03 0.0000000000000000e+00 0.0000000000000000e+00 0.0000000000000000e+00 0.0000000000000000e+00  2.6054159526550480e-03 -5.6830118940619733e-05 0.0000000000000000e+00 -5.6830118940619733e-05 2.5449144040980524e-03 0.0000000000000000e+00 0.0000000000000000e+00 0.0000000000000000e+00 0.0000000000000000e+00  2.6504426822124257e-03 -5.8066724251245974e-05 0.0000000000000000e+00 -5.8066724251245974e-05 2.5923561099565613e-03 0.0000000000000000e+00 0.0000000000000000e+00 0.0000000000000000e+00 0.0000000000000000e+00  2.7273511504124050e-03 -8.4398228706022898e-05 0.0000000000000000e+00 -8.4398228706022898e-05 2.6591920183797022e-03 0.0000000000000000e+00 0.0000000000000000e+00 0.0000000000000000e+00 0.0000000000000000e+00  2.8163453479024486e-03 -8.3924286984803887e-05 0.0000000000000000e+00 -8.3924286984803887e-05 2.7835674277695678e-03 0.0000000000000000e+00 0.0000000000000000e+00 0.0000000000000000e+00 0.0000000000000000e+00  2.9715901812454280e-03 -5.6267953435502026e-05 0.0000000000000000e+00 -5.6267953435502026e-05 2.9399516611918280e-03 0.0000000000000000e+00 0.0000000000000000e+00 0.0000000000000000e+00 0.0000000000000000e+00  3.0699620181748139e-03 -1.8295977556589252e-04 0.0000000000000000e+00 -1.8295977556589252e-04 2.9873843137878209e-03 0.0000000000000000e+00 0.0000000000000000e+00 0.0000000000000000e+00 0.0000000000000000e+00  3.2312031202873753e-03 -1.1603294382606185e-04 0.0000000000000000e+00 -1.1603294382606185e-04 3.1769563087899340e-03 0.0000000000000000e+00 0.0000000000000000e+00 0.0000000000000000e+00 0.0000000000000000e+00  3.4872286922850177e-03 -8.6483641618274385e-05 0.0000000000000000e+00 -8.6483641618274385e-05 3.4798916283076179e-03 0.0000000000000000e+00 0.0000000000000000e+00 0.0000000000000000e+00 0.0000000000000000e+00  3.7456685054623080e-03 -1.0025747464110233e-04 0.0000000000000000e+00 -1.0025747464110233e-04 3.6639240011548447e-03 0.0000000000000000e+00 0.0000000000000000e+00 0.0000000000000000e+00 0.0000000000000000e+00  3.8968573005032183e-03 -1.5170722359529983e-04 0.0000000000000000e+00 -1.5170722359529983e-04 3.7296572453172400e-03 0.0000000000000000e+00 0.0000000000000000e+00 0.0000000000000000e+00 0.0000000000000000e+00  3.9960947791960440e-03 -2.0237483529390084e-04 0.0000000000000000e+00 -2.0237483529390084e-04 3.9017659049767591e-03 0.0000000000000000e+00 0.0000000000000000e+00 0.0000000000000000e+00 0.0000000000000000e+00  4.3601910393730988e-03 -1.5599370143539343e-04 0.0000000000000000e+00 -1.5599370143539343e-04 4.2976076054115370e-03 0.0000000000000000e+00 0.0000000000000000e+00 0.0000000000000000e+00 0.0000000000000000e+00  4.7289986144362934e-03 -1.6103034664947420e-04 0.0000000000000000e+00 -1.6103034664947420e-04 4.7055038529447988e-03 0.0000000000000000e+00 0.0000000000000000e+00 0.0000000000000000e+00 0.0000000000000000e+00  5.0915370716470825e-03 -1.5399859228926855e-04 0.0000000000000000e+00 -1.5399859228926855e-04 5.1050273824961188e-03 0.0000000000000000e+00 0.0000000000000000e+00 0.0000000000000000e+00 0.0000000000000000e+00  5.4378041891221616e-03 -1.5361325643930269e-04 0.0000000000000000e+00 -1.5361325643930269e-04 5.4954458990610590e-03 0.0000000000000000e+00 0.0000000000000000e+00 0.0000000000000000e+00 0.0000000000000000e+00  5.7563977400361694e-03 -1.3575802575600658e-04 0.0000000000000000e+00 -1.3575802575600658e-04 5.7935025368147947e-03 0.0000000000000000e+00 0.0000000000000000e+00 0.0000000000000000e+00 0.0000000000000000e+00  6.0220527621930300e-03 -1.4981454869629319e-04 0.0000000000000000e+00 -1.4981454869629319e-04 6.1733505351597604e-03 0.0000000000000000e+00 0.0000000000000000e+00 0.0000000000000000e+00 0.0000000000000000e+00  6.3312623874254336e-03 -1.6359467575353327e-04 0.0000000000000000e+00 -1.6359467575353327e-04 6.4995465224392066e-03 0.0000000000000000e+00 0.0000000000000000e+00 0.0000000000000000e+00 0.0000000000000000e+00  6.6074831379491633e-03 -1.4645926078054713e-04 0.0000000000000000e+00 -1.4645926078054713e-04 6.7631161549845274e-03 0.0000000000000000e+00 0.0000000000000000e+00 0.0000000000000000e+00 0.0000000000000000e+00  6.8255125677558447e-03 -1.3633297551795292e-04 0.0000000000000000e+00 -1.3633297551795292e-04 6.9489647123963348e-03 0.0000000000000000e+00 0.0000000000000000e+00 0.0000000000000000e+00 0.0000000000000000e+00  6.8922542116301852e-03 -1.5504191496494121e-04 0.0000000000000000e+00 -1.5504191496494121e-04 6.9758920501651013e-03 0.0000000000000000e+00 0.0000000000000000e+00 0.0000000000000000e+00 0.0000000000000000e+00  6.9692624240116439e-03 -1.2155455478331991e-04 0.0000000000000000e+00 -1.2155455478331991e-04 7.1269491193990753e-03 0.0000000000000000e+00 0.0000000000000000e+00 0.0000000000000000e+00 0.0000000000000000e+00  7.1120549768187314e-03 -1.0280589058527513e-04 0.0000000000000000e+00 -1.0280589058527513e-04 7.2671859207215231e-03 0.0000000000000000e+00 0.0000000000000000e+00 0.0000000000000000e+00 0.0000000000000000e+00  7.2011268476089487e-03 -1.0181703809850253e-04 0.0000000000000000e+00 -1.0181703809850253e-04 7.3163009981935057e-03 0.0000000000000000e+00 0.0000000000000000e+00 0.0000000000000000e+00 0.0000000000000000e+00  7.2631146229139212e-03 -8.7921778076966573e-05 0.0000000000000000e+00 -8.7921778076966573e-05 7.3339406784664312e-03 0.0000000000000000e+00 0.0000000000000000e+00 0.0000000000000000e+00 0.0000000000000000e+00  7.3132831389858093e-03 -7.9978153684696953e-05 0.0000000000000000e+00 -7.9978153684696953e-05 7.3806872794371630e-03 0.0000000000000000e+00 0.0000000000000000e+00 0.0000000000000000e+00 0.0000000000000000e+00  7.3591080893507946e-03 -6.8564662834110491e-05 0.0000000000000000e+00 -6.8564662834110491e-05 7.4142124281169116e-03 0.0000000000000000e+00 0.0000000000000000e+00 0.0000000000000000e+00 0.0000000000000000e+00  7.3945161234751375e-03 -6.1606659441225129e-05 0.0000000000000000e+00 -6.1606659441225129e-05 7.4379408312018952e-03 0.0000000000000000e+00 0.0000000000000000e+00 0.0000000000000000e+00 0.0000000000000000e+00  7.4225813039719892e-03 -5.4096685716289020e-05 0.0000000000000000e+00 -5.4096685716289020e-05 7.4627053018600162e-03 0.0000000000000000e+00 0.0000000000000000e+00 0.0000000000000000e+00 0.0000000000000000e+00  7.4464954836407308e-03 -4.7184854814225745e-05 0.0000000000000000e+00 -4.7184854814225745e-05 7.4822385647692847e-03 0.0000000000000000e+00 0.0000000000000000e+00 0.0000000000000000e+00 0.0000000000000000e+00  7.4659164974570005e-03 -4.1133073663980976e-05 0.0000000000000000e+00 -4.1133073663980976e-05 7.4974480092613108e-03 0.0000000000000000e+00 0.0000000000000000e+00 0.0000000000000000e+00 0.0000000000000000e+00  7.4813456720542078e-03 -3.5504958466476411e-05 0.0000000000000000e+00 -3.5504958466476411e-05 7.5099702143717993e-03 0.0000000000000000e+00 0.0000000000000000e+00 0.0000000000000000e+00 0.0000000000000000e+00  7.4935380613366147e-03 -3.0234386212772960e-05 0.0000000000000000e+00 -3.0234386212772960e-05 7.5201458903618413e-03 0.0000000000000000e+00 0.0000000000000000e+00 0.0000000000000000e+00 0.0000000000000000e+00  7.5030246995040619e-03 -2.5116725832164010e-05 0.0000000000000000e+00 -2.5116725832164010e-05 7.5280573544028980e-03 0.0000000000000000e+00 0.0000000000000000e+00 0.0000000000000000e+00 0.0000000000000000e+00  7.5102788609705956e-03 -2.0239624104612524e-05 0.0000000000000000e+00 -2.0239624104612524e-05 7.5337734913048324e-03 0.0000000000000000e+00 0.0000000000000000e+00 0.0000000000000000e+00 0.0000000000000000e+00  7.5155808033590199e-03 -1.5624810277614453e-05 0.0000000000000000e+00 -1.5624810277614453e-05 7.5373479115155373e-03 0.0000000000000000e+00 0.0000000000000000e+00 0.0000000000000000e+00 0.0000000000000000e+00  7.5192257582019049e-03 -1.1351008340513818e-05 0.0000000000000000e+00 -1.1351008340513818e-05 7.5388576342861439e-03 0.0000000000000000e+00 0.0000000000000000e+00 0.0000000000000000e+00 0.0000000000000000e+00  7.5215307202289453e-03 -7.5117824680844722e-06 0.0000000000000000e+00 -7.5117824680844722e-06 7.5383718034065447e-03 0.0000000000000000e+00 0.0000000000000000e+00 0.0000000000000000e+00 0.0000000000000000e+00  7.5229008365285607e-03 -4.2349573949846914e-06 0.0000000000000000e+00 -4.2349573949846914e-06 7.5360309883281962e-03 0.0000000000000000e+00 0.0000000000000000e+00 0.0000000000000000e+00 0.0000000000000000e+00  7.5238470790038731e-03 -1.6737147629344469e-06 0.0000000000000000e+00 -1.6737147629344469e-06 7.5321935442894221e-03 0.0000000000000000e+00 0.0000000000000000e+00 0.0000000000000000e+00 0.0000000000000000e+00  7.5248996912311407e-03 -2.8810850932261594e-09 0.0000000000000000e+00 -2.8810850932261594e-09 7.5278079025978325e-03 0.0000000000000000e+00 0.0000000000000000e+00 0.0000000000000000e+00 0.0000000000000000e+00  7.5256893727468788e-03 -2.2471979933742000e-07 0.0000000000000000e+00 -2.2471979933742000e-07 7.5253256000611208e-03 0.0000000000000000e+00 0.0000000000000000e+00 0.0000000000000000e+00 0.0000000000000000e+00  7.5843150102436864e-03 3.5847586168914339e-10 0.0000000000000000e+00 3.5847586168914339e-10 7.5841726053584926e-03 0.0000000000000000e+00 0.0000000000000000e+00 0.0000000000000000e+00 0.0000000000000000e+00  7.5854008428641612e-03 -2.2749723393427532e-07 0.0000000000000000e+00 -2.2749723393427532e-07 7.5850057188114224e-03 0.0000000000000000e+00 0.0000000000000000e+00 0.0000000000000000e+00 0.0000000000000000e+00  7.5883020866818925e-03 1.1195473546666563e-06 0.0000000000000000e+00 1.1195473546666563e-06 7.5883724137389870e-03 0.0000000000000000e+00 0.0000000000000000e+00 0.0000000000000000e+00 0.0000000000000000e+00  7.5909794936698007e-03 4.4527569450795346e-06 0.0000000000000000e+00 4.4527569450795346e-06 7.5912545440494535e-03 0.0000000000000000e+00 0.0000000000000000e+00 0.0000000000000000e+00 0.0000000000000000e+00  7.5923331368892167e-03 9.2644562439777511e-06 0.0000000000000000e+00 9.2644562439777511e-06 7.5927236389088139e-03 0.0000000000000000e+00 0.0000000000000000e+00 0.0000000000000000e+00 0.0000000000000000e+00  7.5918808496085143e-03 1.5177395584172977e-05 0.0000000000000000e+00 1.5177395584172977e-05 7.5923459670097955e-03 0.0000000000000000e+00 0.0000000000000000e+00 0.0000000000000000e+00 0.0000000000000000e+00  7.5893586058868069e-03 2.1955184288172317e-05 0.0000000000000000e+00 2.1955184288172317e-05 7.5898878767851731e-03 0.0000000000000000e+00 0.0000000000000000e+00 0.0000000000000000e+00 0.0000000000000000e+00  7.5845516563620811e-03 2.9489791762669752e-05 0.0000000000000000e+00 2.9489791762669752e-05 7.5851511863646139e-03 0.0000000000000000e+00 0.0000000000000000e+00 0.0000000000000000e+00 0.0000000000000000e+00  7.5772054552118700e-03 3.7775595682881802e-05 0.0000000000000000e+00 3.7775595682881802e-05 7.5778943824326168e-03 0.0000000000000000e+00 0.0000000000000000e+00 0.0000000000000000e+00 0.0000000000000000e+00  7.5669649479267707e-03 4.6844196076958016e-05 0.0000000000000000e+00 4.6844196076958016e-05 7.5677574064592842e-03 0.0000000000000000e+00 0.0000000000000000e+00 0.0000000000000000e+00 0.0000000000000000e+00  7.5534087085299961e-03 5.6759347159661969e-05 0.0000000000000000e+00 5.6759347159661969e-05 7.5543140262814123e-03 0.0000000000000000e+00 0.0000000000000000e+00 0.0000000000000000e+00 0.0000000000000000e+00  7.5360107269185576e-03 6.7559483424736570e-05 0.0000000000000000e+00 6.7559483424736570e-05 7.5370928935259169e-03 0.0000000000000000e+00 0.0000000000000000e+00 0.0000000000000000e+00 0.0000000000000000e+00  7.5143080358213692e-03 7.9475073034780339e-05 0.0000000000000000e+00 7.9475073034780339e-05 7.5157105696127269e-03 0.0000000000000000e+00 0.0000000000000000e+00 0.0000000000000000e+00 0.0000000000000000e+00  7.4878694407590589e-03 9.2497203633935430e-05 0.0000000000000000e+00 9.2497203633935430e-05 7.4884265857323735e-03 0.0000000000000000e+00 0.0000000000000000e+00 0.0000000000000000e+00 0.0000000000000000e+00  7.4576798266045800e-03 1.0701931036362378e-04 0.0000000000000000e+00 1.0701931036362378e-04 7.4624340224379278e-03 0.0000000000000000e+00 0.0000000000000000e+00 0.0000000000000000e+00 0.0000000000000000e+00  7.4170679694743275e-03 1.2625658144440531e-04 0.0000000000000000e+00 1.2625658144440531e-04 7.4251090025563475e-03 0.0000000000000000e+00 0.0000000000000000e+00 0.0000000000000000e+00 0.0000000000000000e+00  7.3825477390835189e-03 1.4412628947549970e-04 0.0000000000000000e+00 1.4412628947549970e-04 7.4044918342669351e-03 0.0000000000000000e+00 0.0000000000000000e+00 0.0000000000000000e+00 0.0000000000000000e+00  7.3668803259999494e-03 1.7182776765486317e-04 0.0000000000000000e+00 1.7182776765486317e-04 7.3889021275506074e-03 0.0000000000000000e+00 0.0000000000000000e+00 0.0000000000000000e+00 0.0000000000000000e+00  7.3042988577690874e-03 2.0524451585243511e-04 0.0000000000000000e+00 2.0524451585243511e-04 7.3412076871290054e-03 0.0000000000000000e+00 0.0000000000000000e+00 0.0000000000000000e+00 0.0000000000000000e+00  7.2146586550101300e-03 2.1725768784732955e-04 0.0000000000000000e+00 2.1725768784732955e-04 7.3004941623560403e-03 0.0000000000000000e+00 0.0000000000000000e+00 0.0000000000000000e+00 0.0000000000000000e+00  7.1216554919005057e-03 3.0830485521078958e-04 0.0000000000000000e+00 3.0830485521078958e-04 7.1732073667788426e-03 0.0000000000000000e+00 0.0000000000000000e+00 0.0000000000000000e+00 0.0000000000000000e+00  7.0006229071255029e-03 3.3047970594260250e-04 0.0000000000000000e+00 3.3047970594260250e-04 7.1152054799039285e-03 0.0000000000000000e+00 0.0000000000000000e+00 0.0000000000000000e+00 0.0000000000000000e+00  6.8696294512523518e-03 3.2096840009294026e-04 0.0000000000000000e+00 3.2096840009294026e-04 6.9738126591939696e-03 0.0000000000000000e+00 0.0000000000000000e+00 0.0000000000000000e+00 0.0000000000000000e+00  6.6143249163519314e-03 3.6620221545783434e-04 0.0000000000000000e+00 3.6620221545783434e-04 6.6796003588830578e-03 0.0000000000000000e+00 0.0000000000000000e+00 0.0000000000000000e+00 0.0000000000000000e+00  6.3333249012625329e-03 3.7919216996428639e-04 0.0000000000000000e+00 3.7919216996428639e-04 6.3996062253076991e-03 0.0000000000000000e+00 0.0000000000000000e+00 0.0000000000000000e+00 0.0000000000000000e+00  6.0608131343066612e-03 4.7269906310224254e-04 0.0000000000000000e+00 4.7269906310224254e-04 6.1048452387404920e-03 0.0000000000000000e+00 0.0000000000000000e+00 0.0000000000000000e+00 0.0000000000000000e+00  5.7336553357424380e-03 5.2223516866600967e-04 0.0000000000000000e+00 5.2223516866600967e-04 5.8219997204955968e-03 0.0000000000000000e+00 0.0000000000000000e+00 0.0000000000000000e+00 0.0000000000000000e+00  5.3719961908711483e-03 5.3585941673731422e-04 0.0000000000000000e+00 5.3585941673731422e-04 5.4331102764766312e-03 0.0000000000000000e+00 0.0000000000000000e+00 0.0000000000000000e+00 0.0000000000000000e+00  5.0041973527462560e-03 5.2012737477289339e-04 0.0000000000000000e+00 5.2012737477289339e-04 5.0456162467009003e-03 0.0000000000000000e+00 0.0000000000000000e+00 0.0000000000000000e+00 0.0000000000000000e+00  4.6212958269172197e-03 5.0236621466640235e-04 0.0000000000000000e+00 5.0236621466640235e-04 4.6437965577961482e-03 0.0000000000000000e+00 0.0000000000000000e+00 0.0000000000000000e+00 0.0000000000000000e+00  4.1568986675072439e-03 5.0101329012278227e-04 0.0000000000000000e+00 5.0101329012278227e-04 4.1735675256941458e-03 0.0000000000000000e+00 0.0000000000000000e+00 0.0000000000000000e+00 0.0000000000000000e+00  3.8526015670530501e-03 4.3898349593051648e-04 0.0000000000000000e+00 4.3898349593051648e-04 3.8413428589023479e-03 0.0000000000000000e+00 0.0000000000000000e+00 0.0000000000000000e+00 0.0000000000000000e+00  3.7467326801231748e-03 3.8632667840797757e-04 0.0000000000000000e+00 3.8632667840797757e-04 3.8097262402127336e-03 0.0000000000000000e+00 0.0000000000000000e+00 0.0000000000000000e+00 0.0000000000000000e+00  3.5675159598962227e-03 3.0297246730566567e-04 0.0000000000000000e+00 3.0297246730566567e-04 3.6200683085307497e-03 0.0000000000000000e+00 0.0000000000000000e+00 0.0000000000000000e+00 0.0000000000000000e+00  3.2073195574381336e-03 2.7653508313217270e-04 0.0000000000000000e+00 2.7653508313217270e-04 3.2247026426363845e-03 0.0000000000000000e+00 0.0000000000000000e+00 0.0000000000000000e+00 0.0000000000000000e+00  3.0368075201393629e-03 2.3708185036838374e-04 0.0000000000000000e+00 2.3708185036838374e-04 3.0558733878940474e-03 0.0000000000000000e+00 0.0000000000000000e+00 0.0000000000000000e+00 0.0000000000000000e+00  2.8670480908530552e-03 2.1086182730280898e-04 0.0000000000000000e+00 2.1086182730280898e-04 2.9063994233736053e-03 0.0000000000000000e+00 0.0000000000000000e+00 0.0000000000000000e+00 0.0000000000000000e+00  2.7771899709476155e-03 1.7210768791744502e-04 0.0000000000000000e+00 1.7210768791744502e-04 2.8010594049570981e-03 0.0000000000000000e+00 0.0000000000000000e+00 0.0000000000000000e+00 0.0000000000000000e+00  2.7047838013453352e-03 1.4833801580295305e-04 0.0000000000000000e+00 1.4833801580295305e-04 2.6997643722441412e-03 0.0000000000000000e+00 0.0000000000000000e+00 0.0000000000000000e+00 0.0000000000000000e+00  2.6474584958063019e-03 1.2571418043370313e-04 0.0000000000000000e+00 1.2571418043370313e-04 2.6524750367702883e-03 0.0000000000000000e+00 0.0000000000000000e+00 0.0000000000000000e+00 0.0000000000000000e+00  2.6039716594993254e-03 1.0732038367464061e-04 0.0000000000000000e+00 1.0732038367464061e-04 2.6035749447111179e-03 0.0000000000000000e+00 0.0000000000000000e+00 0.0000000000000000e+00 0.0000000000000000e+00  2.5715189825735825e-03 9.0347498650071112e-05 0.0000000000000000e+00 9.0347498650071112e-05 2.5695811645742544e-03 0.0000000000000000e+00 0.0000000000000000e+00 0.0000000000000000e+00 0.0000000000000000e+00  2.5457906932261267e-03 7.6347443434722446e-05 0.0000000000000000e+00 7.6347443434722446e-05 2.5449024633361185e-03 0.0000000000000000e+00 0.0000000000000000e+00 0.0000000000000000e+00 0.0000000000000000e+00  2.5254829613502888e-03 6.3534712923509797e-05 0.0000000000000000e+00 6.3534712923509797e-05 2.5243552263128632e-03 0.0000000000000000e+00 0.0000000000000000e+00 0.0000000000000000e+00 0.0000000000000000e+00  2.5102322735907488e-03 5.2247656670214031e-05 0.0000000000000000e+00 5.2247656670214031e-05 2.5093431907732950e-03 0.0000000000000000e+00 0.0000000000000000e+00 0.0000000000000000e+00 0.0000000000000000e+00  2.4985480512993022e-03 4.2548060520946131e-05 0.0000000000000000e+00 4.2548060520946131e-05 2.4978997477863472e-03 0.0000000000000000e+00 0.0000000000000000e+00 0.0000000000000000e+00 0.0000000000000000e+00  2.4892185159610053e-03 3.3924888929497254e-05 0.0000000000000000e+00 3.3924888929497254e-05 2.4887002541904130e-03 0.0000000000000000e+00 0.0000000000000000e+00 0.0000000000000000e+00 0.0000000000000000e+00  2.4818554084086297e-03 2.5686664137004470e-05 0.0000000000000000e+00 2.5686664137004470e-05 2.4813677185609624e-03 0.0000000000000000e+00 0.0000000000000000e+00 0.0000000000000000e+00 0.0000000000000000e+00  2.4764128853459943e-03 1.7483517176812811e-05 0.0000000000000000e+00 1.7483517176812811e-05 2.4759232850893789e-03 0.0000000000000000e+00 0.0000000000000000e+00 0.0000000000000000e+00 0.0000000000000000e+00  2.4730327390048400e-03 9.1861622022477471e-06 0.0000000000000000e+00 9.1861622022477471e-06 2.4725356618645329e-03 0.0000000000000000e+00 0.0000000000000000e+00 0.0000000000000000e+00 0.0000000000000000e+00  2.4718192966867482e-03 8.5870199176998032e-07 0.0000000000000000e+00 8.5870199176998032e-07 2.4713269290865133e-03 0.0000000000000000e+00 0.0000000000000000e+00 0.0000000000000000e+00 0.0000000000000000e+00  2.4727794026317283e-03 -7.3452157593600158e-06 0.0000000000000000e+00 -7.3452157593600158e-06 2.4723102369872529e-03 0.0000000000000000e+00 0.0000000000000000e+00 0.0000000000000000e+00 0.0000000000000000e+00  2.4757818816305457e-03 -1.5276473226229894e-05 0.0000000000000000e+00 -1.5276473226229894e-05 2.4753470470243919e-03 0.0000000000000000e+00 0.0000000000000000e+00 0.0000000000000000e+00 0.0000000000000000e+00  2.4805904872036138e-03 -2.2885072560760276e-05 0.0000000000000000e+00 -2.2885072560760276e-05 2.4801904481016671e-03 0.0000000000000000e+00 0.0000000000000000e+00 0.0000000000000000e+00 0.0000000000000000e+00  2.4869277428943241e-03 -3.0321997722390047e-05 0.0000000000000000e+00 -3.0321997722390047e-05 2.4865231142926856e-03 0.0000000000000000e+00 0.0000000000000000e+00 0.0000000000000000e+00 0.0000000000000000e+00  2.4946947040739450e-03 -3.8008432848297941e-05 0.0000000000000000e+00 -3.8008432848297941e-05 2.4941832509062082e-03 0.0000000000000000e+00 0.0000000000000000e+00 0.0000000000000000e+00 0.0000000000000000e+00  2.5039876630341029e-03 -4.6688691473055840e-05 0.0000000000000000e+00 -4.6688691473055840e-05 2.5033826020716471e-03 0.0000000000000000e+00 0.0000000000000000e+00 0.0000000000000000e+00 0.0000000000000000e+00  2.5159431748010912e-03 -5.7278632868554094e-05 0.0000000000000000e+00 -5.7278632868554094e-05 2.5148403574897097e-03 0.0000000000000000e+00 0.0000000000000000e+00 0.0000000000000000e+00 0.0000000000000000e+00  2.5327525169583989e-03 -7.1393983705176600e-05 0.0000000000000000e+00 -7.1393983705176600e-05 2.5299885290770811e-03 0.0000000000000000e+00 0.0000000000000000e+00 0.0000000000000000e+00 0.0000000000000000e+00  2.5567531583007034e-03 -8.8196175701637478e-05 0.0000000000000000e+00 -8.8196175701637478e-05 2.5605082367071187e-03 0.0000000000000000e+00 0.0000000000000000e+00 0.0000000000000000e+00 0.0000000000000000e+00  2.5837514882996833e-03 -1.0891896958819180e-04 0.0000000000000000e+00 -1.0891896958819180e-04 2.5823295531619914e-03 0.0000000000000000e+00 0.0000000000000000e+00 0.0000000000000000e+00 0.0000000000000000e+00  2.6559867045884283e-03 -1.4516500261614856e-04 0.0000000000000000e+00 -1.4516500261614856e-04 2.6724728655268207e-03 0.0000000000000000e+00 0.0000000000000000e+00 0.0000000000000000e+00 0.0000000000000000e+00  2.7655505554478195e-03 -1.6523051220019137e-04 0.0000000000000000e+00 -1.6523051220019137e-04 2.7949819409300541e-03 0.0000000000000000e+00 0.0000000000000000e+00 0.0000000000000000e+00 0.0000000000000000e+00  2.8133195610953194e-03 -1.8275412700653339e-04 0.0000000000000000e+00 -1.8275412700653339e-04 2.8669327752722205e-03 0.0000000000000000e+00 0.0000000000000000e+00 0.0000000000000000e+00 0.0000000000000000e+00  2.9764278200085726e-03 -2.5160646094092310e-04 0.0000000000000000e+00 -2.5160646094092310e-04 3.0401014552912916e-03 0.0000000000000000e+00 0.0000000000000000e+00 0.0000000000000000e+00 0.0000000000000000e+00  3.1793931223046126e-03 -2.2371928265039977e-04 0.0000000000000000e+00 -2.2371928265039977e-04 3.2495712776847369e-03 0.0000000000000000e+00 0.0000000000000000e+00 0.0000000000000000e+00 0.0000000000000000e+00  3.3887642655600616e-03 -2.6448110154982509e-04 0.0000000000000000e+00 -2.6448110154982509e-04 3.4937661605306987e-03 0.0000000000000000e+00 0.0000000000000000e+00 0.0000000000000000e+00 0.0000000000000000e+00  3.5780140927598701e-03 -3.3314931628603846e-04 0.0000000000000000e+00 -3.3314931628603846e-04 3.6476644170008437e-03 0.0000000000000000e+00 0.0000000000000000e+00 0.0000000000000000e+00 0.0000000000000000e+00  3.6065814681006505e-03 -4.0992782475708054e-04 0.0000000000000000e+00 -4.0992782475708054e-04 3.6472534492135431e-03 0.0000000000000000e+00 0.0000000000000000e+00 0.0000000000000000e+00 0.0000000000000000e+00  3.9689297349321745e-03 -4.7436453047422207e-04 0.0000000000000000e+00 -4.7436453047422207e-04 3.9641057874512178e-03 0.0000000000000000e+00 0.0000000000000000e+00 0.0000000000000000e+00 0.0000000000000000e+00  4.3694800539125899e-03 -4.6429933253071178e-04 0.0000000000000000e+00 -4.6429933253071178e-04 4.4257048891151295e-03 0.0000000000000000e+00 0.0000000000000000e+00 0.0000000000000000e+00 0.0000000000000000e+00  4.7097780855622912e-03 -4.8068090964421459e-04 0.0000000000000000e+00 -4.8068090964421459e-04 4.7851480849088676e-03 0.0000000000000000e+00 0.0000000000000000e+00 0.0000000000000000e+00 0.0000000000000000e+00  5.0592554111317627e-03 -5.0752844257270985e-04 0.0000000000000000e+00 -5.0752844257270985e-04 5.1284362449061944e-03 0.0000000000000000e+00 0.0000000000000000e+00 0.0000000000000000e+00 0.0000000000000000e+00  5.4171492587107659e-03 -5.1184958856797668e-04 0.0000000000000000e+00 -5.1184958856797668e-04 5.4921751201980357e-03 0.0000000000000000e+00 0.0000000000000000e+00 0.0000000000000000e+00 0.0000000000000000e+00  5.6980542233684203e-03 -4.8273134998873832e-04 0.0000000000000000e+00 -4.8273134998873832e-04 5.7098025343327924e-03 0.0000000000000000e+00 0.0000000000000000e+00 0.0000000000000000e+00 0.0000000000000000e+00  6.0530023208397177e-03 -4.6961702658432255e-04 0.0000000000000000e+00 -4.6961702658432255e-04 6.1379809686057689e-03 0.0000000000000000e+00 0.0000000000000000e+00 0.0000000000000000e+00 0.0000000000000000e+00  6.3793560373859512e-03 -3.8776285661607998e-04 0.0000000000000000e+00 -3.8776285661607998e-04 6.4826271564292180e-03 0.0000000000000000e+00 0.0000000000000000e+00 0.0000000000000000e+00 0.0000000000000000e+00  6.6360292513380787e-03 -3.3762815649169691e-04 0.0000000000000000e+00 -3.3762815649169691e-04 6.7642632235963424e-03 0.0000000000000000e+00 0.0000000000000000e+00 0.0000000000000000e+00 0.0000000000000000e+00  6.7819640197909082e-03 -3.2612767610772726e-04 0.0000000000000000e+00 -3.2612767610772726e-04 6.8680858795647243e-03 0.0000000000000000e+00 0.0000000000000000e+00 0.0000000000000000e+00 0.0000000000000000e+00  6.9052190371087490e-03 -3.1465210921840321e-04 0.0000000000000000e+00 -3.1465210921840321e-04 6.9314931660292411e-03 0.0000000000000000e+00 0.0000000000000000e+00 0.0000000000000000e+00 0.0000000000000000e+00  7.0382927326870437e-03 -2.6422798941195950e-04 0.0000000000000000e+00 -2.6422798941195950e-04 7.0678699209043537e-03 0.0000000000000000e+00 0.0000000000000000e+00 0.0000000000000000e+00 0.0000000000000000e+00  7.1499269032429466e-03 -2.1458982977378311e-04 0.0000000000000000e+00 -2.1458982977378311e-04 7.2006457064463019e-03 0.0000000000000000e+00 0.0000000000000000e+00 0.0000000000000000e+00 0.0000000000000000e+00  7.2470649920875017e-03 -1.7983147845085709e-04 0.0000000000000000e+00 -1.7983147845085709e-04 7.2721995307030371e-03 0.0000000000000000e+00 0.0000000000000000e+00 0.0000000000000000e+00 0.0000000000000000e+00  7.3095253963510187e-03 -1.4444627906574391e-04 0.0000000000000000e+00 -1.4444627906574391e-04 7.3157472825812831e-03 0.0000000000000000e+00 0.0000000000000000e+00 0.0000000000000000e+00 0.0000000000000000e+00  7.3540112670016930e-03 -1.2659667660298952e-04 0.0000000000000000e+00 -1.2659667660298952e-04 7.3584485309843919e-03 0.0000000000000000e+00 0.0000000000000000e+00 0.0000000000000000e+00 0.0000000000000000e+00  7.3951622909445968e-03 -1.0757552876078522e-04 0.0000000000000000e+00 -1.0757552876078522e-04 7.3999920168057792e-03 0.0000000000000000e+00 0.0000000000000000e+00 0.0000000000000000e+00 0.0000000000000000e+00  7.4260868500455107e-03 -9.1697501110562537e-05 0.0000000000000000e+00 -9.1697501110562537e-05 7.4272333784392696e-03 0.0000000000000000e+00 0.0000000000000000e+00 0.0000000000000000e+00 0.0000000000000000e+00  7.4515621176121007e-03 -7.8958928037008066e-05 0.0000000000000000e+00 -7.8958928037008066e-05 7.4528468637717494e-03 0.0000000000000000e+00 0.0000000000000000e+00 0.0000000000000000e+00 0.0000000000000000e+00  7.4723456487093137e-03 -6.7449431035262303e-05 0.0000000000000000e+00 -6.7449431035262303e-05 7.4734271990674131e-03 0.0000000000000000e+00 0.0000000000000000e+00 0.0000000000000000e+00 0.0000000000000000e+00  7.4889714118912152e-03 -5.7349365046584225e-05 0.0000000000000000e+00 -5.7349365046584225e-05 7.4898012034144510e-03 0.0000000000000000e+00 0.0000000000000000e+00 0.0000000000000000e+00 0.0000000000000000e+00  7.5023502287143605e-03 -4.8480955457614038e-05 0.0000000000000000e+00 -4.8480955457614038e-05 7.5030143919721758e-03 0.0000000000000000e+00 0.0000000000000000e+00 0.0000000000000000e+00 0.0000000000000000e+00  7.5130656402813568e-03 -4.0411097435178649e-05 0.0000000000000000e+00 -4.0411097435178649e-05 7.5136503721437752e-03 0.0000000000000000e+00 0.0000000000000000e+00 0.0000000000000000e+00 0.0000000000000000e+00  7.5214111020615593e-03 -3.2930575244358222e-05 0.0000000000000000e+00 -3.2930575244358222e-05 7.5219391268599462e-03 0.0000000000000000e+00 0.0000000000000000e+00 0.0000000000000000e+00 0.0000000000000000e+00  7.5275295457520527e-03 -2.5918582862544943e-05 0.0000000000000000e+00 -2.5918582862544943e-05 7.5280165196532148e-03 0.0000000000000000e+00 0.0000000000000000e+00 0.0000000000000000e+00 0.0000000000000000e+00  7.5315622210829769e-03 -1.9392107639094280e-05 0.0000000000000000e+00 -1.9392107639094280e-05 7.5320091508140376e-03 0.0000000000000000e+00 0.0000000000000000e+00 0.0000000000000000e+00 0.0000000000000000e+00  7.5336295412976343e-03 -1.3423725915120708e-05 0.0000000000000000e+00 -1.3423725915120708e-05 7.5340319848072809e-03 0.0000000000000000e+00 0.0000000000000000e+00 0.0000000000000000e+00 0.0000000000000000e+00  7.5338771434423791e-03 -8.1696564913176379e-06 0.0000000000000000e+00 -8.1696564913176379e-06 7.5342175377991084e-03 0.0000000000000000e+00 0.0000000000000000e+00 0.0000000000000000e+00 0.0000000000000000e+00  7.5325287310664592e-03 -3.8847033825555571e-06 0.0000000000000000e+00 -3.8847033825555571e-06 7.5327655205292901e-03 0.0000000000000000e+00 0.0000000000000000e+00 0.0000000000000000e+00 0.0000000000000000e+00  7.5300269704472898e-03 -9.3297549638658907e-07 0.0000000000000000e+00 -9.3297549638658907e-07 7.5300767162443435e-03 0.0000000000000000e+00 0.0000000000000000e+00 0.0000000000000000e+00 0.0000000000000000e+00  7.5273830019465821e-03 2.2708090205008358e-07 0.0000000000000000e+00 2.2708090205008358e-07 7.5270165813733463e-03 0.0000000000000000e+00 0.0000000000000000e+00 0.0000000000000000e+00 0.0000000000000000e+00  7.5264130795624582e-03 -2.8398637888368665e-10 0.0000000000000000e+00 -2.8398637888368665e-10 7.5262961003307134e-03 0.0000000000000000e+00 0.0000000000000000e+00 0.0000000000000000e+00 0.0000000000000000e+00  7.6338623545081164e-03 -5.7724740047250433e-10 0.0000000000000000e+00 -5.7724740047250433e-10 7.6337740193875483e-03 0.0000000000000000e+00 0.0000000000000000e+00 0.0000000000000000e+00 0.0000000000000000e+00  7.6341050576608921e-03 -7.8550108089699586e-07 0.0000000000000000e+00 -7.8550108089699586e-07 7.6367015944983638e-03 0.0000000000000000e+00 0.0000000000000000e+00 0.0000000000000000e+00 0.0000000000000000e+00  7.6346732972924821e-03 -2.8371664285696410e-06 0.0000000000000000e+00 -2.8371664285696410e-06 7.6401955057656852e-03 0.0000000000000000e+00 0.0000000000000000e+00 0.0000000000000000e+00 0.0000000000000000e+00  7.6349048988121268e-03 -6.0020519830219709e-06 0.0000000000000000e+00 -6.0020519830219709e-06 7.6427753180749319e-03 0.0000000000000000e+00 0.0000000000000000e+00 0.0000000000000000e+00 0.0000000000000000e+00  7.6341969741572802e-03 -1.0054104259496331e-05 0.0000000000000000e+00 -1.0054104259496331e-05 7.6438231296535953e-03 0.0000000000000000e+00 0.0000000000000000e+00 0.0000000000000000e+00 0.0000000000000000e+00  7.6321205214622033e-03 -1.4791917922603864e-05 0.0000000000000000e+00 -1.4791917922603864e-05 7.6430959938144300e-03 0.0000000000000000e+00 0.0000000000000000e+00 0.0000000000000000e+00 0.0000000000000000e+00  7.6283638552741631e-03 -2.0080837706451035e-05 0.0000000000000000e+00 -2.0080837706451035e-05 7.6404728657634762e-03 0.0000000000000000e+00 0.0000000000000000e+00 0.0000000000000000e+00 0.0000000000000000e+00  7.6226612205691100e-03 -2.5855345819161050e-05 0.0000000000000000e+00 -2.5855345819161050e-05 7.6358372024723821e-03 0.0000000000000000e+00 0.0000000000000000e+00 0.0000000000000000e+00 0.0000000000000000e+00  7.6147457861402397e-03 -3.2096721387615441e-05 0.0000000000000000e+00 -3.2096721387615441e-05 7.6290052955445779e-03 0.0000000000000000e+00 0.0000000000000000e+00 0.0000000000000000e+00 0.0000000000000000e+00  7.6043428192448768e-03 -3.8818055447641792e-05 0.0000000000000000e+00 -3.8818055447641792e-05 7.6197127608010852e-03 0.0000000000000000e+00 0.0000000000000000e+00 0.0000000000000000e+00 0.0000000000000000e+00  7.5911349555922514e-03 -4.6018161965561418e-05 0.0000000000000000e+00 -4.6018161965561418e-05 7.6076752102481951e-03 0.0000000000000000e+00 0.0000000000000000e+00 0.0000000000000000e+00 0.0000000000000000e+00  7.5746882719330095e-03 -5.3755004051664667e-05 0.0000000000000000e+00 -5.3755004051664667e-05 7.5927205355679015e-03 0.0000000000000000e+00 0.0000000000000000e+00 0.0000000000000000e+00 0.0000000000000000e+00  7.5542434543122098e-03 -6.2276520418321811e-05 0.0000000000000000e+00 -6.2276520418321811e-05 7.5749174291035804e-03 0.0000000000000000e+00 0.0000000000000000e+00 0.0000000000000000e+00 0.0000000000000000e+00  7.5283737406548366e-03 -7.2206533125333328e-05 0.0000000000000000e+00 -7.2206533125333328e-05 7.5539596516454510e-03 0.0000000000000000e+00 0.0000000000000000e+00 0.0000000000000000e+00 0.0000000000000000e+00  7.4952844796884379e-03 -8.4581421217895316e-05 0.0000000000000000e+00 -8.4581421217895316e-05 7.5277054610554438e-03 0.0000000000000000e+00 0.0000000000000000e+00 0.0000000000000000e+00 0.0000000000000000e+00  7.4529807289396809e-03 -9.9610401174802894e-05 0.0000000000000000e+00 -9.9610401174802894e-05 7.4906327392335881e-03 0.0000000000000000e+00 0.0000000000000000e+00 0.0000000000000000e+00 0.0000000000000000e+00  7.3972341499173259e-03 -1.1575646971318052e-04 0.0000000000000000e+00 -1.1575646971318052e-04 7.4435869254416706e-03 0.0000000000000000e+00 0.0000000000000000e+00 0.0000000000000000e+00 0.0000000000000000e+00  7.3239405339979354e-03 -1.3808434342936780e-04 0.0000000000000000e+00 -1.3808434342936780e-04 7.3791130474108856e-03 0.0000000000000000e+00 0.0000000000000000e+00 0.0000000000000000e+00 0.0000000000000000e+00  7.2287590413022806e-03 -1.5281685734112573e-04 0.0000000000000000e+00 -1.5281685734112573e-04 7.2821894736833492e-03 0.0000000000000000e+00 0.0000000000000000e+00 0.0000000000000000e+00 0.0000000000000000e+00  7.1065372859780256e-03 -1.8854398125328257e-04 0.0000000000000000e+00 -1.8854398125328257e-04 7.1595888199607553e-03 0.0000000000000000e+00 0.0000000000000000e+00 0.0000000000000000e+00 0.0000000000000000e+00  6.9391394007149373e-03 -1.9217665306541624e-04 0.0000000000000000e+00 -1.9217665306541624e-04 7.0533942467856884e-03 0.0000000000000000e+00 0.0000000000000000e+00 0.0000000000000000e+00 0.0000000000000000e+00  6.7048247465073211e-03 -2.0964782614222522e-04 0.0000000000000000e+00 -2.0964782614222522e-04 6.7715271545141110e-03 0.0000000000000000e+00 0.0000000000000000e+00 0.0000000000000000e+00 0.0000000000000000e+00  6.4680939996783569e-03 -2.8203070630334373e-04 0.0000000000000000e+00 -2.8203070630334373e-04 6.5140387327331179e-03 0.0000000000000000e+00 0.0000000000000000e+00 0.0000000000000000e+00 0.0000000000000000e+00  6.2536308935381424e-03 -3.1047981196842761e-04 0.0000000000000000e+00 -3.1047981196842761e-04 6.3035768969710816e-03 0.0000000000000000e+00 0.0000000000000000e+00 0.0000000000000000e+00 0.0000000000000000e+00  6.0150978715265944e-03 -3.0576154584429407e-04 0.0000000000000000e+00 -3.0576154584429407e-04 6.0731372787163913e-03 0.0000000000000000e+00 0.0000000000000000e+00 0.0000000000000000e+00 0.0000000000000000e+00  5.7127079880146077e-03 -3.0289688633047986e-04 0.0000000000000000e+00 -3.0289688633047986e-04 5.7678674004622730e-03 0.0000000000000000e+00 0.0000000000000000e+00 0.0000000000000000e+00 0.0000000000000000e+00  5.3583491856953108e-03 -3.1475907820067766e-04 0.0000000000000000e+00 -3.1475907820067766e-04 5.3873093675101697e-03 0.0000000000000000e+00 0.0000000000000000e+00 0.0000000000000000e+00 0.0000000000000000e+00  4.9906853711047866e-03 -3.3555863445726170e-04 0.0000000000000000e+00 -3.3555863445726170e-04 4.9864586492733261e-03 0.0000000000000000e+00 0.0000000000000000e+00 0.0000000000000000e+00 0.0000000000000000e+00  4.6310815530921281e-03 -3.3658010450625630e-04 0.0000000000000000e+00 -3.3658010450625630e-04 4.6075370027386575e-03 0.0000000000000000e+00 0.0000000000000000e+00 0.0000000000000000e+00 0.0000000000000000e+00  4.2684277661562261e-03 -3.0188951373545197e-04 0.0000000000000000e+00 -3.0188951373545197e-04 4.2490038529517946e-03 0.0000000000000000e+00 0.0000000000000000e+00 0.0000000000000000e+00 0.0000000000000000e+00  3.8854672067752858e-03 -2.5850958515334567e-04 0.0000000000000000e+00 -2.5850958515334567e-04 3.8505803806633235e-03 0.0000000000000000e+00 0.0000000000000000e+00 0.0000000000000000e+00 0.0000000000000000e+00  3.5308840776677015e-03 -2.5191813332873793e-04 0.0000000000000000e+00 -2.5191813332873793e-04 3.4897671179000313e-03 0.0000000000000000e+00 0.0000000000000000e+00 0.0000000000000000e+00 0.0000000000000000e+00  3.2515750862607586e-03 -2.6690418501363168e-04 0.0000000000000000e+00 -2.6690418501363168e-04 3.2240814706489557e-03 0.0000000000000000e+00 0.0000000000000000e+00 0.0000000000000000e+00 0.0000000000000000e+00  3.0710124875816874e-03 -2.9642940254080561e-04 0.0000000000000000e+00 -2.9642940254080561e-04 3.0381780218346121e-03 0.0000000000000000e+00 0.0000000000000000e+00 0.0000000000000000e+00 0.0000000000000000e+00  2.9463320312870878e-03 -2.4047000288945423e-04 0.0000000000000000e+00 -2.4047000288945423e-04 2.9673539447889362e-03 0.0000000000000000e+00 0.0000000000000000e+00 0.0000000000000000e+00 0.0000000000000000e+00  2.7708515999536080e-03 -1.5167273749290523e-04 0.0000000000000000e+00 -1.5167273749290523e-04 2.6729829879949094e-03 0.0000000000000000e+00 0.0000000000000000e+00 0.0000000000000000e+00 0.0000000000000000e+00  2.6630238798653729e-03 -1.8101697934431657e-04 0.0000000000000000e+00 -1.8101697934431657e-04 2.5688180559254952e-03 0.0000000000000000e+00 0.0000000000000000e+00 0.0000000000000000e+00 0.0000000000000000e+00  2.6372365161756823e-03 -1.3881947018600953e-04 0.0000000000000000e+00 -1.3881947018600953e-04 2.6284441093630015e-03 0.0000000000000000e+00 0.0000000000000000e+00 0.0000000000000000e+00 0.0000000000000000e+00  2.5917417970695088e-03 -1.0731650265869983e-04 0.0000000000000000e+00 -1.0731650265869983e-04 2.5199903197526633e-03 0.0000000000000000e+00 0.0000000000000000e+00 0.0000000000000000e+00 0.0000000000000000e+00  2.5618724034155889e-03 -9.7331486860935770e-05 0.0000000000000000e+00 -9.7331486860935770e-05 2.5340815342460863e-03 0.0000000000000000e+00 0.0000000000000000e+00 0.0000000000000000e+00 0.0000000000000000e+00  2.5384163835545067e-03 -7.6181117349763256e-05 0.0000000000000000e+00 -7.6181117349763256e-05 2.5053760994212084e-03 0.0000000000000000e+00 0.0000000000000000e+00 0.0000000000000000e+00 0.0000000000000000e+00  2.5173278216480644e-03 -6.5466918065444765e-05 0.0000000000000000e+00 -6.5466918065444765e-05 2.4959139924826076e-03 0.0000000000000000e+00 0.0000000000000000e+00 0.0000000000000000e+00 0.0000000000000000e+00  2.4992746370921443e-03 -5.5719706161702151e-05 0.0000000000000000e+00 -5.5719706161702151e-05 2.4827542929965916e-03 0.0000000000000000e+00 0.0000000000000000e+00 0.0000000000000000e+00 0.0000000000000000e+00  2.4841452169675387e-03 -4.8709039893676562e-05 0.0000000000000000e+00 -4.8709039893676562e-05 2.4700266929729366e-03 0.0000000000000000e+00 0.0000000000000000e+00 0.0000000000000000e+00 0.0000000000000000e+00  2.4710638904517773e-03 -4.2101228605103166e-05 0.0000000000000000e+00 -4.2101228605103166e-05 2.4571052068599782e-03 0.0000000000000000e+00 0.0000000000000000e+00 0.0000000000000000e+00 0.0000000000000000e+00  2.4598061175421433e-03 -3.5426786309886387e-05 0.0000000000000000e+00 -3.5426786309886387e-05 2.4452994103749070e-03 0.0000000000000000e+00 0.0000000000000000e+00 0.0000000000000000e+00 0.0000000000000000e+00  2.4504403074964705e-03 -2.8499779529670688e-05 0.0000000000000000e+00 -2.8499779529670688e-05 2.4351955738972286e-03 0.0000000000000000e+00 0.0000000000000000e+00 0.0000000000000000e+00 0.0000000000000000e+00  2.4431199725986831e-03 -2.1247577946393473e-05 0.0000000000000000e+00 -2.1247577946393473e-05 2.4271481284879955e-03 0.0000000000000000e+00 0.0000000000000000e+00 0.0000000000000000e+00 0.0000000000000000e+00  2.4379615534620490e-03 -1.3689870151910716e-05 0.0000000000000000e+00 -1.3689870151910716e-05 2.4213692488439099e-03 0.0000000000000000e+00 0.0000000000000000e+00 0.0000000000000000e+00 0.0000000000000000e+00  2.4350367050726520e-03 -5.8933184354902754e-06 0.0000000000000000e+00 -5.8933184354902754e-06 2.4180477980256720e-03 0.0000000000000000e+00 0.0000000000000000e+00 0.0000000000000000e+00 0.0000000000000000e+00  2.4343756358953025e-03 2.0154759506112802e-06 0.0000000000000000e+00 2.0154759506112802e-06 2.4173119817696570e-03 0.0000000000000000e+00 0.0000000000000000e+00 0.0000000000000000e+00 0.0000000000000000e+00  2.4359835044124164e-03 9.8827655176345791e-06 0.0000000000000000e+00 9.8827655176345791e-06 2.4191736702465850e-03 0.0000000000000000e+00 0.0000000000000000e+00 0.0000000000000000e+00 0.0000000000000000e+00  2.4398556887178647e-03 1.7578995227028085e-05 0.0000000000000000e+00 1.7578995227028085e-05 2.4235002573478079e-03 0.0000000000000000e+00 0.0000000000000000e+00 0.0000000000000000e+00 0.0000000000000000e+00  2.4460120363800262e-03 2.5064405148169112e-05 0.0000000000000000e+00 2.5064405148169112e-05 2.4300304827602048e-03 0.0000000000000000e+00 0.0000000000000000e+00 0.0000000000000000e+00 0.0000000000000000e+00  2.4545910265573881e-03 3.2440643006284585e-05 0.0000000000000000e+00 3.2440643006284585e-05 2.4384619193859782e-03 0.0000000000000000e+00 0.0000000000000000e+00 0.0000000000000000e+00 0.0000000000000000e+00  2.4659558492825633e-03 4.0034215478792527e-05 0.0000000000000000e+00 4.0034215478792527e-05 2.4486056617870561e-03 0.0000000000000000e+00 0.0000000000000000e+00 0.0000000000000000e+00 0.0000000000000000e+00  2.4808598640837071e-03 4.8352884117180746e-05 0.0000000000000000e+00 4.8352884117180746e-05 2.4607589558907281e-03 0.0000000000000000e+00 0.0000000000000000e+00 0.0000000000000000e+00 0.0000000000000000e+00  2.5003561754245560e-03 5.8051049051375860e-05 0.0000000000000000e+00 5.8051049051375860e-05 2.4763421877469476e-03 0.0000000000000000e+00 0.0000000000000000e+00 0.0000000000000000e+00 0.0000000000000000e+00  2.5253479969637445e-03 6.9407476832580780e-05 0.0000000000000000e+00 6.9407476832580780e-05 2.4980570083314602e-03 0.0000000000000000e+00 0.0000000000000000e+00 0.0000000000000000e+00 0.0000000000000000e+00  2.5569614882751546e-03 8.1261409097031824e-05 0.0000000000000000e+00 8.1261409097031824e-05 2.5273780640049930e-03 0.0000000000000000e+00 0.0000000000000000e+00 0.0000000000000000e+00 0.0000000000000000e+00  2.5989367215020712e-03 9.4779702418629062e-05 0.0000000000000000e+00 9.4779702418629062e-05 2.5605920666311316e-03 0.0000000000000000e+00 0.0000000000000000e+00 0.0000000000000000e+00 0.0000000000000000e+00  2.6516489472730824e-03 1.1406081111560894e-04 0.0000000000000000e+00 1.1406081111560894e-04 2.6076514745699770e-03 0.0000000000000000e+00 0.0000000000000000e+00 0.0000000000000000e+00 0.0000000000000000e+00  2.7174062971083990e-03 1.2564445566019998e-04 0.0000000000000000e+00 1.2564445566019998e-04 2.6720194600749888e-03 0.0000000000000000e+00 0.0000000000000000e+00 0.0000000000000000e+00 0.0000000000000000e+00  2.7995428751541505e-03 1.5791609510547796e-04 0.0000000000000000e+00 1.5791609510547796e-04 2.7255671887062688e-03 0.0000000000000000e+00 0.0000000000000000e+00 0.0000000000000000e+00 0.0000000000000000e+00  2.9097524862627643e-03 1.6702310142976414e-04 0.0000000000000000e+00 1.6702310142976414e-04 2.8224293012888879e-03 0.0000000000000000e+00 0.0000000000000000e+00 0.0000000000000000e+00 0.0000000000000000e+00  3.0356735393781259e-03 2.0733902095746592e-04 0.0000000000000000e+00 2.0733902095746592e-04 2.9585728085118829e-03 0.0000000000000000e+00 0.0000000000000000e+00 0.0000000000000000e+00 0.0000000000000000e+00  3.1761674501593943e-03 2.5414533117189503e-04 0.0000000000000000e+00 2.5414533117189503e-04 3.0795050330154113e-03 0.0000000000000000e+00 0.0000000000000000e+00 0.0000000000000000e+00 0.0000000000000000e+00  3.3613512282298958e-03 2.5117521823807433e-04 0.0000000000000000e+00 2.5117521823807433e-04 3.3024953212452556e-03 0.0000000000000000e+00 0.0000000000000000e+00 0.0000000000000000e+00 0.0000000000000000e+00  3.6422333702542495e-03 2.4600942747771669e-04 0.0000000000000000e+00 2.4600942747771669e-04 3.5982983930577940e-03 0.0000000000000000e+00 0.0000000000000000e+00 0.0000000000000000e+00 0.0000000000000000e+00  3.9734868148264884e-03 2.6318152495989231e-04 0.0000000000000000e+00 2.6318152495989231e-04 3.9273594184975275e-03 0.0000000000000000e+00 0.0000000000000000e+00 0.0000000000000000e+00 0.0000000000000000e+00  4.3095611337675725e-03 2.9958526471644343e-04 0.0000000000000000e+00 2.9958526471644343e-04 4.2507114450392233e-03 0.0000000000000000e+00 0.0000000000000000e+00 0.0000000000000000e+00 0.0000000000000000e+00  4.6472768507108088e-03 3.2369666237943662e-04 0.0000000000000000e+00 3.2369666237943662e-04 4.6034323481014376e-03 0.0000000000000000e+00 0.0000000000000000e+00 0.0000000000000000e+00 0.0000000000000000e+00  5.0032032261039744e-03 3.2315981240469598e-04 0.0000000000000000e+00 3.2315981240469598e-04 5.0043779815383644e-03 0.0000000000000000e+00 0.0000000000000000e+00 0.0000000000000000e+00 0.0000000000000000e+00  5.3656003195248041e-03 3.0613714827810030e-04 0.0000000000000000e+00 3.0613714827810030e-04 5.4079946371723376e-03 0.0000000000000000e+00 0.0000000000000000e+00 0.0000000000000000e+00 0.0000000000000000e+00  5.6872183081136205e-03 2.9149833140773134e-04 0.0000000000000000e+00 2.9149833140773134e-04 5.7319173280597352e-03 0.0000000000000000e+00 0.0000000000000000e+00 0.0000000000000000e+00 0.0000000000000000e+00  5.9317557228437175e-03 2.9284720478935724e-04 0.0000000000000000e+00 2.9284720478935724e-04 5.9631666374519764e-03 0.0000000000000000e+00 0.0000000000000000e+00 0.0000000000000000e+00 0.0000000000000000e+00  6.1320135834667944e-03 3.2176732279399302e-04 0.0000000000000000e+00 3.2176732279399302e-04 6.1657403664554696e-03 0.0000000000000000e+00 0.0000000000000000e+00 0.0000000000000000e+00 0.0000000000000000e+00  6.3558838696875074e-03 2.9119220402013679e-04 0.0000000000000000e+00 2.9119220402013679e-04 6.4375435599049926e-03 0.0000000000000000e+00 0.0000000000000000e+00 0.0000000000000000e+00 0.0000000000000000e+00  6.6131449602673930e-03 2.1110824247409210e-04 0.0000000000000000e+00 2.1110824247409210e-04 6.7204677462696163e-03 0.0000000000000000e+00 0.0000000000000000e+00 0.0000000000000000e+00 0.0000000000000000e+00  6.8510428601197774e-03 1.4327600709049696e-04 0.0000000000000000e+00 1.4327600709049696e-04 6.9622478102585560e-03 0.0000000000000000e+00 0.0000000000000000e+00 0.0000000000000000e+00 0.0000000000000000e+00  7.0212968652671182e-03 1.9758776583123945e-04 0.0000000000000000e+00 1.9758776583123945e-04 7.0331926982309277e-03 0.0000000000000000e+00 0.0000000000000000e+00 0.0000000000000000e+00 0.0000000000000000e+00  7.1325632717495592e-03 1.4255997744828339e-04 0.0000000000000000e+00 1.4255997744828339e-04 7.1405072745229390e-03 0.0000000000000000e+00 0.0000000000000000e+00 0.0000000000000000e+00 0.0000000000000000e+00  7.2731778416086071e-03 1.0295467427196182e-04 0.0000000000000000e+00 1.0295467427196182e-04 7.3298743851517734e-03 0.0000000000000000e+00 0.0000000000000000e+00 0.0000000000000000e+00 0.0000000000000000e+00  7.3879295722431284e-03 1.1972076806743779e-04 0.0000000000000000e+00 1.1972076806743779e-04 7.3947817937486783e-03 0.0000000000000000e+00 0.0000000000000000e+00 0.0000000000000000e+00 0.0000000000000000e+00  7.4630381173474624e-03 8.2920875922609603e-05 0.0000000000000000e+00 8.2920875922609603e-05 7.5009496898850118e-03 0.0000000000000000e+00 0.0000000000000000e+00 0.0000000000000000e+00 0.0000000000000000e+00  7.5272833107885026e-03 8.6574992861989837e-05 0.0000000000000000e+00 8.6574992861989837e-05 7.5533349268500595e-03 0.0000000000000000e+00 0.0000000000000000e+00 0.0000000000000000e+00 0.0000000000000000e+00  7.5696677157918550e-03 6.9699348961366989e-05 0.0000000000000000e+00 6.9699348961366989e-05 7.6010887739575385e-03 0.0000000000000000e+00 0.0000000000000000e+00 0.0000000000000000e+00 0.0000000000000000e+00  7.6009639037326491e-03 6.0462679462364307e-05 0.0000000000000000e+00 6.0462679462364307e-05 7.6279111610338349e-03 0.0000000000000000e+00 0.0000000000000000e+00 0.0000000000000000e+00 0.0000000000000000e+00  7.6236423561435772e-03 4.9868731372812286e-05 0.0000000000000000e+00 4.9868731372812286e-05 7.6459793342207351e-03 0.0000000000000000e+00 0.0000000000000000e+00 0.0000000000000000e+00 0.0000000000000000e+00  7.6400820446171957e-03 4.1221494519850251e-05 0.0000000000000000e+00 4.1221494519850251e-05 7.6581894656221929e-03 0.0000000000000000e+00 0.0000000000000000e+00 0.0000000000000000e+00 0.0000000000000000e+00  7.6520848695470082e-03 3.3920944882673718e-05 0.0000000000000000e+00 3.3920944882673718e-05 7.6670909416436299e-03 0.0000000000000000e+00 0.0000000000000000e+00 0.0000000000000000e+00 0.0000000000000000e+00  7.6608822459416281e-03 2.7647832801262530e-05 0.0000000000000000e+00 2.7647832801262530e-05 7.6737724236604580e-03 0.0000000000000000e+00 0.0000000000000000e+00 0.0000000000000000e+00 0.0000000000000000e+00  7.6672677462930770e-03 2.2106944293146408e-05 0.0000000000000000e+00 2.2106944293146408e-05 7.6787275212006189e-03 0.0000000000000000e+00 0.0000000000000000e+00 0.0000000000000000e+00 0.0000000000000000e+00  7.6717353813119168e-03 1.7097877133293199e-05 0.0000000000000000e+00 1.7097877133293199e-05 7.6821117039897920e-03 0.0000000000000000e+00 0.0000000000000000e+00 0.0000000000000000e+00 0.0000000000000000e+00  7.6746034379710521e-03 1.2551985680331629e-05 0.0000000000000000e+00 1.2551985680331629e-05 7.6839644796322850e-03 0.0000000000000000e+00 0.0000000000000000e+00 0.0000000000000000e+00 0.0000000000000000e+00  7.6761140273000749e-03 8.4957688476472579e-06 0.0000000000000000e+00 8.4957688476472579e-06 7.6843034751164618e-03 0.0000000000000000e+00 0.0000000000000000e+00 0.0000000000000000e+00 0.0000000000000000e+00  7.6765271983574674e-03 5.0390838752755040e-06 0.0000000000000000e+00 5.0390838752755040e-06 7.6831925777905933e-03 0.0000000000000000e+00 0.0000000000000000e+00 0.0000000000000000e+00 0.0000000000000000e+00  7.6762019800390097e-03 2.3551799862045800e-06 0.0000000000000000e+00 2.3551799862045800e-06 7.6808322086468631e-03 0.0000000000000000e+00 0.0000000000000000e+00 0.0000000000000000e+00 0.0000000000000000e+00  7.6756457899382615e-03 6.3463683572230335e-07 0.0000000000000000e+00 6.3463683572230335e-07 7.6777650551184086e-03 0.0000000000000000e+00 0.0000000000000000e+00 0.0000000000000000e+00 0.0000000000000000e+00  7.6754062682497931e-03 3.5488516080622704e-10 0.0000000000000000e+00 3.5488516080622704e-10 7.6752778320744400e-03 0.0000000000000000e+00 0.0000000000000000e+00 0.0000000000000000e+00 0.0000000000000000e+00  7.6309329547491651e-03 7.8142965457019086e-07 0.0000000000000000e+00 7.8142965457019086e-07 7.6335424365692617e-03 0.0000000000000000e+00 0.0000000000000000e+00 0.0000000000000000e+00 0.0000000000000000e+00  7.6293740836434771e-03 1.2046904783157482e-08 0.0000000000000000e+00 1.2046904783157482e-08 7.6382306380227694e-03 0.0000000000000000e+00 0.0000000000000000e+00 0.0000000000000000e+00 0.0000000000000000e+00  7.6276843399545376e-03 -2.0473270307751053e-06 0.0000000000000000e+00 -2.0473270307751053e-06 7.6427365130878038e-03 0.0000000000000000e+00 0.0000000000000000e+00 0.0000000000000000e+00 0.0000000000000000e+00  7.6257432097354833e-03 -4.7425171695463903e-06 0.0000000000000000e+00 -4.7425171695463903e-06 7.6460415149338023e-03 0.0000000000000000e+00 0.0000000000000000e+00 0.0000000000000000e+00 0.0000000000000000e+00  7.6232043574676576e-03 -7.8357868112374624e-06 0.0000000000000000e+00 -7.8357868112374624e-06 7.6476418697270041e-03 0.0000000000000000e+00 0.0000000000000000e+00 0.0000000000000000e+00 0.0000000000000000e+00  7.6196523357404313e-03 -1.1208019152249133e-05 0.0000000000000000e+00 -1.1208019152249133e-05 7.6473399178280136e-03 0.0000000000000000e+00 0.0000000000000000e+00 0.0000000000000000e+00 0.0000000000000000e+00  7.6146858484347629e-03 -1.4784184131788080e-05 0.0000000000000000e+00 -1.4784184131788080e-05 7.6450661867292352e-03 0.0000000000000000e+00 0.0000000000000000e+00 0.0000000000000000e+00 0.0000000000000000e+00  7.6079222766901253e-03 -1.8521401891643562e-05 0.0000000000000000e+00 -1.8521401891643562e-05 7.6407468351229677e-03 0.0000000000000000e+00 0.0000000000000000e+00 0.0000000000000000e+00 0.0000000000000000e+00  7.5990239609121241e-03 -2.2434847087465221e-05 0.0000000000000000e+00 -2.2434847087465221e-05 7.6342448358885460e-03 0.0000000000000000e+00 0.0000000000000000e+00 0.0000000000000000e+00 0.0000000000000000e+00  7.5876330060194704e-03 -2.6494918979409522e-05 0.0000000000000000e+00 -2.6494918979409522e-05 7.6252737196665279e-03 0.0000000000000000e+00 0.0000000000000000e+00 0.0000000000000000e+00 0.0000000000000000e+00  7.5734315959824746e-03 -3.0701526563204345e-05 0.0000000000000000e+00 -3.0701526563204345e-05 7.6134838403862821e-03 0.0000000000000000e+00 0.0000000000000000e+00 0.0000000000000000e+00 0.0000000000000000e+00  7.5557741008499641e-03 -3.4625128340333323e-05 0.0000000000000000e+00 -3.4625128340333323e-05 7.5986821521478922e-03 0.0000000000000000e+00 0.0000000000000000e+00 0.0000000000000000e+00 0.0000000000000000e+00  7.5333204746133491e-03 -3.7811437047638505e-05 0.0000000000000000e+00 -3.7811437047638505e-05 7.5806982480299519e-03 0.0000000000000000e+00 0.0000000000000000e+00 0.0000000000000000e+00 0.0000000000000000e+00  7.5045370013156650e-03 -4.0817667589990801e-05 0.0000000000000000e+00 -4.0817667589990801e-05 7.5605636768190359e-03 0.0000000000000000e+00 0.0000000000000000e+00 0.0000000000000000e+00 0.0000000000000000e+00  7.4669459572160989e-03 -4.4591889871030318e-05 0.0000000000000000e+00 -4.4591889871030318e-05 7.5373230725073112e-03 0.0000000000000000e+00 0.0000000000000000e+00 0.0000000000000000e+00 0.0000000000000000e+00  7.4190309503742455e-03 -4.9575530408634100e-05 0.0000000000000000e+00 -4.9575530408634100e-05 7.4968107475897518e-03 0.0000000000000000e+00 0.0000000000000000e+00 0.0000000000000000e+00 0.0000000000000000e+00  7.3600672929075035e-03 -4.7465502236690347e-05 0.0000000000000000e+00 -4.7465502236690347e-05 7.4454687191480018e-03 0.0000000000000000e+00 0.0000000000000000e+00 0.0000000000000000e+00 0.0000000000000000e+00  7.2792473695916723e-03 -5.7563172947011886e-05 0.0000000000000000e+00 -5.7563172947011886e-05 7.3880393857459299e-03 0.0000000000000000e+00 0.0000000000000000e+00 0.0000000000000000e+00 0.0000000000000000e+00  7.1585195654179706e-03 -2.4560472082884722e-05 0.0000000000000000e+00 -2.4560472082884722e-05 7.2623188475040810e-03 0.0000000000000000e+00 0.0000000000000000e+00 0.0000000000000000e+00 0.0000000000000000e+00  7.0197536919741057e-03 -7.5091109277270287e-05 0.0000000000000000e+00 -7.5091109277270287e-05 7.0896462726311093e-03 0.0000000000000000e+00 0.0000000000000000e+00 0.0000000000000000e+00 0.0000000000000000e+00  6.9001209597819788e-03 -3.5546084338417117e-06 0.0000000000000000e+00 -3.5546084338417117e-06 7.0778366132765872e-03 0.0000000000000000e+00 0.0000000000000000e+00 0.0000000000000000e+00 0.0000000000000000e+00  6.5703116098214656e-03 2.9222086205835607e-05 0.0000000000000000e+00 2.9222086205835607e-05 6.6947324986633364e-03 0.0000000000000000e+00 0.0000000000000000e+00 0.0000000000000000e+00 0.0000000000000000e+00  6.2744370319004102e-03 -6.2643981374868322e-05 0.0000000000000000e+00 -6.2643981374868322e-05 6.4006747466932622e-03 0.0000000000000000e+00 0.0000000000000000e+00 0.0000000000000000e+00 0.0000000000000000e+00  6.0878437693441066e-03 -8.0987794217712920e-05 0.0000000000000000e+00 -8.0987794217712920e-05 6.2067517374271557e-03 0.0000000000000000e+00 0.0000000000000000e+00 0.0000000000000000e+00 0.0000000000000000e+00  5.9253677951962682e-03 -5.4645342049344784e-05 0.0000000000000000e+00 -5.4645342049344784e-05 6.0021300476372705e-03 0.0000000000000000e+00 0.0000000000000000e+00 0.0000000000000000e+00 0.0000000000000000e+00  5.6903578456140138e-03 -4.1360164962025463e-06 0.0000000000000000e+00 -4.1360164962025463e-06 5.6950699909567330e-03 0.0000000000000000e+00 0.0000000000000000e+00 0.0000000000000000e+00 0.0000000000000000e+00  5.3224511420069650e-03 3.5989857467561341e-05 0.0000000000000000e+00 3.5989857467561341e-05 5.2768712601343444e-03 0.0000000000000000e+00 0.0000000000000000e+00 0.0000000000000000e+00 0.0000000000000000e+00  4.9234769604274715e-03 3.8119558238409585e-05 0.0000000000000000e+00 3.8119558238409585e-05 4.8505063862602383e-03 0.0000000000000000e+00 0.0000000000000000e+00 0.0000000000000000e+00 0.0000000000000000e+00  4.5808406354853354e-03 2.6841901322924082e-05 0.0000000000000000e+00 2.6841901322924082e-05 4.4978694726087037e-03 0.0000000000000000e+00 0.0000000000000000e+00 0.0000000000000000e+00 0.0000000000000000e+00  4.2694060334867940e-03 4.6013696775274571e-05 0.0000000000000000e+00 4.6013696775274571e-05 4.1894604746532046e-03 0.0000000000000000e+00 0.0000000000000000e+00 0.0000000000000000e+00 0.0000000000000000e+00  3.8836333734344865e-03 7.0346356340646342e-05 0.0000000000000000e+00 7.0346356340646342e-05 3.8038026948092763e-03 0.0000000000000000e+00 0.0000000000000000e+00 0.0000000000000000e+00 0.0000000000000000e+00  3.5012630820885657e-03 3.4089304228758869e-05 0.0000000000000000e+00 3.4089304228758869e-05 3.4448488517617800e-03 0.0000000000000000e+00 0.0000000000000000e+00 0.0000000000000000e+00 0.0000000000000000e+00  3.1884412147523368e-03 -3.4686783327081666e-05 0.0000000000000000e+00 -3.4686783327081666e-05 3.1671507566352511e-03 0.0000000000000000e+00 0.0000000000000000e+00 0.0000000000000000e+00 0.0000000000000000e+00  2.9953117952057858e-03 -1.3797681970559761e-04 0.0000000000000000e+00 -1.3797681970559761e-04 2.9269411990922732e-03 0.0000000000000000e+00 0.0000000000000000e+00 0.0000000000000000e+00 0.0000000000000000e+00  2.9690583226711221e-03 -9.5648962119025918e-05 0.0000000000000000e+00 -9.5648962119025918e-05 2.9693031967881981e-03 0.0000000000000000e+00 0.0000000000000000e+00 0.0000000000000000e+00 0.0000000000000000e+00  2.7331098196086575e-03 4.9346191587857819e-06 0.0000000000000000e+00 4.9346191587857819e-06 2.6202346745940021e-03 0.0000000000000000e+00 0.0000000000000000e+00 0.0000000000000000e+00 0.0000000000000000e+00  2.5937408032036674e-03 -1.4919146575149584e-04 0.0000000000000000e+00 -1.4919146575149584e-04 2.4923257458916688e-03 0.0000000000000000e+00 0.0000000000000000e+00 0.0000000000000000e+00 0.0000000000000000e+00  2.6508784039905955e-03 -6.4307838069228415e-05 0.0000000000000000e+00 -6.4307838069228415e-05 2.6346580716298507e-03 0.0000000000000000e+00 0.0000000000000000e+00 0.0000000000000000e+00 0.0000000000000000e+00  2.5648410929550295e-03 -7.9158246000916445e-05 0.0000000000000000e+00 -7.9158246000916445e-05 2.4314458048467365e-03 0.0000000000000000e+00 0.0000000000000000e+00 0.0000000000000000e+00 0.0000000000000000e+00  2.5704410628642751e-03 -6.9362350651701785e-05 0.0000000000000000e+00 -6.9362350651701785e-05 2.5263965057419815e-03 0.0000000000000000e+00 0.0000000000000000e+00 0.0000000000000000e+00 0.0000000000000000e+00  2.5555883383194798e-03 -5.2187795523786982e-05 0.0000000000000000e+00 -5.2187795523786982e-05 2.4768950005067737e-03 0.0000000000000000e+00 0.0000000000000000e+00 0.0000000000000000e+00 0.0000000000000000e+00  2.5384546568101478e-03 -4.4983313463107446e-05 0.0000000000000000e+00 -4.4983313463107446e-05 2.4865986684299616e-03 0.0000000000000000e+00 0.0000000000000000e+00 0.0000000000000000e+00 0.0000000000000000e+00  2.5180551917629566e-03 -3.7553224148972689e-05 0.0000000000000000e+00 -3.7553224148972689e-05 2.4768420766290225e-03 0.0000000000000000e+00 0.0000000000000000e+00 0.0000000000000000e+00 0.0000000000000000e+00  2.5017934971184623e-03 -3.4224305372653925e-05 0.0000000000000000e+00 -3.4224305372653925e-05 2.4645538058303022e-03 0.0000000000000000e+00 0.0000000000000000e+00 0.0000000000000000e+00 0.0000000000000000e+00  2.4882469004880114e-03 -2.9930383216103279e-05 0.0000000000000000e+00 -2.9930383216103279e-05 2.4516445172307250e-03 0.0000000000000000e+00 0.0000000000000000e+00 0.0000000000000000e+00 0.0000000000000000e+00  2.4773154893501111e-03 -2.5415035134152687e-05 0.0000000000000000e+00 -2.5415035134152687e-05 2.4395099340560012e-03 0.0000000000000000e+00 0.0000000000000000e+00 0.0000000000000000e+00 0.0000000000000000e+00  2.4686072436131516e-03 -2.0526003234686153e-05 0.0000000000000000e+00 -2.0526003234686153e-05 2.4291528883320628e-03 0.0000000000000000e+00 0.0000000000000000e+00 0.0000000000000000e+00 0.0000000000000000e+00  2.4620402924883837e-03 -1.5396727382753276e-05 0.0000000000000000e+00 -1.5396727382753276e-05 2.4208030724960756e-03 0.0000000000000000e+00 0.0000000000000000e+00 0.0000000000000000e+00 0.0000000000000000e+00  2.4575802948008495e-03 -9.9559128215471474e-06 0.0000000000000000e+00 -9.9559128215471474e-06 2.4147395014861256e-03 0.0000000000000000e+00 0.0000000000000000e+00 0.0000000000000000e+00 0.0000000000000000e+00  2.4551069400965209e-03 -4.2474535422731180e-06 0.0000000000000000e+00 -4.2474535422731180e-06 2.4112216468301609e-03 0.0000000000000000e+00 0.0000000000000000e+00 0.0000000000000000e+00 0.0000000000000000e+00  2.4545415438033949e-03 1.5935653751238086e-06 0.0000000000000000e+00 1.5935653751238086e-06 2.4104485677222832e-03 0.0000000000000000e+00 0.0000000000000000e+00 0.0000000000000000e+00 0.0000000000000000e+00  2.4558804314836502e-03 7.3662338123236040e-06 0.0000000000000000e+00 7.3662338123236040e-06 2.4124502476067736e-03 0.0000000000000000e+00 0.0000000000000000e+00 0.0000000000000000e+00 0.0000000000000000e+00  2.4592365150233704e-03 1.2866089739561256e-05 0.0000000000000000e+00 1.2866089739561256e-05 2.4170493065417808e-03 0.0000000000000000e+00 0.0000000000000000e+00 0.0000000000000000e+00 0.0000000000000000e+00  2.4648922376726461e-03 1.7915152725185194e-05 0.0000000000000000e+00 1.7915152725185194e-05 2.4239192796372106e-03 0.0000000000000000e+00 0.0000000000000000e+00 0.0000000000000000e+00 0.0000000000000000e+00  2.4732747644164478e-03 2.2438748847535306e-05 0.0000000000000000e+00 2.2438748847535306e-05 2.4325978651951671e-03 0.0000000000000000e+00 0.0000000000000000e+00 0.0000000000000000e+00 0.0000000000000000e+00  2.4851815695236829e-03 2.6344714920870781e-05 0.0000000000000000e+00 2.6344714920870781e-05 2.4427658977918295e-03 0.0000000000000000e+00 0.0000000000000000e+00 0.0000000000000000e+00 0.0000000000000000e+00  2.5014197267762633e-03 3.0122001546536961e-05 0.0000000000000000e+00 3.0122001546536961e-05 2.4544129633611309e-03 0.0000000000000000e+00 0.0000000000000000e+00 0.0000000000000000e+00 0.0000000000000000e+00  2.5227682852137748e-03 3.4575980980295002e-05 0.0000000000000000e+00 3.4575980980295002e-05 2.4682908974381600e-03 0.0000000000000000e+00 0.0000000000000000e+00 0.0000000000000000e+00 0.0000000000000000e+00  2.5495836728883837e-03 4.0862786188717666e-05 0.0000000000000000e+00 4.0862786188717666e-05 2.4879927665746723e-03 0.0000000000000000e+00 0.0000000000000000e+00 0.0000000000000000e+00 0.0000000000000000e+00  2.5807102314565579e-03 4.5240737729004066e-05 0.0000000000000000e+00 4.5240737729004066e-05 2.5192907533919664e-03 0.0000000000000000e+00 0.0000000000000000e+00 0.0000000000000000e+00 0.0000000000000000e+00  2.6202188107819296e-03 4.4429157733277202e-05 0.0000000000000000e+00 4.4429157733277202e-05 2.5494366981284929e-03 0.0000000000000000e+00 0.0000000000000000e+00 0.0000000000000000e+00 0.0000000000000000e+00  2.6688090388934690e-03 6.4306548576114578e-05 0.0000000000000000e+00 6.4306548576114578e-05 2.5744841662340124e-03 0.0000000000000000e+00 0.0000000000000000e+00 0.0000000000000000e+00 0.0000000000000000e+00  2.7248496683903601e-03 4.3009198766558525e-05 0.0000000000000000e+00 4.3009198766558525e-05 2.6651315855432617e-03 0.0000000000000000e+00 0.0000000000000000e+00 0.0000000000000000e+00 0.0000000000000000e+00  2.7634796474150041e-03 9.5493477728400013e-05 0.0000000000000000e+00 9.5493477728400013e-05 2.6441515492770982e-03 0.0000000000000000e+00 0.0000000000000000e+00 0.0000000000000000e+00 0.0000000000000000e+00  2.8597610670563507e-03 9.8906148410506921e-06 0.0000000000000000e+00 9.8906148410506921e-06 2.7707800290520069e-03 0.0000000000000000e+00 0.0000000000000000e+00 0.0000000000000000e+00 0.0000000000000000e+00  2.9400665975890371e-03 1.0802599747783453e-04 0.0000000000000000e+00 1.0802599747783453e-04 2.8728715401674229e-03 0.0000000000000000e+00 0.0000000000000000e+00 0.0000000000000000e+00 0.0000000000000000e+00  3.0146419257319336e-03 1.2806017649575621e-04 0.0000000000000000e+00 1.2806017649575621e-04 2.9332220688377663e-03 0.0000000000000000e+00 0.0000000000000000e+00 0.0000000000000000e+00 0.0000000000000000e+00  3.2783008453294016e-03 1.9327008586056006e-05 0.0000000000000000e+00 1.9327008586056006e-05 3.2664551221204844e-03 0.0000000000000000e+00 0.0000000000000000e+00 0.0000000000000000e+00 0.0000000000000000e+00  3.6466610475404085e-03 -4.0256861695754432e-05 0.0000000000000000e+00 -4.0256861695754432e-05 3.6093815283337852e-03 0.0000000000000000e+00 0.0000000000000000e+00 0.0000000000000000e+00 0.0000000000000000e+00  3.9921845296155252e-03 -4.9879910420698779e-05 0.0000000000000000e+00 -4.9879910420698779e-05 3.9132199059280903e-03 0.0000000000000000e+00 0.0000000000000000e+00 0.0000000000000000e+00 0.0000000000000000e+00  4.2690406481575346e-03 -2.3057768761889294e-05 0.0000000000000000e+00 -2.3057768761889294e-05 4.1657535344885666e-03 0.0000000000000000e+00 0.0000000000000000e+00 0.0000000000000000e+00 0.0000000000000000e+00  4.5665574329095578e-03 -1.7467138282977090e-05 0.0000000000000000e+00 -1.7467138282977090e-05 4.4734424811592463e-03 0.0000000000000000e+00 0.0000000000000000e+00 0.0000000000000000e+00 0.0000000000000000e+00  4.9462185697804299e-03 -3.5373368665910105e-05 0.0000000000000000e+00 -3.5373368665910105e-05 4.8797956742614194e-03 0.0000000000000000e+00 0.0000000000000000e+00 0.0000000000000000e+00 0.0000000000000000e+00  5.3386833901934274e-03 -3.2235870104531576e-05 0.0000000000000000e+00 -3.2235870104531576e-05 5.3236776580742528e-03 0.0000000000000000e+00 0.0000000000000000e+00 0.0000000000000000e+00 0.0000000000000000e+00  5.6048495366847421e-03 1.3489161311114320e-05 0.0000000000000000e+00 1.3489161311114320e-05 5.6534318188188101e-03 0.0000000000000000e+00 0.0000000000000000e+00 0.0000000000000000e+00 0.0000000000000000e+00  5.7542644855014527e-03 6.4232515749183450e-05 0.0000000000000000e+00 6.4232515749183450e-05 5.8765281489780215e-03 0.0000000000000000e+00 0.0000000000000000e+00 0.0000000000000000e+00 0.0000000000000000e+00  5.9072361846091888e-03 1.0560996971550550e-04 0.0000000000000000e+00 1.0560996971550550e-04 6.0222882976394727e-03 0.0000000000000000e+00 0.0000000000000000e+00 0.0000000000000000e+00 0.0000000000000000e+00  6.1381349053755436e-03 8.2440394589229052e-05 0.0000000000000000e+00 8.2440394589229052e-05 6.2597378684312362e-03 0.0000000000000000e+00 0.0000000000000000e+00 0.0000000000000000e+00 0.0000000000000000e+00  6.4582993231429228e-03 -1.1252931534002174e-05 0.0000000000000000e+00 -1.1252931534002174e-05 6.6122308437708364e-03 0.0000000000000000e+00 0.0000000000000000e+00 0.0000000000000000e+00 0.0000000000000000e+00  6.7793834675060607e-03 -3.2062286585787591e-05 0.0000000000000000e+00 -3.2062286585787591e-05 7.0057218414948871e-03 0.0000000000000000e+00 0.0000000000000000e+00 0.0000000000000000e+00 0.0000000000000000e+00  6.8253533972783883e-03 1.4533138476619133e-04 0.0000000000000000e+00 1.4533138476619133e-04 6.8890310413909370e-03 0.0000000000000000e+00 0.0000000000000000e+00 0.0000000000000000e+00 0.0000000000000000e+00  6.9325848669930697e-03 2.3258248589528333e-05 0.0000000000000000e+00 2.3258248589528333e-05 7.0401726628280016e-03 0.0000000000000000e+00 0.0000000000000000e+00 0.0000000000000000e+00 0.0000000000000000e+00  7.1921272008188299e-03 1.5130865861667910e-05 0.0000000000000000e+00 1.5130865861667910e-05 7.3449182685680287e-03 0.0000000000000000e+00 0.0000000000000000e+00 0.0000000000000000e+00 0.0000000000000000e+00  7.2778653777252822e-03 6.3600248552210512e-05 0.0000000000000000e+00 6.3600248552210512e-05 7.2961163885665340e-03 0.0000000000000000e+00 0.0000000000000000e+00 0.0000000000000000e+00 0.0000000000000000e+00  7.3950125724097536e-03 5.8220846584224837e-06 0.0000000000000000e+00 5.8220846584224837e-06 7.4966124082034803e-03 0.0000000000000000e+00 0.0000000000000000e+00 0.0000000000000000e+00 0.0000000000000000e+00  7.4882666904180764e-03 4.2727715280317343e-05 0.0000000000000000e+00 4.2727715280317343e-05 7.5359825357160272e-03 0.0000000000000000e+00 0.0000000000000000e+00 0.0000000000000000e+00 0.0000000000000000e+00  7.5407670814778343e-03 2.8196753124765445e-05 0.0000000000000000e+00 2.8196753124765445e-05 7.6035109702886489e-03 0.0000000000000000e+00 0.0000000000000000e+00 0.0000000000000000e+00 0.0000000000000000e+00  7.5771082719081374e-03 3.2606766129896183e-05 0.0000000000000000e+00 3.2606766129896183e-05 7.6350237627546757e-03 0.0000000000000000e+00 0.0000000000000000e+00 0.0000000000000000e+00 0.0000000000000000e+00  7.6029919240963671e-03 2.8869883662382831e-05 0.0000000000000000e+00 2.8869883662382831e-05 7.6521491385466512e-03 0.0000000000000000e+00 0.0000000000000000e+00 0.0000000000000000e+00 0.0000000000000000e+00  7.6218403491989982e-03 2.5811881877851706e-05 0.0000000000000000e+00 2.5811881877851706e-05 7.6639089700662908e-03 0.0000000000000000e+00 0.0000000000000000e+00 0.0000000000000000e+00 0.0000000000000000e+00  7.6360180592620489e-03 2.2535651520258954e-05 0.0000000000000000e+00 2.2535651520258954e-05 7.6720936310693414e-03 0.0000000000000000e+00 0.0000000000000000e+00 0.0000000000000000e+00 0.0000000000000000e+00  7.6464800746098441e-03 1.9330507459268270e-05 0.0000000000000000e+00 1.9330507459268270e-05 7.6783457024863925e-03 0.0000000000000000e+00 0.0000000000000000e+00 0.0000000000000000e+00 0.0000000000000000e+00  7.6541591221320864e-03 1.6084968515903074e-05 0.0000000000000000e+00 1.6084968515903074e-05 7.6829842308069407e-03 0.0000000000000000e+00 0.0000000000000000e+00 0.0000000000000000e+00 0.0000000000000000e+00  7.6597621681162896e-03 1.2875961720333200e-05 0.0000000000000000e+00 1.2875961720333200e-05 7.6860905054006732e-03 0.0000000000000000e+00 0.0000000000000000e+00 0.0000000000000000e+00 0.0000000000000000e+00  7.6637783485373747e-03 9.7543422025427121e-06 0.0000000000000000e+00 9.7543422025427121e-06 7.6876383998206559e-03 0.0000000000000000e+00 0.0000000000000000e+00 0.0000000000000000e+00 0.0000000000000000e+00  7.6666184582331815e-03 6.8003852829843174e-06 0.0000000000000000e+00 6.8003852829843174e-06 7.6876019575853622e-03 0.0000000000000000e+00 0.0000000000000000e+00 0.0000000000000000e+00 0.0000000000000000e+00  7.6686475377537111e-03 4.0985091639240309e-06 0.0000000000000000e+00 4.0985091639240309e-06 7.6860017241840500e-03 0.0000000000000000e+00 0.0000000000000000e+00 0.0000000000000000e+00 0.0000000000000000e+00  7.6702192214638046e-03 1.7601751630719695e-06 0.0000000000000000e+00 1.7601751630719695e-06 7.6830009791597903e-03 0.0000000000000000e+00 0.0000000000000000e+00 0.0000000000000000e+00 0.0000000000000000e+00  7.6716157958205715e-03 -4.2896002436677552e-09 0.0000000000000000e+00 -4.2896002436677552e-09 7.6790482464547966e-03 0.0000000000000000e+00 0.0000000000000000e+00 0.0000000000000000e+00 0.0000000000000000e+00  7.6729159477445874e-03 -6.3167215250870164e-07 0.0000000000000000e+00 -6.3167215250870164e-07 7.6750487205411323e-03 0.0000000000000000e+00 0.0000000000000000e+00 0.0000000000000000e+00 0.0000000000000000e+00  7.6275331782932254e-03 2.8156992766503950e-06 0.0000000000000000e+00 2.8156992766503950e-06 7.6329838195711795e-03 0.0000000000000000e+00 0.0000000000000000e+00 0.0000000000000000e+00 0.0000000000000000e+00  7.6249725916908567e-03 2.1714638093273606e-06 0.0000000000000000e+00 2.1714638093273606e-06 7.6397413242771366e-03 0.0000000000000000e+00 0.0000000000000000e+00 0.0000000000000000e+00 0.0000000000000000e+00  7.6223554187379392e-03 2.6052637605912729e-07 0.0000000000000000e+00 2.6052637605912729e-07 7.6450615207368537e-03 0.0000000000000000e+00 0.0000000000000000e+00 0.0000000000000000e+00 0.0000000000000000e+00  7.6195024789785836e-03 -2.0704113566326568e-06 0.0000000000000000e+00 -2.0704113566326568e-06 7.6486989439707009e-03 0.0000000000000000e+00 0.0000000000000000e+00 0.0000000000000000e+00 0.0000000000000000e+00  7.6161597270386896e-03 -4.4500028827766223e-06 0.0000000000000000e+00 -4.4500028827766223e-06 7.6504334996213529e-03 0.0000000000000000e+00 0.0000000000000000e+00 0.0000000000000000e+00 0.0000000000000000e+00  7.6119975981918117e-03 -6.7147239049445397e-06 0.0000000000000000e+00 -6.7147239049445397e-06 7.6501660384758171e-03 0.0000000000000000e+00 0.0000000000000000e+00 0.0000000000000000e+00 0.0000000000000000e+00  7.6066259601110910e-03 -8.7773864308267678e-06 0.0000000000000000e+00 -8.7773864308267678e-06 7.6478648627296064e-03 0.0000000000000000e+00 0.0000000000000000e+00 0.0000000000000000e+00 0.0000000000000000e+00  7.5996648087735610e-03 -1.0629974034043110e-05 0.0000000000000000e+00 -1.0629974034043110e-05 7.6435313495792833e-03 0.0000000000000000e+00 0.0000000000000000e+00 0.0000000000000000e+00 0.0000000000000000e+00  7.5906546832225398e-03 -1.2238121853970584e-05 0.0000000000000000e+00 -1.2238121853970584e-05 7.6369977493256618e-03 0.0000000000000000e+00 0.0000000000000000e+00 0.0000000000000000e+00 0.0000000000000000e+00  7.5793917333734657e-03 -1.3836546422862820e-05 0.0000000000000000e+00 -1.3836546422862820e-05 7.6280864913230457e-03 0.0000000000000000e+00 0.0000000000000000e+00 0.0000000000000000e+00 0.0000000000000000e+00  7.5653058995872272e-03 -1.4915488532360834e-05 0.0000000000000000e+00 -1.4915488532360834e-05 7.6160837534962117e-03 0.0000000000000000e+00 0.0000000000000000e+00 0.0000000000000000e+00 0.0000000000000000e+00  7.5484466635182936e-03 -1.5645338746617986e-05 0.0000000000000000e+00 -1.5645338746617986e-05 7.6000294452695585e-03 0.0000000000000000e+00 0.0000000000000000e+00 0.0000000000000000e+00 0.0000000000000000e+00  7.5278106914290358e-03 -1.3520242427758084e-05 0.0000000000000000e+00 -1.3520242427758084e-05 7.5804720558176842e-03 0.0000000000000000e+00 0.0000000000000000e+00 0.0000000000000000e+00 0.0000000000000000e+00  7.4986358459295452e-03 -6.5451013763949055e-06 0.0000000000000000e+00 -6.5451013763949055e-06 7.5560604428018601e-03 0.0000000000000000e+00 0.0000000000000000e+00 0.0000000000000000e+00 0.0000000000000000e+00  7.4644375819665080e-03 -5.9286554117990399e-06 0.0000000000000000e+00 -5.9286554117990399e-06 7.5365741652055158e-03 0.0000000000000000e+00 0.0000000000000000e+00 0.0000000000000000e+00 0.0000000000000000e+00  7.4188580871238832e-03 -2.1726928395508606e-06 0.0000000000000000e+00 -2.1726928395508606e-06 7.4932746685726654e-03 0.0000000000000000e+00 0.0000000000000000e+00 0.0000000000000000e+00 0.0000000000000000e+00  7.3430904386391129e-03 4.0450747793040462e-05 0.0000000000000000e+00 4.0450747793040462e-05 7.4003927313110174e-03 0.0000000000000000e+00 0.0000000000000000e+00 0.0000000000000000e+00 0.0000000000000000e+00  7.2645994526890504e-03 3.9183315388243122e-06 0.0000000000000000e+00 3.9183315388243122e-06 7.3506912122588558e-03 0.0000000000000000e+00 0.0000000000000000e+00 0.0000000000000000e+00 0.0000000000000000e+00  7.1053808013054201e-03 1.0378601558160308e-04 0.0000000000000000e+00 1.0378601558160308e-04 7.1729629884271793e-03 0.0000000000000000e+00 0.0000000000000000e+00 0.0000000000000000e+00 0.0000000000000000e+00  6.9315356428258524e-03 4.6313708055875665e-05 0.0000000000000000e+00 4.6313708055875665e-05 6.9572104601541710e-03 0.0000000000000000e+00 0.0000000000000000e+00 0.0000000000000000e+00 0.0000000000000000e+00  6.8736608693375622e-03 1.5809934171395705e-04 0.0000000000000000e+00 1.5809934171395705e-04 6.8927451848881582e-03 0.0000000000000000e+00 0.0000000000000000e+00 0.0000000000000000e+00 0.0000000000000000e+00  6.5218723806228038e-03 2.2075606345185587e-04 0.0000000000000000e+00 2.2075606345185587e-04 6.2353881465153456e-03 0.0000000000000000e+00 0.0000000000000000e+00 0.0000000000000000e+00 0.0000000000000000e+00  6.4360354046030252e-03 1.9131400637057921e-04 0.0000000000000000e+00 1.9131400637057921e-04 6.0183447185520756e-03 0.0000000000000000e+00 0.0000000000000000e+00 0.0000000000000000e+00 0.0000000000000000e+00  6.5254725717328469e-03 2.2457081741075299e-04 0.0000000000000000e+00 2.2457081741075299e-04 5.9780993294746990e-03 0.0000000000000000e+00 0.0000000000000000e+00 0.0000000000000000e+00 0.0000000000000000e+00  6.5114109197016348e-03 2.8481379492884549e-04 0.0000000000000000e+00 2.8481379492884549e-04 5.7305403521095500e-03 0.0000000000000000e+00 0.0000000000000000e+00 0.0000000000000000e+00 0.0000000000000000e+00  6.2643418929152518e-03 3.9625226039877154e-04 0.0000000000000000e+00 3.9625226039877154e-04 5.1811063035873996e-03 0.0000000000000000e+00 0.0000000000000000e+00 0.0000000000000000e+00 0.0000000000000000e+00  5.8371946907286101e-03 4.6333863734146773e-04 0.0000000000000000e+00 4.6333863734146773e-04 4.4973883994924692e-03 0.0000000000000000e+00 0.0000000000000000e+00 0.0000000000000000e+00 0.0000000000000000e+00  5.3845653661757885e-03 4.7714777208987687e-04 0.0000000000000000e+00 4.7714777208987687e-04 3.9697533179399950e-03 0.0000000000000000e+00 0.0000000000000000e+00 0.0000000000000000e+00 0.0000000000000000e+00  5.0019717967451065e-03 4.1353158896943303e-04 0.0000000000000000e+00 4.1353158896943303e-04 3.7615841270278215e-03 0.0000000000000000e+00 0.0000000000000000e+00 0.0000000000000000e+00 0.0000000000000000e+00  4.6425372057056343e-03 2.9160740483101505e-04 0.0000000000000000e+00 2.9160740483101505e-04 3.7154399096847391e-03 0.0000000000000000e+00 0.0000000000000000e+00 0.0000000000000000e+00 0.0000000000000000e+00  4.1999564347685618e-03 2.1637754096750158e-04 0.0000000000000000e+00 2.1637754096750158e-04 3.5095290179425944e-03 0.0000000000000000e+00 0.0000000000000000e+00 0.0000000000000000e+00 0.0000000000000000e+00  3.6813817165094768e-03 2.2660485537988616e-04 0.0000000000000000e+00 2.2660485537988616e-04 3.1295062448926957e-03 0.0000000000000000e+00 0.0000000000000000e+00 0.0000000000000000e+00 0.0000000000000000e+00  3.3126766459827678e-03 2.3144192396672830e-04 0.0000000000000000e+00 2.3144192396672830e-04 2.9066395729855257e-03 0.0000000000000000e+00 0.0000000000000000e+00 0.0000000000000000e+00 0.0000000000000000e+00  3.0828140675338402e-03 1.3670392376952171e-04 0.0000000000000000e+00 1.3670392376952171e-04 2.8294754345217677e-03 0.0000000000000000e+00 0.0000000000000000e+00 0.0000000000000000e+00 0.0000000000000000e+00  3.0290564290364461e-03 7.4756806291597969e-05 0.0000000000000000e+00 7.4756806291597969e-05 2.9506831749199157e-03 0.0000000000000000e+00 0.0000000000000000e+00 0.0000000000000000e+00 0.0000000000000000e+00  2.6841656726586337e-03 1.4082005131578471e-04 0.0000000000000000e+00 1.4082005131578471e-04 2.6100417204827594e-03 0.0000000000000000e+00 0.0000000000000000e+00 0.0000000000000000e+00 0.0000000000000000e+00  2.6159027454756567e-03 -6.1483536934040409e-05 0.0000000000000000e+00 -6.1483536934040409e-05 2.5612899160787988e-03 0.0000000000000000e+00 0.0000000000000000e+00 0.0000000000000000e+00 0.0000000000000000e+00  2.6477121053352843e-03 7.4376467815036012e-05 0.0000000000000000e+00 7.4376467815036012e-05 2.6581725205484285e-03 0.0000000000000000e+00 0.0000000000000000e+00 0.0000000000000000e+00 0.0000000000000000e+00  2.4683698739099650e-03 -7.9193420633585796e-05 0.0000000000000000e+00 -7.9193420633585796e-05 2.3413899997050381e-03 0.0000000000000000e+00 0.0000000000000000e+00 0.0000000000000000e+00 0.0000000000000000e+00  2.5652115696537725e-03 -2.0043604881493253e-05 0.0000000000000000e+00 -2.0043604881493253e-05 2.5508762995812566e-03 0.0000000000000000e+00 0.0000000000000000e+00 0.0000000000000000e+00 0.0000000000000000e+00  2.5271054618868070e-03 -4.4704619426886978e-05 0.0000000000000000e+00 -4.4704619426886978e-05 2.4163764769569111e-03 0.0000000000000000e+00 0.0000000000000000e+00 0.0000000000000000e+00 0.0000000000000000e+00  2.5394731005732238e-03 -1.8425072378983243e-05 0.0000000000000000e+00 -1.8425072378983243e-05 2.4776051484033178e-03 0.0000000000000000e+00 0.0000000000000000e+00 0.0000000000000000e+00 0.0000000000000000e+00  2.5248797349954328e-03 -2.2330029183288190e-05 0.0000000000000000e+00 -2.2330029183288190e-05 2.4741550290568199e-03 0.0000000000000000e+00 0.0000000000000000e+00 0.0000000000000000e+00 0.0000000000000000e+00  2.5116575802699025e-03 -1.9165593026212914e-05 0.0000000000000000e+00 -1.9165593026212914e-05 2.4622012561775798e-03 0.0000000000000000e+00 0.0000000000000000e+00 0.0000000000000000e+00 0.0000000000000000e+00  2.4990847599177289e-03 -1.8361366076280799e-05 0.0000000000000000e+00 -1.8361366076280799e-05 2.4484941371833179e-03 0.0000000000000000e+00 0.0000000000000000e+00 0.0000000000000000e+00 0.0000000000000000e+00  2.4886986283740114e-03 -1.5705713078678492e-05 0.0000000000000000e+00 -1.5705713078678492e-05 2.4359521262700867e-03 0.0000000000000000e+00 0.0000000000000000e+00 0.0000000000000000e+00 0.0000000000000000e+00  2.4803535490327605e-03 -1.3204985347431362e-05 0.0000000000000000e+00 -1.3204985347431362e-05 2.4252682226351711e-03 0.0000000000000000e+00 0.0000000000000000e+00 0.0000000000000000e+00 0.0000000000000000e+00  2.4744882499818845e-03 -1.0242348803870838e-05 0.0000000000000000e+00 -1.0242348803870838e-05 2.4165798628343091e-03 0.0000000000000000e+00 0.0000000000000000e+00 0.0000000000000000e+00 0.0000000000000000e+00  2.4706641854172276e-03 -6.7985835241761824e-06 0.0000000000000000e+00 -6.7985835241761824e-06 2.4100909017464897e-03 0.0000000000000000e+00 0.0000000000000000e+00 0.0000000000000000e+00 0.0000000000000000e+00  2.4686371511504772e-03 -2.8792498160534039e-06 0.0000000000000000e+00 -2.8792498160534039e-06 2.4062822092635128e-03 0.0000000000000000e+00 0.0000000000000000e+00 0.0000000000000000e+00 0.0000000000000000e+00  2.4681547283542066e-03 1.2749864165648735e-06 0.0000000000000000e+00 1.2749864165648735e-06 2.4054593840290395e-03 0.0000000000000000e+00 0.0000000000000000e+00 0.0000000000000000e+00 0.0000000000000000e+00  2.4691710201993830e-03 5.3032973146663480e-06 0.0000000000000000e+00 5.3032973146663480e-06 2.4077018387361699e-03 0.0000000000000000e+00 0.0000000000000000e+00 0.0000000000000000e+00 0.0000000000000000e+00  2.4718628169457121e-03 8.8258663313769801e-06 0.0000000000000000e+00 8.8258663313769801e-06 2.4128431838800818e-03 0.0000000000000000e+00 0.0000000000000000e+00 0.0000000000000000e+00 0.0000000000000000e+00  2.4765141333356606e-03 1.1527553636554089e-05 0.0000000000000000e+00 1.1527553636554089e-05 2.4204218224933324e-03 0.0000000000000000e+00 0.0000000000000000e+00 0.0000000000000000e+00 0.0000000000000000e+00  2.4837992596670497e-03 1.2966869763006516e-05 0.0000000000000000e+00 1.2966869763006516e-05 2.4301516500932728e-03 0.0000000000000000e+00 0.0000000000000000e+00 0.0000000000000000e+00 0.0000000000000000e+00  2.4939924868811730e-03 1.3279336142158350e-05 0.0000000000000000e+00 1.3279336142158350e-05 2.4411838877044737e-03 0.0000000000000000e+00 0.0000000000000000e+00 0.0000000000000000e+00 0.0000000000000000e+00  2.5088672266324031e-03 1.1395459749451576e-05 0.0000000000000000e+00 1.1395459749451576e-05 2.4533173221634552e-03 0.0000000000000000e+00 0.0000000000000000e+00 0.0000000000000000e+00 0.0000000000000000e+00  2.5284190606973404e-03 1.0762030178140092e-05 0.0000000000000000e+00 1.0762030178140092e-05 2.4664877497566741e-03 0.0000000000000000e+00 0.0000000000000000e+00 0.0000000000000000e+00 0.0000000000000000e+00  2.5509271101512221e-03 1.4490841025000349e-05 0.0000000000000000e+00 1.4490841025000349e-05 2.4789138599642202e-03 0.0000000000000000e+00 0.0000000000000000e+00 0.0000000000000000e+00 0.0000000000000000e+00  2.5791471268786616e-03 1.2593662921882571e-05 0.0000000000000000e+00 1.2593662921882571e-05 2.5144271392542016e-03 0.0000000000000000e+00 0.0000000000000000e+00 0.0000000000000000e+00 0.0000000000000000e+00  2.6045360041383947e-03 -3.9338010984420181e-06 0.0000000000000000e+00 -3.9338010984420181e-06 2.5604339328591050e-03 0.0000000000000000e+00 0.0000000000000000e+00 0.0000000000000000e+00 0.0000000000000000e+00  2.6199458974821063e-03 3.4582810268131150e-05 0.0000000000000000e+00 3.4582810268131150e-05 2.5092682413414991e-03 0.0000000000000000e+00 0.0000000000000000e+00 0.0000000000000000e+00 0.0000000000000000e+00  2.6661205238545662e-03 -4.0853886487230787e-05 0.0000000000000000e+00 -4.0853886487230787e-05 2.6614370225921508e-03 0.0000000000000000e+00 0.0000000000000000e+00 0.0000000000000000e+00 0.0000000000000000e+00  2.6709066997241807e-03 2.9526209516177711e-05 0.0000000000000000e+00 2.9526209516177711e-05 2.5703177697524639e-03 0.0000000000000000e+00 0.0000000000000000e+00 0.0000000000000000e+00 0.0000000000000000e+00  2.7652375929961125e-03 -9.4887792231557511e-05 0.0000000000000000e+00 -9.4887792231557511e-05 2.8001982127914150e-03 0.0000000000000000e+00 0.0000000000000000e+00 0.0000000000000000e+00 0.0000000000000000e+00  2.8292452447953448e-03 -1.0235197442334674e-05 0.0000000000000000e+00 -1.0235197442334674e-05 2.7155144420864408e-03 0.0000000000000000e+00 0.0000000000000000e+00 0.0000000000000000e+00 0.0000000000000000e+00  2.9441089418033345e-03 -8.7222773839169108e-05 0.0000000000000000e+00 -8.7222773839169108e-05 2.6891520939392806e-03 0.0000000000000000e+00 0.0000000000000000e+00 0.0000000000000000e+00 0.0000000000000000e+00  3.3294600077829967e-03 -2.1903344423564530e-04 0.0000000000000000e+00 -2.1903344423564530e-04 3.0074131675348649e-03 0.0000000000000000e+00 0.0000000000000000e+00 0.0000000000000000e+00 0.0000000000000000e+00  3.8082071882119244e-03 -2.1747068911026339e-04 0.0000000000000000e+00 -2.1747068911026339e-04 3.3610420905595441e-03 0.0000000000000000e+00 0.0000000000000000e+00 0.0000000000000000e+00 0.0000000000000000e+00  4.2854043892062649e-03 -2.3462423359999932e-04 0.0000000000000000e+00 -2.3462423359999932e-04 3.6421140337852200e-03 0.0000000000000000e+00 0.0000000000000000e+00 0.0000000000000000e+00 0.0000000000000000e+00  4.6880356646574056e-03 -3.0465212438324202e-04 0.0000000000000000e+00 -3.0465212438324202e-04 3.7445168450902966e-03 0.0000000000000000e+00 0.0000000000000000e+00 0.0000000000000000e+00 0.0000000000000000e+00  5.0486316901211924e-03 -3.8662443276915576e-04 0.0000000000000000e+00 -3.8662443276915576e-04 3.7990876767475413e-03 0.0000000000000000e+00 0.0000000000000000e+00 0.0000000000000000e+00 0.0000000000000000e+00  5.4364442147532277e-03 -4.3211939945265684e-04 0.0000000000000000e+00 -4.3211939945265684e-04 4.0382065290083457e-03 0.0000000000000000e+00 0.0000000000000000e+00 0.0000000000000000e+00 0.0000000000000000e+00  5.8678173847426240e-03 -4.2989214099023768e-04 0.0000000000000000e+00 -4.2989214099023768e-04 4.5576601775368175e-03 0.0000000000000000e+00 0.0000000000000000e+00 0.0000000000000000e+00 0.0000000000000000e+00  6.2283338065620610e-03 -3.6442839017659191e-04 0.0000000000000000e+00 -3.6442839017659191e-04 5.1570807486928504e-03 0.0000000000000000e+00 0.0000000000000000e+00 0.0000000000000000e+00 0.0000000000000000e+00  6.4018196203890930e-03 -2.5595557475088348e-04 0.0000000000000000e+00 -2.5595557475088348e-04 5.6230046421428970e-03 0.0000000000000000e+00 0.0000000000000000e+00 0.0000000000000000e+00 0.0000000000000000e+00  6.3459340088107491e-03 -2.2952064271443090e-04 0.0000000000000000e+00 -2.2952064271443090e-04 5.7574939620487642e-03 0.0000000000000000e+00 0.0000000000000000e+00 0.0000000000000000e+00 0.0000000000000000e+00  6.3438416116475098e-03 -1.8521933579875049e-04 0.0000000000000000e+00 -1.8521933579875049e-04 5.9118591139396270e-03 0.0000000000000000e+00 0.0000000000000000e+00 0.0000000000000000e+00 0.0000000000000000e+00  6.5183900151829285e-03 -2.0925262710176884e-04 0.0000000000000000e+00 -2.0925262710176884e-04 6.2660145477762448e-03 0.0000000000000000e+00 0.0000000000000000e+00 0.0000000000000000e+00 0.0000000000000000e+00  6.8187278046390916e-03 -1.5327159981215455e-04 0.0000000000000000e+00 -1.5327159981215455e-04 6.9017646940748916e-03 0.0000000000000000e+00 0.0000000000000000e+00 0.0000000000000000e+00 0.0000000000000000e+00  6.7641782063194104e-03 4.8231218649610536e-05 0.0000000000000000e+00 4.8231218649610536e-05 6.7297220138930842e-03 0.0000000000000000e+00 0.0000000000000000e+00 0.0000000000000000e+00 0.0000000000000000e+00  6.8775951673730818e-03 -8.2922636699312227e-05 0.0000000000000000e+00 -8.2922636699312227e-05 6.9821129537037023e-03 0.0000000000000000e+00 0.0000000000000000e+00 0.0000000000000000e+00 0.0000000000000000e+00  7.1483566280302890e-03 -3.2092137964483191e-06 0.0000000000000000e+00 -3.2092137964483191e-06 7.2829082772613652e-03 0.0000000000000000e+00 0.0000000000000000e+00 0.0000000000000000e+00 0.0000000000000000e+00  7.1489712807659561e-03 -1.2763370358691174e-05 0.0000000000000000e+00 -1.2763370358691174e-05 7.1496494489421162e-03 0.0000000000000000e+00 0.0000000000000000e+00 0.0000000000000000e+00 0.0000000000000000e+00  7.3603519418235300e-03 -3.3867295014205874e-05 0.0000000000000000e+00 -3.3867295014205874e-05 7.4915033230663758e-03 0.0000000000000000e+00 0.0000000000000000e+00 0.0000000000000000e+00 0.0000000000000000e+00  7.4442254450772282e-03 -7.2167767112300652e-06 0.0000000000000000e+00 -7.2167767112300652e-06 7.4609234641234388e-03 0.0000000000000000e+00 0.0000000000000000e+00 0.0000000000000000e+00 0.0000000000000000e+00  7.5249307555616627e-03 -3.3990785963524128e-06 0.0000000000000000e+00 -3.3990785963524128e-06 7.5872495760778451e-03 0.0000000000000000e+00 0.0000000000000000e+00 0.0000000000000000e+00 0.0000000000000000e+00  7.5702745059768048e-03 1.5007002848228689e-06 0.0000000000000000e+00 1.5007002848228689e-06 7.6328128981222425e-03 0.0000000000000000e+00 0.0000000000000000e+00 0.0000000000000000e+00 0.0000000000000000e+00  7.5969639360307685e-03 8.2559721520272287e-06 0.0000000000000000e+00 8.2559721520272287e-06 7.6522281305421991e-03 0.0000000000000000e+00 0.0000000000000000e+00 0.0000000000000000e+00 0.0000000000000000e+00  7.6155131682190237e-03 9.4368881831072575e-06 0.0000000000000000e+00 9.4368881831072575e-06 7.6650442659452339e-03 0.0000000000000000e+00 0.0000000000000000e+00 0.0000000000000000e+00 0.0000000000000000e+00  7.6290546971709890e-03 1.0671059947276503e-05 0.0000000000000000e+00 1.0671059947276503e-05 7.6735575142171004e-03 0.0000000000000000e+00 0.0000000000000000e+00 0.0000000000000000e+00 0.0000000000000000e+00  7.6390259818930276e-03 1.0383497580489185e-05 0.0000000000000000e+00 1.0383497580489185e-05 7.6802517198994620e-03 0.0000000000000000e+00 0.0000000000000000e+00 0.0000000000000000e+00 0.0000000000000000e+00  7.6466833553820333e-03 9.4556336938932376e-06 0.0000000000000000e+00 9.4556336938932376e-06 7.6852368391033231e-03 0.0000000000000000e+00 0.0000000000000000e+00 0.0000000000000000e+00 0.0000000000000000e+00  7.6524576652482745e-03 7.9412772361127855e-06 0.0000000000000000e+00 7.9412772361127855e-06 7.6885206070626943e-03 0.0000000000000000e+00 0.0000000000000000e+00 0.0000000000000000e+00 0.0000000000000000e+00  7.6568869426555811e-03 6.0968539973881528e-06 0.0000000000000000e+00 6.0968539973881528e-06 7.6901458755641782e-03 0.0000000000000000e+00 0.0000000000000000e+00 0.0000000000000000e+00 0.0000000000000000e+00  7.6603213163168506e-03 4.0422170878436972e-06 0.0000000000000000e+00 4.0422170878436972e-06 7.6900807409671351e-03 0.0000000000000000e+00 0.0000000000000000e+00 0.0000000000000000e+00 0.0000000000000000e+00  7.6631001826335931e-03 1.8996000646990466e-06 0.0000000000000000e+00 1.8996000646990466e-06 7.6883450852567922e-03 0.0000000000000000e+00 0.0000000000000000e+00 0.0000000000000000e+00 0.0000000000000000e+00  7.6655003810785450e-03 -1.6992847726042647e-07 0.0000000000000000e+00 -1.6992847726042647e-07 7.6850267518949441e-03 0.0000000000000000e+00 0.0000000000000000e+00 0.0000000000000000e+00 0.0000000000000000e+00  7.6677269225297068e-03 -1.8318912496793360e-06 0.0000000000000000e+00 -1.8318912496793360e-06 7.6803322127428110e-03 0.0000000000000000e+00 0.0000000000000000e+00 0.0000000000000000e+00 0.0000000000000000e+00  7.6699096892716701e-03 -2.3432884228971805e-06 0.0000000000000000e+00 -2.3432884228971805e-06 7.6745092455323318e-03 0.0000000000000000e+00 0.0000000000000000e+00 0.0000000000000000e+00 0.0000000000000000e+00  7.6252600452091073e-03 5.8668971940863130e-06 0.0000000000000000e+00 5.8668971940863130e-06 7.6327393016587825e-03 0.0000000000000000e+00 0.0000000000000000e+00 0.0000000000000000e+00 0.0000000000000000e+00  7.6220903752035069e-03 4.9515604704085970e-06 0.0000000000000000e+00 4.9515604704085970e-06 7.6412290254855254e-03 0.0000000000000000e+00 0.0000000000000000e+00 0.0000000000000000e+00 0.0000000000000000e+00  7.6191529364571511e-03 3.1093802430828312e-06 0.0000000000000000e+00 3.1093802430828312e-06 7.6471763532031519e-03 0.0000000000000000e+00 0.0000000000000000e+00 0.0000000000000000e+00 0.0000000000000000e+00  7.6161258988695253e-03 1.0689854323636848e-06 0.0000000000000000e+00 1.0689854323636848e-06 7.6508812888961431e-03 0.0000000000000000e+00 0.0000000000000000e+00 0.0000000000000000e+00 0.0000000000000000e+00  7.6127585891076141e-03 -7.5133716053012163e-07 0.0000000000000000e+00 -7.5133716053012163e-07 7.6524119392106264e-03 0.0000000000000000e+00 0.0000000000000000e+00 0.0000000000000000e+00 0.0000000000000000e+00  7.6087618191154772e-03 -2.1163591510880905e-06 0.0000000000000000e+00 -2.1163591510880905e-06 7.6517886606193696e-03 0.0000000000000000e+00 0.0000000000000000e+00 0.0000000000000000e+00 0.0000000000000000e+00  7.6038332282902972e-03 -2.9167133646058621e-06 0.0000000000000000e+00 -2.9167133646058621e-06 7.6490911933989681e-03 0.0000000000000000e+00 0.0000000000000000e+00 0.0000000000000000e+00 0.0000000000000000e+00  7.5974987897098915e-03 -3.0282243801462631e-06 0.0000000000000000e+00 -3.0282243801462631e-06 7.6442600424991344e-03 0.0000000000000000e+00 0.0000000000000000e+00 0.0000000000000000e+00 0.0000000000000000e+00  7.5895990361493906e-03 -2.7095316906537464e-06 0.0000000000000000e+00 -2.7095316906537464e-06 7.6375408375349094e-03 0.0000000000000000e+00 0.0000000000000000e+00 0.0000000000000000e+00 0.0000000000000000e+00  7.5790183743249511e-03 -1.3553562095883184e-06 0.0000000000000000e+00 -1.3553562095883184e-06 7.6280120228148299e-03 0.0000000000000000e+00 0.0000000000000000e+00 0.0000000000000000e+00 0.0000000000000000e+00  7.5671516781220241e-03 -1.2632050104827408e-06 0.0000000000000000e+00 -1.2632050104827408e-06 7.6161216132684829e-03 0.0000000000000000e+00 0.0000000000000000e+00 0.0000000000000000e+00 0.0000000000000000e+00  7.5509980625441753e-03 2.9732112454186246e-06 0.0000000000000000e+00 2.9732112454186246e-06 7.5989614778543659e-03 0.0000000000000000e+00 0.0000000000000000e+00 0.0000000000000000e+00 0.0000000000000000e+00  7.5327189001421092e-03 6.1275767983448639e-06 0.0000000000000000e+00 6.1275767983448639e-06 7.5688249618431659e-03 0.0000000000000000e+00 0.0000000000000000e+00 0.0000000000000000e+00 0.0000000000000000e+00  7.5173516927426092e-03 1.7411292268462046e-05 0.0000000000000000e+00 1.7411292268462046e-05 7.5458465902452105e-03 0.0000000000000000e+00 0.0000000000000000e+00 0.0000000000000000e+00 0.0000000000000000e+00  7.4660283130402348e-03 5.8911922216885335e-05 0.0000000000000000e+00 5.8911922216885335e-05 7.5178755138744779e-03 0.0000000000000000e+00 0.0000000000000000e+00 0.0000000000000000e+00 0.0000000000000000e+00  7.4187124510824952e-03 1.3445282879028352e-05 0.0000000000000000e+00 1.3445282879028352e-05 7.4292580451066530e-03 0.0000000000000000e+00 0.0000000000000000e+00 0.0000000000000000e+00 0.0000000000000000e+00  7.3755834311534010e-03 7.1210767216058158e-05 0.0000000000000000e+00 7.1210767216058158e-05 7.3463104140141849e-03 0.0000000000000000e+00 0.0000000000000000e+00 0.0000000000000000e+00 0.0000000000000000e+00  7.2232515698427216e-03 1.7010020734327947e-04 0.0000000000000000e+00 1.7010020734327947e-04 7.2742089788924566e-03 0.0000000000000000e+00 0.0000000000000000e+00 0.0000000000000000e+00 0.0000000000000000e+00  6.9839392979650422e-03 3.1350820377363528e-04 0.0000000000000000e+00 3.1350820377363528e-04 6.5434255833535793e-03 0.0000000000000000e+00 0.0000000000000000e+00 0.0000000000000000e+00 0.0000000000000000e+00  7.5888990901814201e-03 -2.5092281621821714e-04 0.0000000000000000e+00 -2.5092281621821714e-04 6.5078594027557675e-03 0.0000000000000000e+00 0.0000000000000000e+00 0.0000000000000000e+00 0.0000000000000000e+00  8.8756932390735357e-03 1.3106484823654482e-04 0.0000000000000000e+00 1.3106484823654482e-04 6.9040795925363677e-03 0.0000000000000000e+00 0.0000000000000000e+00 0.0000000000000000e+00 0.0000000000000000e+00  9.2189519419603912e-03 1.6849431608142095e-03 0.0000000000000000e+00 1.6849431608142095e-03 4.8912550034459568e-03 0.0000000000000000e+00 0.0000000000000000e+00 0.0000000000000000e+00 0.0000000000000000e+00  9.5170700535965966e-03 2.1273920528216178e-03 0.0000000000000000e+00 2.1273920528216178e-03 1.8305301360390931e-03 0.0000000000000000e+00 0.0000000000000000e+00 0.0000000000000000e+00 0.0000000000000000e+00  1.0409957231910908e-02 1.4533452242534068e-03 0.0000000000000000e+00 1.4533452242534068e-03 -2.8205979387805740e-04 0.0000000000000000e+00 0.0000000000000000e+00 0.0000000000000000e+00 0.0000000000000000e+00  1.1334567129488892e-02 9.7838501135376712e-04 0.0000000000000000e+00 9.7838501135376712e-04 -1.6198901416174280e-03 0.0000000000000000e+00 0.0000000000000000e+00 0.0000000000000000e+00 0.0000000000000000e+00  1.2356677813499079e-02 7.6898758752206242e-04 0.0000000000000000e+00 7.6898758752206242e-04 -2.6275968127496092e-03 0.0000000000000000e+00 0.0000000000000000e+00 0.0000000000000000e+00 0.0000000000000000e+00  1.3397688455053271e-02 7.7525965925795903e-04 0.0000000000000000e+00 7.7525965925795903e-04 -3.3194655857845764e-03 0.0000000000000000e+00 0.0000000000000000e+00 0.0000000000000000e+00 0.0000000000000000e+00  1.3735117617126771e-02 9.2754372119930868e-04 0.0000000000000000e+00 9.2754372119930868e-04 -3.7104374149560014e-03 0.0000000000000000e+00 0.0000000000000000e+00 0.0000000000000000e+00 0.0000000000000000e+00  1.2866138608094341e-02 1.0208028332963667e-03 0.0000000000000000e+00 1.0208028332963667e-03 -3.8584036425265747e-03 0.0000000000000000e+00 0.0000000000000000e+00 0.0000000000000000e+00 0.0000000000000000e+00  1.1120216632909968e-02 8.6386372988927443e-04 0.0000000000000000e+00 8.6386372988927443e-04 -3.7886581390034800e-03 0.0000000000000000e+00 0.0000000000000000e+00 0.0000000000000000e+00 0.0000000000000000e+00  9.1788309951645365e-03 4.8449740641421030e-04 0.0000000000000000e+00 4.8449740641421030e-04 -3.6278022990465925e-03 0.0000000000000000e+00 0.0000000000000000e+00 0.0000000000000000e+00 0.0000000000000000e+00  7.3410730931886842e-03 -1.3166440637783598e-04 0.0000000000000000e+00 -1.3166440637783598e-04 -3.3192554615267176e-03 0.0000000000000000e+00 0.0000000000000000e+00 0.0000000000000000e+00 0.0000000000000000e+00  5.7684806357048268e-03 -1.0173107159833386e-03 0.0000000000000000e+00 -1.0173107159833386e-03 -2.0180206887662720e-03 0.0000000000000000e+00 0.0000000000000000e+00 0.0000000000000000e+00 0.0000000000000000e+00  5.0370005604845041e-03 -1.0878247495592589e-03 0.0000000000000000e+00 -1.0878247495592589e-03 6.8709968661103088e-04 0.0000000000000000e+00 0.0000000000000000e+00 0.0000000000000000e+00 0.0000000000000000e+00  4.8026052749512056e-03 7.2042635661329740e-06 0.0000000000000000e+00 7.2042635661329740e-06 2.9146229247621804e-03 0.0000000000000000e+00 0.0000000000000000e+00 0.0000000000000000e+00 0.0000000000000000e+00  3.3572161870304117e-03 6.2858304833730014e-04 0.0000000000000000e+00 6.2858304833730014e-04 2.2909856898615743e-03 0.0000000000000000e+00 0.0000000000000000e+00 0.0000000000000000e+00 0.0000000000000000e+00  2.6085642282103472e-03 1.4033849133900493e-05 0.0000000000000000e+00 1.4033849133900493e-05 2.2692997171147406e-03 0.0000000000000000e+00 0.0000000000000000e+00 0.0000000000000000e+00 0.0000000000000000e+00  2.6332564301053680e-03 1.2217763472639237e-05 0.0000000000000000e+00 1.2217763472639237e-05 2.6505727180016008e-03 0.0000000000000000e+00 0.0000000000000000e+00 0.0000000000000000e+00 0.0000000000000000e+00  2.4529455969187139e-03 2.8563002807182337e-05 0.0000000000000000e+00 2.8563002807182337e-05 2.4456894992354573e-03 0.0000000000000000e+00 0.0000000000000000e+00 0.0000000000000000e+00 0.0000000000000000e+00  2.5434593619754488e-03 1.1718265848695846e-04 0.0000000000000000e+00 1.1718265848695846e-04 2.5555182087448518e-03 0.0000000000000000e+00 0.0000000000000000e+00 0.0000000000000000e+00 0.0000000000000000e+00  2.4096913891494876e-03 -7.3501572814913286e-05 0.0000000000000000e+00 -7.3501572814913286e-05 2.3421881925839373e-03 0.0000000000000000e+00 0.0000000000000000e+00 0.0000000000000000e+00 0.0000000000000000e+00  2.5147917835868483e-03 2.6174581767690768e-05 0.0000000000000000e+00 2.6174581767690768e-05 2.4606479614934684e-03 0.0000000000000000e+00 0.0000000000000000e+00 0.0000000000000000e+00 0.0000000000000000e+00  2.5090685268202508e-03 -1.7250267050777436e-05 0.0000000000000000e+00 -1.7250267050777436e-05 2.4678607518041360e-03 0.0000000000000000e+00 0.0000000000000000e+00 0.0000000000000000e+00 0.0000000000000000e+00  2.5098534507857991e-03 -8.6778139557460082e-06 0.0000000000000000e+00 -8.6778139557460082e-06 2.4615937964688459e-03 0.0000000000000000e+00 0.0000000000000000e+00 0.0000000000000000e+00 0.0000000000000000e+00  2.5034953429686553e-03 -6.8869819363895521e-06 0.0000000000000000e+00 -6.8869819363895521e-06 2.4471792380848373e-03 0.0000000000000000e+00 0.0000000000000000e+00 0.0000000000000000e+00 0.0000000000000000e+00  2.4926399987272355e-03 -6.8115130959001077e-06 0.0000000000000000e+00 -6.8115130959001077e-06 2.4345847535256798e-03 0.0000000000000000e+00 0.0000000000000000e+00 0.0000000000000000e+00 0.0000000000000000e+00  2.4855821996513892e-03 -6.4631169326476694e-06 0.0000000000000000e+00 -6.4631169326476694e-06 2.4239159340325033e-03 0.0000000000000000e+00 0.0000000000000000e+00 0.0000000000000000e+00 0.0000000000000000e+00  2.4804205655426987e-03 -5.9062270084321113e-06 0.0000000000000000e+00 -5.9062270084321113e-06 2.4144083158433739e-03 0.0000000000000000e+00 0.0000000000000000e+00 0.0000000000000000e+00 0.0000000000000000e+00  2.4775647405460735e-03 -4.3252809537837178e-06 0.0000000000000000e+00 -4.3252809537837178e-06 2.4072131130901423e-03 0.0000000000000000e+00 0.0000000000000000e+00 0.0000000000000000e+00 0.0000000000000000e+00  2.4761199214861029e-03 -1.8292343345953265e-06 0.0000000000000000e+00 -1.8292343345953265e-06 2.4028400007732485e-03 0.0000000000000000e+00 0.0000000000000000e+00 0.0000000000000000e+00 0.0000000000000000e+00  2.4757373409512373e-03 1.0990262984547907e-06 0.0000000000000000e+00 1.0990262984547907e-06 2.4019187938606229e-03 0.0000000000000000e+00 0.0000000000000000e+00 0.0000000000000000e+00 0.0000000000000000e+00  2.4763186050379680e-03 3.8526844459159998e-06 0.0000000000000000e+00 3.8526844459159998e-06 2.4045889568407980e-03 0.0000000000000000e+00 0.0000000000000000e+00 0.0000000000000000e+00 0.0000000000000000e+00  2.4779917111402462e-03 5.8185450383707857e-06 0.0000000000000000e+00 5.8185450383707857e-06 2.4105253697972524e-03 0.0000000000000000e+00 0.0000000000000000e+00 0.0000000000000000e+00 0.0000000000000000e+00  2.4813389270589405e-03 6.4755111800697426e-06 0.0000000000000000e+00 6.4755111800697426e-06 2.4195603831612821e-03 0.0000000000000000e+00 0.0000000000000000e+00 0.0000000000000000e+00 0.0000000000000000e+00  2.4860479331878004e-03 5.8193879012383709e-06 0.0000000000000000e+00 5.8193879012383709e-06 2.4303081432196774e-03 0.0000000000000000e+00 0.0000000000000000e+00 0.0000000000000000e+00 0.0000000000000000e+00  2.4944785367050472e-03 1.6718582621065428e-06 0.0000000000000000e+00 1.6718582621065428e-06 2.4445038269285619e-03 0.0000000000000000e+00 0.0000000000000000e+00 0.0000000000000000e+00 0.0000000000000000e+00  2.5021843829567130e-03 -1.1124409008584690e-06 0.0000000000000000e+00 -1.1124409008584690e-06 2.4575125507514998e-03 0.0000000000000000e+00 0.0000000000000000e+00 0.0000000000000000e+00 0.0000000000000000e+00  2.5173180138744239e-03 -1.3822241495612372e-05 0.0000000000000000e+00 -1.3822241495612372e-05 2.4667934111938326e-03 0.0000000000000000e+00 0.0000000000000000e+00 0.0000000000000000e+00 0.0000000000000000e+00  2.5370558490250676e-03 -1.0946173144675006e-05 0.0000000000000000e+00 -1.0946173144675006e-05 2.4797553415587055e-03 0.0000000000000000e+00 0.0000000000000000e+00 0.0000000000000000e+00 0.0000000000000000e+00  2.5305313494269504e-03 2.0890183423214143e-05 0.0000000000000000e+00 2.0890183423214143e-05 2.4811717603298146e-03 0.0000000000000000e+00 0.0000000000000000e+00 0.0000000000000000e+00 0.0000000000000000e+00  2.5613488433080507e-03 -7.9246423096201757e-05 0.0000000000000000e+00 -7.9246423096201757e-05 2.5572342649938500e-03 0.0000000000000000e+00 0.0000000000000000e+00 0.0000000000000000e+00 0.0000000000000000e+00  2.5829404371351598e-03 -1.5410510575529419e-05 0.0000000000000000e+00 -1.5410510575529419e-05 2.5206185191744101e-03 0.0000000000000000e+00 0.0000000000000000e+00 0.0000000000000000e+00 0.0000000000000000e+00  2.5484294502798885e-03 5.1418422406980265e-05 0.0000000000000000e+00 5.1418422406980265e-05 2.6118600537547048e-03 0.0000000000000000e+00 0.0000000000000000e+00 0.0000000000000000e+00 0.0000000000000000e+00  2.4901888855064658e-03 3.6032866420474134e-06 0.0000000000000000e+00 3.6032866420474134e-06 2.0376811760386905e-03 0.0000000000000000e+00 0.0000000000000000e+00 0.0000000000000000e+00 0.0000000000000000e+00  3.4656290694769602e-03 -6.2293489798348955e-04 0.0000000000000000e+00 -6.2293489798348955e-04 2.5881233905515003e-03 0.0000000000000000e+00 0.0000000000000000e+00 0.0000000000000000e+00 0.0000000000000000e+00  4.8101978978151282e-03 -8.1688372989664417e-05 0.0000000000000000e+00 -8.1688372989664417e-05 2.9244258463388345e-03 0.0000000000000000e+00 0.0000000000000000e+00 0.0000000000000000e+00 0.0000000000000000e+00  5.2911502121670726e-03 1.1469230271803036e-03 0.0000000000000000e+00 1.1469230271803036e-03 9.8325822949730537e-04 0.0000000000000000e+00 0.0000000000000000e+00 0.0000000000000000e+00 0.0000000000000000e+00  5.9560807035224572e-03 1.0807208909635938e-03 0.0000000000000000e+00 1.0807208909635938e-03 -1.7646511440719262e-03 0.0000000000000000e+00 0.0000000000000000e+00 0.0000000000000000e+00 0.0000000000000000e+00  7.4186567542520549e-03 1.8344969685614462e-04 0.0000000000000000e+00 1.8344969685614462e-04 -3.1514262351705312e-03 0.0000000000000000e+00 0.0000000000000000e+00 0.0000000000000000e+00 0.0000000000000000e+00  9.1013662259225078e-03 -4.6410089343426131e-04 0.0000000000000000e+00 -4.6410089343426131e-04 -3.6502651284039261e-03 0.0000000000000000e+00 0.0000000000000000e+00 0.0000000000000000e+00 0.0000000000000000e+00  1.0937274418546972e-02 -8.8205269239667171e-04 0.0000000000000000e+00 -8.8205269239667171e-04 -3.9152008833166704e-03 0.0000000000000000e+00 0.0000000000000000e+00 0.0000000000000000e+00 0.0000000000000000e+00  1.2699458931655265e-02 -1.0281486539137159e-03 0.0000000000000000e+00 -1.0281486539137159e-03 -3.9291613889320979e-03 0.0000000000000000e+00 0.0000000000000000e+00 0.0000000000000000e+00 0.0000000000000000e+00  1.3645403260583288e-02 -9.1866650238687857e-04 0.0000000000000000e+00 -9.1866650238687857e-04 -3.6905898053359904e-03 0.0000000000000000e+00 0.0000000000000000e+00 0.0000000000000000e+00 0.0000000000000000e+00  1.3395631807791516e-02 -7.5970138607075663e-04 0.0000000000000000e+00 -7.5970138607075663e-04 -3.2296908182776617e-03 0.0000000000000000e+00 0.0000000000000000e+00 0.0000000000000000e+00 0.0000000000000000e+00  1.2423324877524599e-02 -7.5592521684219953e-04 0.0000000000000000e+00 -7.5592521684219953e-04 -2.5044640988117896e-03 0.0000000000000000e+00 0.0000000000000000e+00 0.0000000000000000e+00 0.0000000000000000e+00  1.1405763751542321e-02 -9.6123411700496989e-04 0.0000000000000000e+00 -9.6123411700496989e-04 -1.5155244317087229e-03 0.0000000000000000e+00 0.0000000000000000e+00 0.0000000000000000e+00 0.0000000000000000e+00  1.0412891611147404e-02 -1.4024566050096648e-03 0.0000000000000000e+00 -1.4024566050096648e-03 -3.0565435343742623e-04 0.0000000000000000e+00 0.0000000000000000e+00 0.0000000000000000e+00 0.0000000000000000e+00  9.4554481250565120e-03 -2.0905998968953304e-03 0.0000000000000000e+00 -2.0905998968953304e-03 1.7491735802286383e-03 0.0000000000000000e+00 0.0000000000000000e+00 0.0000000000000000e+00 0.0000000000000000e+00  9.1021096345086996e-03 -1.6470908854878553e-03 0.0000000000000000e+00 -1.6470908854878553e-03 4.7410201087884091e-03 0.0000000000000000e+00 0.0000000000000000e+00 0.0000000000000000e+00 0.0000000000000000e+00  8.6880349534961994e-03 -1.4554847925940444e-04 0.0000000000000000e+00 -1.4554847925940444e-04 6.7269474041390335e-03 0.0000000000000000e+00 0.0000000000000000e+00 0.0000000000000000e+00 0.0000000000000000e+00  7.4807603127250979e-03 2.6047165765693929e-04 0.0000000000000000e+00 2.6047165765693929e-04 6.3303309472812720e-03 0.0000000000000000e+00 0.0000000000000000e+00 0.0000000000000000e+00 0.0000000000000000e+00  6.8797595975060065e-03 -3.0555306282402405e-04 0.0000000000000000e+00 -3.0555306282402405e-04 6.5469991526038831e-03 0.0000000000000000e+00 0.0000000000000000e+00 0.0000000000000000e+00 0.0000000000000000e+00  7.1040002003873379e-03 -1.8371329147335780e-04 0.0000000000000000e+00 -1.8371329147335780e-04 7.1772064445297049e-03 0.0000000000000000e+00 0.0000000000000000e+00 0.0000000000000000e+00 0.0000000000000000e+00  7.1383338325717314e-03 5.3139877707800358e-06 0.0000000000000000e+00 5.3139877707800358e-06 7.1330339847287105e-03 0.0000000000000000e+00 0.0000000000000000e+00 0.0000000000000000e+00 0.0000000000000000e+00  7.3285381196283635e-03 9.6313666314191547e-06 0.0000000000000000e+00 9.6313666314191547e-06 7.3963699181340730e-03 0.0000000000000000e+00 0.0000000000000000e+00 0.0000000000000000e+00 0.0000000000000000e+00  7.3302103180614376e-03 -8.7094824147209858e-05 0.0000000000000000e+00 -8.7094824147209858e-05 7.3572699821295839e-03 0.0000000000000000e+00 0.0000000000000000e+00 0.0000000000000000e+00 0.0000000000000000e+00  7.5104041097567419e-03 1.9012187530443638e-06 0.0000000000000000e+00 1.9012187530443634e-06 7.5395864129962501e-03 0.0000000000000000e+00 0.0000000000000000e+00 0.0000000000000000e+00 0.0000000000000000e+00  7.5585652431858757e-03 -3.4183938225948235e-05 0.0000000000000000e+00 -3.4183938225948235e-05 7.6126873345121219e-03 0.0000000000000000e+00 0.0000000000000000e+00 0.0000000000000000e+00 0.0000000000000000e+00  7.6001919745163583e-03 -1.0281488479006573e-05 0.0000000000000000e+00 -1.0281488479006573e-05 7.6483244204635856e-03 0.0000000000000000e+00 0.0000000000000000e+00 0.0000000000000000e+00 0.0000000000000000e+00  7.6192596419511118e-03 -4.3028918796086319e-06 0.0000000000000000e+00 -4.3028918796086319e-06 7.6608677929113998e-03 0.0000000000000000e+00 0.0000000000000000e+00 0.0000000000000000e+00 0.0000000000000000e+00  7.6295692795738295e-03 -1.6699682057226224e-07 0.0000000000000000e+00 -1.6699682057226224e-07 7.6719004951185258e-03 0.0000000000000000e+00 0.0000000000000000e+00 0.0000000000000000e+00 0.0000000000000000e+00  7.6381789091065980e-03 2.5494801264962266e-06 0.0000000000000000e+00 2.5494801264962266e-06 7.6799172543304088e-03 0.0000000000000000e+00 0.0000000000000000e+00 0.0000000000000000e+00 0.0000000000000000e+00  7.6443703469267574e-03 3.2216678499492657e-06 0.0000000000000000e+00 3.2216678499492657e-06 7.6856789889646207e-03 0.0000000000000000e+00 0.0000000000000000e+00 0.0000000000000000e+00 0.0000000000000000e+00  7.6495387203894677e-03 3.1077270094975420e-06 0.0000000000000000e+00 3.1077270094975420e-06 7.6896385238504174e-03 0.0000000000000000e+00 0.0000000000000000e+00 0.0000000000000000e+00 0.0000000000000000e+00  7.6536367393474853e-03 2.2745263968240246e-06 0.0000000000000000e+00 2.2745263968240246e-06 7.6916680138007839e-03 0.0000000000000000e+00 0.0000000000000000e+00 0.0000000000000000e+00 0.0000000000000000e+00  7.6570082911749104e-03 9.4355267217434607e-07 0.0000000000000000e+00 9.4355267217434607e-07 7.6919102719926547e-03 0.0000000000000000e+00 0.0000000000000000e+00 0.0000000000000000e+00 0.0000000000000000e+00  7.6598766499768895e-03 -7.5750947225270191e-07 0.0000000000000000e+00 -7.5750947225270191e-07 7.6903229019958490e-03 0.0000000000000000e+00 0.0000000000000000e+00 0.0000000000000000e+00 0.0000000000000000e+00  7.6624797661158381e-03 -2.6080477023412800e-06 0.0000000000000000e+00 -2.6080477023412800e-06 7.6869027538578076e-03 0.0000000000000000e+00 0.0000000000000000e+00 0.0000000000000000e+00 0.0000000000000000e+00  7.6650243076082760e-03 -4.2270843743386031e-06 0.0000000000000000e+00 -4.2270843743386031e-06 7.6816040410113140e-03 0.0000000000000000e+00 0.0000000000000000e+00 0.0000000000000000e+00 0.0000000000000000e+00  7.6677695109414494e-03 -4.9566288155986669e-06 0.0000000000000000e+00 -4.9566288155986669e-06 7.6741989861212941e-03 0.0000000000000000e+00 0.0000000000000000e+00 0.0000000000000000e+00 0.0000000000000000e+00  7.6247683072065073e-03 9.5821504392751483e-06 0.0000000000000000e+00 9.5821504392751483e-06 7.6333656263747243e-03 0.0000000000000000e+00 0.0000000000000000e+00 0.0000000000000000e+00 0.0000000000000000e+00  7.6212911242909843e-03 7.9981379991607237e-06 0.0000000000000000e+00 7.9981379991607237e-06 7.6429288042050084e-03 0.0000000000000000e+00 0.0000000000000000e+00 0.0000000000000000e+00 0.0000000000000000e+00  7.6183575697809343e-03 5.9856579231180663e-06 0.0000000000000000e+00 5.9856579231180663e-06 7.6492077664066030e-03 0.0000000000000000e+00 0.0000000000000000e+00 0.0000000000000000e+00 0.0000000000000000e+00  7.6155914852645808e-03 4.0523488446946821e-06 0.0000000000000000e+00 4.0523488446946821e-06 7.6527417528086646e-03 0.0000000000000000e+00 0.0000000000000000e+00 0.0000000000000000e+00 0.0000000000000000e+00  7.6127193217433225e-03 2.5873500052795626e-06 0.0000000000000000e+00 2.5873500052795626e-06 7.6537787553019963e-03 0.0000000000000000e+00 0.0000000000000000e+00 0.0000000000000000e+00 0.0000000000000000e+00  7.6095349265789449e-03 1.8363980814219571e-06 0.0000000000000000e+00 1.8363980814219571e-06 7.6525032920694300e-03 0.0000000000000000e+00 0.0000000000000000e+00 0.0000000000000000e+00 0.0000000000000000e+00  7.6056633373530998e-03 2.0349072443128798e-06 0.0000000000000000e+00 2.0349072443128798e-06 7.6489212810222657e-03 0.0000000000000000e+00 0.0000000000000000e+00 0.0000000000000000e+00 0.0000000000000000e+00  7.6011372083991313e-03 3.0852602451794808e-06 0.0000000000000000e+00 3.0852602451794808e-06 7.6435214625874149e-03 0.0000000000000000e+00 0.0000000000000000e+00 0.0000000000000000e+00 0.0000000000000000e+00  7.5945146063388031e-03 5.8114549783337243e-06 0.0000000000000000e+00 5.8114549783337243e-06 7.6352070772736152e-03 0.0000000000000000e+00 0.0000000000000000e+00 0.0000000000000000e+00 0.0000000000000000e+00  7.5883371443448144e-03 7.2937037875526141e-06 0.0000000000000000e+00 7.2937037875526141e-06 7.6271874735826216e-03 0.0000000000000000e+00 0.0000000000000000e+00 0.0000000000000000e+00 0.0000000000000000e+00  7.5738274608431692e-03 1.6131351515771479e-05 0.0000000000000000e+00 1.6131351515771479e-05 7.6112553023183482e-03 0.0000000000000000e+00 0.0000000000000000e+00 0.0000000000000000e+00 0.0000000000000000e+00  7.5682407605439303e-03 6.4212735999709542e-06 0.0000000000000000e+00 6.4212735999709542e-06 7.5967535223154430e-03 0.0000000000000000e+00 0.0000000000000000e+00 0.0000000000000000e+00 0.0000000000000000e+00  7.5424672122091189e-03 3.8086781944701752e-05 0.0000000000000000e+00 3.8086781944701752e-05 7.5694660973707447e-03 0.0000000000000000e+00 0.0000000000000000e+00 0.0000000000000000e+00 0.0000000000000000e+00  7.4973794534693976e-03 5.2855866938628892e-05 0.0000000000000000e+00 5.2855866938628892e-05 7.4379186376732978e-03 0.0000000000000000e+00 0.0000000000000000e+00 0.0000000000000000e+00 0.0000000000000000e+00  7.5863463720980242e-03 -2.3779682461157997e-05 0.0000000000000000e+00 -2.3779682461157997e-05 7.5571948190842550e-03 0.0000000000000000e+00 0.0000000000000000e+00 0.0000000000000000e+00 0.0000000000000000e+00  7.3337380251959445e-03 3.1061332296986608e-04 0.0000000000000000e+00 3.1061332296986608e-04 7.3801173583065652e-03 0.0000000000000000e+00 0.0000000000000000e+00 0.0000000000000000e+00 0.0000000000000000e+00  7.2214887114546511e-03 1.9533246652563263e-04 0.0000000000000000e+00 1.9533246652563263e-04 6.3351451951325589e-03 0.0000000000000000e+00 0.0000000000000000e+00 0.0000000000000000e+00 0.0000000000000000e+00  9.2390926290205917e-03 -9.6555082466483612e-04 0.0000000000000000e+00 -9.6555082466483612e-04 7.5375205031614923e-03 0.0000000000000000e+00 0.0000000000000000e+00 0.0000000000000000e+00 0.0000000000000000e+00  1.0354372639307904e-02 1.9609117623100723e-03 0.0000000000000000e+00 1.9609117623100723e-03 7.3873669503654940e-03 0.0000000000000000e+00 0.0000000000000000e+00 0.0000000000000000e+00 0.0000000000000000e+00  9.8127211255776784e-03 6.0854529805098607e-03 0.0000000000000000e+00 6.0854529805098607e-03 -1.6162127750745916e-03 0.0000000000000000e+00 0.0000000000000000e+00 0.0000000000000000e+00 0.0000000000000000e+00  2.3242028671424868e-02 -1.6662526034279368e-03 0.0000000000000000e+00 -1.6662526034279368e-03 -1.4004895538592714e-02 0.0000000000000000e+00 0.0000000000000000e+00 0.0000000000000000e+00 0.0000000000000000e+00  7.0698637541585785e-02 -1.5888111382301836e-02 0.0000000000000000e+00 -1.5888111382301836e-02 -6.4827633661595999e-03 0.0000000000000000e+00 0.0000000000000000e+00 0.0000000000000000e+00 0.0000000000000000e+00  1.4037062878712622e-01 -1.4214174278401180e-02 0.0000000000000000e+00 -1.4214174278401180e-02 2.7646278735178755e-02 0.0000000000000000e+00 0.0000000000000000e+00 0.0000000000000000e+00 0.0000000000000000e+00  1.9499958831178385e-01 -3.5123836010021556e-03 0.0000000000000000e+00 -3.5123836010021556e-03 7.4854994375564282e-02 0.0000000000000000e+00 0.0000000000000000e+00 0.0000000000000000e+00 0.0000000000000000e+00  2.2038273972213204e-01 4.9107631596350719e-03 0.0000000000000000e+00 4.9107631596350719e-03 1.2214861405121469e-01 0.0000000000000000e+00 0.0000000000000000e+00 0.0000000000000000e+00 0.0000000000000000e+00  2.2230935041032499e-01 8.8589214530521588e-03 0.0000000000000000e+00 8.8589214530521588e-03 1.6182603681186852e-01 0.0000000000000000e+00 0.0000000000000000e+00 0.0000000000000000e+00 0.0000000000000000e+00  2.1343836843069863e-01 7.4573064532584337e-03 0.0000000000000000e+00 7.4573064532584337e-03 1.8945039827716881e-01 0.0000000000000000e+00 0.0000000000000000e+00 0.0000000000000000e+00 0.0000000000000000e+00  2.0737186980378827e-01 2.1545223815340438e-03 0.0000000000000000e+00 2.1545223815340438e-03 2.0064813473024892e-01 0.0000000000000000e+00 0.0000000000000000e+00 0.0000000000000000e+00 0.0000000000000000e+00  2.1080069778979973e-01 -3.5760714382064179e-03 0.0000000000000000e+00 -3.5760714382064179e-03 1.9269267020819350e-01 0.0000000000000000e+00 0.0000000000000000e+00 0.0000000000000000e+00 0.0000000000000000e+00  2.1905798887733216e-01 -6.0659271423313035e-03 0.0000000000000000e+00 -6.0659271423313035e-03 1.6723529102784224e-01 0.0000000000000000e+00 0.0000000000000000e+00 0.0000000000000000e+00 0.0000000000000000e+00  2.1931121865306252e-01 -3.4118002651090896e-03 0.0000000000000000e+00 -3.4118002651090896e-03 1.2855291309929071e-01 0.0000000000000000e+00 0.0000000000000000e+00 0.0000000000000000e+00 0.0000000000000000e+00  1.9829770714257955e-01 3.8396818077227161e-03 0.0000000000000000e+00 3.8396818077227161e-03 8.1252292369927384e-02 0.0000000000000000e+00 0.0000000000000000e+00 0.0000000000000000e+00 0.0000000000000000e+00  1.4837598565303847e-01 1.4006483264979891e-02 0.0000000000000000e+00 1.4006483264979891e-02 3.2540552796238020e-02 0.0000000000000000e+00 0.0000000000000000e+00 0.0000000000000000e+00 0.0000000000000000e+00  7.8562172805996131e-02 1.8133315882925674e-02 0.0000000000000000e+00 1.8133315882925674e-02 -5.2241211501950881e-03 0.0000000000000000e+00 0.0000000000000000e+00 0.0000000000000000e+00 0.0000000000000000e+00  2.4502408681877721e-02 5.4283424956481363e-03 0.0000000000000000e+00 5.4283424956481363e-03 -1.8053992253076329e-02 0.0000000000000000e+00 0.0000000000000000e+00 0.0000000000000000e+00 0.0000000000000000e+00  5.2244982313587388e-03 -5.1906717197517062e-03 0.0000000000000000e+00 -5.1906717197517062e-03 -8.7966111657796376e-03 0.0000000000000000e+00 0.0000000000000000e+00 0.0000000000000000e+00 0.0000000000000000e+00  4.8819804309355539e-03 -2.5159043169050506e-03 0.0000000000000000e+00 -2.5159043169050506e-03 1.6690201368736762e-03 0.0000000000000000e+00 0.0000000000000000e+00 0.0000000000000000e+00 0.0000000000000000e+00  4.8324221422762336e-03 9.3634833847440360e-04 0.0000000000000000e+00 9.3634833847440360e-04 3.1740513784655772e-03 0.0000000000000000e+00 0.0000000000000000e+00 0.0000000000000000e+00 0.0000000000000000e+00  2.5738175563651583e-03 2.6426976966261617e-04 0.0000000000000000e+00 2.6426976966261617e-04 1.7970878632764483e-03 0.0000000000000000e+00 0.0000000000000000e+00 0.0000000000000000e+00 0.0000000000000000e+00  2.4213661390970575e-03 -2.0240829846220588e-04 0.0000000000000000e+00 -2.0240829846220588e-04 2.4886569892498193e-03 0.0000000000000000e+00 0.0000000000000000e+00 0.0000000000000000e+00 0.0000000000000000e+00  2.4459750375388544e-03 7.2023054266588983e-05 0.0000000000000000e+00 7.2023054266588983e-05 2.5063859948035380e-03 0.0000000000000000e+00 0.0000000000000000e+00 0.0000000000000000e+00 0.0000000000000000e+00  2.3986054304267214e-03 1.1943137556715634e-04 0.0000000000000000e+00 1.1943137556715634e-04 2.3355002583923725e-03 0.0000000000000000e+00 0.0000000000000000e+00 0.0000000000000000e+00 0.0000000000000000e+00  2.4449029284792554e-03 -4.3645622197562156e-05 0.0000000000000000e+00 -4.3645622197562156e-05 2.4683333524192080e-03 0.0000000000000000e+00 0.0000000000000000e+00 0.0000000000000000e+00 0.0000000000000000e+00  2.5023247633128225e-03 2.2194636440926641e-06 0.0000000000000000e+00 2.2194636440926641e-06 2.4564752772103923e-03 0.0000000000000000e+00 0.0000000000000000e+00 0.0000000000000000e+00 0.0000000000000000e+00  2.4923746295269808e-03 -2.7880150907873955e-07 0.0000000000000000e+00 -2.7880150907873955e-07 2.4409937941173633e-03 0.0000000000000000e+00 0.0000000000000000e+00 0.0000000000000000e+00 0.0000000000000000e+00  2.4906957990238677e-03 1.8684689703803518e-06 0.0000000000000000e+00 1.8684689703803518e-06 2.4376183625972451e-03 0.0000000000000000e+00 0.0000000000000000e+00 0.0000000000000000e+00 0.0000000000000000e+00  2.4829291738909694e-03 -1.0126662074788889e-06 0.0000000000000000e+00 -1.0126662074788889e-06 2.4245578496194160e-03 0.0000000000000000e+00 0.0000000000000000e+00 0.0000000000000000e+00 0.0000000000000000e+00  2.4802008607896484e-03 -2.9284996453729366e-06 0.0000000000000000e+00 -2.9284996453729366e-06 2.4145564830859189e-03 0.0000000000000000e+00 0.0000000000000000e+00 0.0000000000000000e+00 0.0000000000000000e+00  2.4786558056688877e-03 -2.8408951553449568e-06 0.0000000000000000e+00 -2.8408951553449568e-06 2.4056552818854352e-03 0.0000000000000000e+00 0.0000000000000000e+00 0.0000000000000000e+00 0.0000000000000000e+00  2.4781472458382304e-03 -1.2420943686056235e-06 0.0000000000000000e+00 -1.2420943686056235e-06 2.4003853620677795e-03 0.0000000000000000e+00 0.0000000000000000e+00 0.0000000000000000e+00 0.0000000000000000e+00  2.4779105581282509e-03 1.1426474931842037e-06 0.0000000000000000e+00 1.1426474931842037e-06 2.3992745307847966e-03 0.0000000000000000e+00 0.0000000000000000e+00 0.0000000000000000e+00 0.0000000000000000e+00  2.4778383000112225e-03 3.2154420023030805e-06 0.0000000000000000e+00 3.2154420023030805e-06 2.4025072812495218e-03 0.0000000000000000e+00 0.0000000000000000e+00 0.0000000000000000e+00 0.0000000000000000e+00  2.4784209121018028e-03 4.2182824884303553e-06 0.0000000000000000e+00 4.2182824884303553e-06 2.4099492009362188e-03 0.0000000000000000e+00 0.0000000000000000e+00 0.0000000000000000e+00 0.0000000000000000e+00  2.4793802420799075e-03 3.4831477821398820e-06 0.0000000000000000e+00 3.4831477821398820e-06 2.4198030358266575e-03 0.0000000000000000e+00 0.0000000000000000e+00 0.0000000000000000e+00 0.0000000000000000e+00  2.4836910632245694e-03 1.3893064402105591e-07 0.0000000000000000e+00 1.3893064402105588e-07 2.4351114708314834e-03 0.0000000000000000e+00 0.0000000000000000e+00 0.0000000000000000e+00 0.0000000000000000e+00  2.4826327762962059e-03 -6.8001421816836195e-07 0.0000000000000000e+00 -6.8001421816836195e-07 2.4450065159181467e-03 0.0000000000000000e+00 0.0000000000000000e+00 0.0000000000000000e+00 0.0000000000000000e+00  2.4988060092173319e-03 -2.3046476775502531e-05 0.0000000000000000e+00 -2.3046476775502531e-05 2.4743504828128250e-03 0.0000000000000000e+00 0.0000000000000000e+00 0.0000000000000000e+00 0.0000000000000000e+00  2.4759936920238550e-03 3.5840279316153602e-06 0.0000000000000000e+00 3.5840279316153602e-06 2.4771508283799033e-03 0.0000000000000000e+00 0.0000000000000000e+00 0.0000000000000000e+00 0.0000000000000000e+00  2.4735115634502277e-03 -4.8650277751144448e-05 0.0000000000000000e+00 -4.8650277751144448e-05 2.4031598114115406e-03 0.0000000000000000e+00 0.0000000000000000e+00 0.0000000000000000e+00 0.0000000000000000e+00  2.5722301972814828e-03 -6.6496106908284913e-05 0.0000000000000000e+00 -6.6496106908284913e-05 2.5658194520116781e-03 0.0000000000000000e+00 0.0000000000000000e+00 0.0000000000000000e+00 0.0000000000000000e+00  2.3457119600321865e-03 2.5023277176069639e-04 0.0000000000000000e+00 2.5023277176069639e-04 2.4439155308393634e-03 0.0000000000000000e+00 0.0000000000000000e+00 0.0000000000000000e+00 0.0000000000000000e+00  2.4951241663694768e-03 -2.5047466498497609e-04 0.0000000000000000e+00 -2.5047466498497609e-04 1.6088258188961117e-03 0.0000000000000000e+00 0.0000000000000000e+00 0.0000000000000000e+00 0.0000000000000000e+00  4.7075194597211824e-03 -1.0278033395582341e-03 0.0000000000000000e+00 -1.0278033395582341e-03 3.2172539934816778e-03 0.0000000000000000e+00 0.0000000000000000e+00 0.0000000000000000e+00 0.0000000000000000e+00  5.3399800973407269e-03 2.5609388999185334e-03 0.0000000000000000e+00 2.5609388999185334e-03 2.2337453381432665e-03 0.0000000000000000e+00 0.0000000000000000e+00 0.0000000000000000e+00 0.0000000000000000e+00  5.5286380958886562e-03 5.3318073809022612e-03 0.0000000000000000e+00 5.3318073809022612e-03 -8.2644662011707483e-03 0.0000000000000000e+00 0.0000000000000000e+00 0.0000000000000000e+00 0.0000000000000000e+00  2.4152803369322934e-02 -5.3743422530714543e-03 0.0000000000000000e+00 -5.3743422530714543e-03 -1.8346563869878325e-02 0.0000000000000000e+00 0.0000000000000000e+00 0.0000000000000000e+00 0.0000000000000000e+00  7.7955684832296049e-02 -1.8318869076458629e-02 0.0000000000000000e+00 -1.8318869076458629e-02 -5.4512096025163131e-03 0.0000000000000000e+00 0.0000000000000000e+00 0.0000000000000000e+00 0.0000000000000000e+00  1.4811141695435073e-01 -1.4165491627046278e-02 0.0000000000000000e+00 -1.4165491627046278e-02 3.2599278506312307e-02 0.0000000000000000e+00 0.0000000000000000e+00 0.0000000000000000e+00 0.0000000000000000e+00  1.9846454150388165e-01 -3.9137606622661972e-03 0.0000000000000000e+00 -3.9137606622661972e-03 8.1302864510571157e-02 0.0000000000000000e+00 0.0000000000000000e+00 0.0000000000000000e+00 0.0000000000000000e+00  2.1977684819107934e-01 3.3938599924622148e-03 0.0000000000000000e+00 3.3938599924622148e-03 1.2827928370189565e-01 0.0000000000000000e+00 0.0000000000000000e+00 0.0000000000000000e+00 0.0000000000000000e+00  2.1969233655813841e-01 6.0630111030201472e-03 0.0000000000000000e+00 6.0630111030201472e-03 1.6648557352488061e-01 0.0000000000000000e+00 0.0000000000000000e+00 0.0000000000000000e+00 0.0000000000000000e+00  2.1151014454864328e-01 3.5911237300752506e-03 0.0000000000000000e+00 3.5911237300752506e-03 1.9162067350820042e-01 0.0000000000000000e+00 0.0000000000000000e+00 0.0000000000000000e+00 0.0000000000000000e+00  2.0801803977698671e-01 -2.0674031021556869e-03 0.0000000000000000e+00 -2.0674031021556869e-03 1.9952743780794069e-01 0.0000000000000000e+00 0.0000000000000000e+00 0.0000000000000000e+00 0.0000000000000000e+00  2.1383435971275291e-01 -7.2876922296386199e-03 0.0000000000000000e+00 -7.2876922296386199e-03 1.8846531209203496e-01 0.0000000000000000e+00 0.0000000000000000e+00 0.0000000000000000e+00 0.0000000000000000e+00  2.2232204346011472e-01 -8.6483364305527631e-03 0.0000000000000000e+00 -8.6483364305527631e-03 1.6098817626440176e-01 0.0000000000000000e+00 0.0000000000000000e+00 0.0000000000000000e+00 0.0000000000000000e+00  2.2003777686107462e-01 -4.7306964045257058e-03 0.0000000000000000e+00 -4.7306964045257058e-03 1.2138666708287192e-01 0.0000000000000000e+00 0.0000000000000000e+00 0.0000000000000000e+00 0.0000000000000000e+00  1.9449468707869561e-01 3.6036460962445369e-03 0.0000000000000000e+00 3.6036460962445369e-03 7.4204410682002245e-02 0.0000000000000000e+00 0.0000000000000000e+00 0.0000000000000000e+00 0.0000000000000000e+00  1.3994507609192874e-01 1.4204867649266989e-02 0.0000000000000000e+00 1.4204867649266989e-02 2.7251506761213077e-02 0.0000000000000000e+00 0.0000000000000000e+00 0.0000000000000000e+00 0.0000000000000000e+00  7.0592071108083576e-02 1.5706062378773714e-02 0.0000000000000000e+00 1.5706062378773714e-02 -6.4591504336309500e-03 0.0000000000000000e+00 0.0000000000000000e+00 0.0000000000000000e+00 0.0000000000000000e+00  2.3311921150079660e-02 1.5513405781430157e-03 0.0000000000000000e+00 1.5513405781430157e-03 -1.3761145962521988e-02 0.0000000000000000e+00 0.0000000000000000e+00 0.0000000000000000e+00 0.0000000000000000e+00  9.7128580171082224e-03 -6.0469316194988508e-03 0.0000000000000000e+00 -6.0469316194988508e-03 -1.7770759816730932e-03 0.0000000000000000e+00 0.0000000000000000e+00 0.0000000000000000e+00 0.0000000000000000e+00  9.9818838512433887e-03 -1.9527114031241577e-03 0.0000000000000000e+00 -1.9527114031241577e-03 6.8282815856441532e-03 0.0000000000000000e+00 0.0000000000000000e+00 0.0000000000000000e+00 0.0000000000000000e+00  9.1742831579517594e-03 9.4248126051184008e-04 0.0000000000000000e+00 9.4248126051184008e-04 7.3603882830186092e-03 0.0000000000000000e+00 0.0000000000000000e+00 0.0000000000000000e+00 0.0000000000000000e+00  7.1497801858660505e-03 -1.8155249249536561e-04 0.0000000000000000e+00 -1.8155249249536561e-04 6.4065036720702667e-03 0.0000000000000000e+00 0.0000000000000000e+00 0.0000000000000000e+00 0.0000000000000000e+00  7.2850499308476551e-03 -2.9828252644101115e-04 0.0000000000000000e+00 -2.9828252644101115e-04 7.3379319201056841e-03 0.0000000000000000e+00 0.0000000000000000e+00 0.0000000000000000e+00 0.0000000000000000e+00  7.3808242242289490e-03 3.4594482173796483e-05 0.0000000000000000e+00 3.4594482173796497e-05 7.4235978283889430e-03 0.0000000000000000e+00 0.0000000000000000e+00 0.0000000000000000e+00 0.0000000000000000e+00  7.4078739813451975e-03 1.4824011136470200e-05 0.0000000000000000e+00 1.4824011136470205e-05 7.3521306873178607e-03 0.0000000000000000e+00 0.0000000000000000e+00 0.0000000000000000e+00 0.0000000000000000e+00  7.5285067291972936e-03 -6.8645914637146583e-05 0.0000000000000000e+00 -6.8645914637146583e-05 7.6036045697224974e-03 0.0000000000000000e+00 0.0000000000000000e+00 0.0000000000000000e+00 0.0000000000000000e+00  7.6092725455773804e-03 -2.3246435530926212e-05 0.0000000000000000e+00 -2.3246435530926212e-05 7.6276072460380118e-03 0.0000000000000000e+00 0.0000000000000000e+00 0.0000000000000000e+00 0.0000000000000000e+00  7.6236326477050649e-03 -1.8860102251212362e-05 0.0000000000000000e+00 -1.8860102251212362e-05 7.6496026642184521e-03 0.0000000000000000e+00 0.0000000000000000e+00 0.0000000000000000e+00 0.0000000000000000e+00  7.6377735234039916e-03 -6.5170522701841430e-06 0.0000000000000000e+00 -6.5170522701841430e-06 7.6690066019600659e-03 0.0000000000000000e+00 0.0000000000000000e+00 0.0000000000000000e+00 0.0000000000000000e+00  7.6414895442279140e-03 -3.8361492400783695e-06 0.0000000000000000e+00 -3.8361492400783695e-06 7.6774020424788380e-03 0.0000000000000000e+00 0.0000000000000000e+00 0.0000000000000000e+00 0.0000000000000000e+00  7.6466865249306907e-03 -1.6240639069395973e-06 0.0000000000000000e+00 -1.6240639069395973e-06 7.6851641710960006e-03 0.0000000000000000e+00 0.0000000000000000e+00 0.0000000000000000e+00 0.0000000000000000e+00  7.6503788038148925e-03 -1.0233857961990502e-06 0.0000000000000000e+00 -1.0233857961990502e-06 7.6896694148840868e-03 0.0000000000000000e+00 0.0000000000000000e+00 0.0000000000000000e+00 0.0000000000000000e+00  7.6537123842482530e-03 -1.0924570890291733e-06 0.0000000000000000e+00 -1.0924570890291733e-06 7.6924738830942644e-03 0.0000000000000000e+00 0.0000000000000000e+00 0.0000000000000000e+00 0.0000000000000000e+00  7.6564900932128309e-03 -1.9288433301834135e-06 0.0000000000000000e+00 -1.9288433301834135e-06 7.6932453576797743e-03 0.0000000000000000e+00 0.0000000000000000e+00 0.0000000000000000e+00 0.0000000000000000e+00  7.6590071306591101e-03 -3.3420358689495917e-06 0.0000000000000000e+00 -3.3420358689495917e-06 7.6920511457957749e-03 0.0000000000000000e+00 0.0000000000000000e+00 0.0000000000000000e+00 0.0000000000000000e+00  7.6614405240051399e-03 -5.1177945783104562e-06 0.0000000000000000e+00 -5.1177945783104562e-06 7.6887273477057472e-03 0.0000000000000000e+00 0.0000000000000000e+00 0.0000000000000000e+00 0.0000000000000000e+00  7.6640286443023691e-03 -6.8940453354346137e-06 0.0000000000000000e+00 -6.8940453354346137e-06 7.6830620443117436e-03 0.0000000000000000e+00 0.0000000000000000e+00 0.0000000000000000e+00 0.0000000000000000e+00  7.6670881166795808e-03 -8.1893260325533845e-06 0.0000000000000000e+00 -8.1893260325533845e-06 7.6746039679734127e-03 0.0000000000000000e+00 0.0000000000000000e+00 0.0000000000000000e+00 0.0000000000000000e+00  7.6262298634494040e-03 1.3611575952102958e-05 0.0000000000000000e+00 1.3611575952102958e-05 7.6351962348530263e-03 0.0000000000000000e+00 0.0000000000000000e+00 0.0000000000000000e+00 0.0000000000000000e+00  7.6227006815552840e-03 1.1075770077228176e-05 0.0000000000000000e+00 1.1075770077228176e-05 7.6451430654230221e-03 0.0000000000000000e+00 0.0000000000000000e+00 0.0000000000000000e+00 0.0000000000000000e+00  7.6199849490220187e-03 8.6004395938695579e-06 0.0000000000000000e+00 8.6004395938695579e-06 7.6513950751882975e-03 0.0000000000000000e+00 0.0000000000000000e+00 0.0000000000000000e+00 0.0000000000000000e+00  7.6177233570144587e-03 6.5051763998728959e-06 0.0000000000000000e+00 6.5051763998728959e-06 7.6545046776260502e-03 0.0000000000000000e+00 0.0000000000000000e+00 0.0000000000000000e+00 0.0000000000000000e+00  7.6157048375326448e-03 5.0824761823295418e-06 0.0000000000000000e+00 5.0824761823295418e-06 7.6548474958417802e-03 0.0000000000000000e+00 0.0000000000000000e+00 0.0000000000000000e+00 0.0000000000000000e+00  7.6136202957344367e-03 4.6429923253159698e-06 0.0000000000000000e+00 4.6429923253159698e-06 7.6525430750378669e-03 0.0000000000000000e+00 0.0000000000000000e+00 0.0000000000000000e+00 0.0000000000000000e+00  7.6116817120888179e-03 5.1984845864980978e-06 0.0000000000000000e+00 5.1984845864980978e-06 7.6481709759623111e-03 0.0000000000000000e+00 0.0000000000000000e+00 0.0000000000000000e+00 0.0000000000000000e+00  7.6084510480375987e-03 7.5397206714152369e-06 0.0000000000000000e+00 7.5397206714152369e-06 7.6405392724285346e-03 0.0000000000000000e+00 0.0000000000000000e+00 0.0000000000000000e+00 0.0000000000000000e+00  7.6077198062325223e-03 9.3866759833341597e-06 0.0000000000000000e+00 9.3866759833341597e-06 7.6342327626677522e-03 0.0000000000000000e+00 0.0000000000000000e+00 0.0000000000000000e+00 0.0000000000000000e+00  7.5968698329904787e-03 2.0074615254659470e-05 0.0000000000000000e+00 2.0074615254659470e-05 7.6156481509434210e-03 0.0000000000000000e+00 0.0000000000000000e+00 0.0000000000000000e+00 0.0000000000000000e+00  7.6105109393020494e-03 5.4068432266511425e-06 0.0000000000000000e+00 5.4068432266511425e-06 7.6234832783488304e-03 0.0000000000000000e+00 0.0000000000000000e+00 0.0000000000000000e+00 0.0000000000000000e+00  7.5503838595479267e-03 7.7624332978532579e-05 0.0000000000000000e+00 7.7624332978532579e-05 7.5674124256430520e-03 0.0000000000000000e+00 0.0000000000000000e+00 0.0000000000000000e+00 0.0000000000000000e+00  7.5995244315014447e-03 -6.8543540505179226e-05 0.0000000000000000e+00 -6.8543540505179226e-05 7.5391897709847647e-03 0.0000000000000000e+00 0.0000000000000000e+00 0.0000000000000000e+00 0.0000000000000000e+00  7.5252772630419653e-03 2.1859915606887664e-04 0.0000000000000000e+00 2.1859915606887664e-04 7.5461480488243741e-03 0.0000000000000000e+00 0.0000000000000000e+00 0.0000000000000000e+00 0.0000000000000000e+00  7.1663964219630758e-03 4.4373770440449278e-04 0.0000000000000000e+00 4.4373770440449278e-04 6.5036795950279636e-03 0.0000000000000000e+00 0.0000000000000000e+00 0.0000000000000000e+00 0.0000000000000000e+00  9.5250916770130457e-03 -1.4968846384482205e-03 0.0000000000000000e+00 -1.4968846384482205e-03 7.8459800020421917e-03 0.0000000000000000e+00 0.0000000000000000e+00 0.0000000000000000e+00 0.0000000000000000e+00  9.9656045342185820e-03 3.8563435880134772e-03 0.0000000000000000e+00 3.8563435880134772e-03 7.3987364031413479e-03 0.0000000000000000e+00 0.0000000000000000e+00 0.0000000000000000e+00 0.0000000000000000e+00  1.0937597365595549e-02 7.2485475070135684e-03 0.0000000000000000e+00 7.2485475070135684e-03 -1.1455052429533805e-02 0.0000000000000000e+00 0.0000000000000000e+00 0.0000000000000000e+00 0.0000000000000000e+00  5.6125159306825809e-02 -1.7532250078724988e-02 0.0000000000000000e+00 -1.7532250078724988e-02 -1.7434644578842872e-02 0.0000000000000000e+00 0.0000000000000000e+00 0.0000000000000000e+00 0.0000000000000000e+00  1.4023516857840862e-01 -5.3400175965935695e-03 0.0000000000000000e+00 -5.3400175965935695e-03 3.1593499883172414e-02 0.0000000000000000e+00 0.0000000000000000e+00 0.0000000000000000e+00 0.0000000000000000e+00  1.1178626092540174e-01 7.1777393340585319e-02 0.0000000000000000e+00 7.1777393340585319e-02 1.0166952267080018e-01 0.0000000000000000e+00 0.0000000000000000e+00 0.0000000000000000e+00 0.0000000000000000e+00  -1.0046956971220138e-01 5.1002914442403437e-02 0.0000000000000000e+00 5.1002914442403437e-02 2.3355277360757168e-01 0.0000000000000000e+00 0.0000000000000000e+00 0.0000000000000000e+00 0.0000000000000000e+00  -2.3008013264610125e-01 -2.2245704331232827e-02 0.0000000000000000e+00 -2.2245704331232827e-02 3.8061561718329284e-01 0.0000000000000000e+00 0.0000000000000000e+00 0.0000000000000000e+00 0.0000000000000000e+00  -2.2095937753346362e-01 -2.6153779653639686e-02 0.0000000000000000e+00 -2.6153779653639686e-02 3.9048191666048387e-01 0.0000000000000000e+00 0.0000000000000000e+00 0.0000000000000000e+00 0.0000000000000000e+00  -2.0105583146394501e-01 -9.7280753636363147e-03 0.0000000000000000e+00 -9.7280753636363147e-03 3.2569319520764578e-01 0.0000000000000000e+00 0.0000000000000000e+00 0.0000000000000000e+00 0.0000000000000000e+00  -1.9166210658803123e-01 1.1462477297125696e-03 0.0000000000000000e+00 1.1462477297125696e-03 2.5568091573893681e-01 0.0000000000000000e+00 0.0000000000000000e+00 0.0000000000000000e+00 0.0000000000000000e+00  -1.8548842767807058e-01 4.6066289005057669e-03 0.0000000000000000e+00 4.6066289005057669e-03 2.0275442041596936e-01 0.0000000000000000e+00 0.0000000000000000e+00 0.0000000000000000e+00 0.0000000000000000e+00  -1.8313854132502455e-01 2.3419776106941136e-03 0.0000000000000000e+00 2.3419776106941136e-03 1.8039063004354317e-01 0.0000000000000000e+00 0.0000000000000000e+00 0.0000000000000000e+00 0.0000000000000000e+00  -1.8598094727943507e-01 -5.9256339960593899e-04 0.0000000000000000e+00 -5.9256339960593899e-04 1.9507213695028031e-01 0.0000000000000000e+00 0.0000000000000000e+00 0.0000000000000000e+00 0.0000000000000000e+00  -1.9301795244616571e-01 1.2975690212917329e-03 0.0000000000000000e+00 1.2975690212917329e-03 2.4235265151263696e-01 0.0000000000000000e+00 0.0000000000000000e+00 0.0000000000000000e+00 0.0000000000000000e+00  -2.0294383435645474e-01 1.0360994084699204e-02 0.0000000000000000e+00 1.0360994084699204e-02 3.0977597784620742e-01 0.0000000000000000e+00 0.0000000000000000e+00 0.0000000000000000e+00 0.0000000000000000e+00  -2.2174895109128759e-01 2.5851948286633904e-02 0.0000000000000000e+00 2.5851948286633904e-02 3.7825298696542170e-01 0.0000000000000000e+00 0.0000000000000000e+00 0.0000000000000000e+00 0.0000000000000000e+00  -2.4068648524860844e-01 2.9695739944024656e-02 0.0000000000000000e+00 2.9695739944024656e-02 3.9004385833008892e-01 0.0000000000000000e+00 0.0000000000000000e+00 0.0000000000000000e+00 0.0000000000000000e+00  -1.4519506226010701e-01 -3.3337089796341618e-02 0.0000000000000000e+00 -3.3337089796341618e-02 2.6234989587210600e-01 0.0000000000000000e+00 0.0000000000000000e+00 0.0000000000000000e+00 0.0000000000000000e+00  7.6061753514258534e-02 -7.8466377397460069e-02 0.0000000000000000e+00 -7.8466377397460069e-02 1.1453342595877433e-01 0.0000000000000000e+00 0.0000000000000000e+00 0.0000000000000000e+00 0.0000000000000000e+00  1.4450743696972776e-01 -6.2766534179195298e-03 0.0000000000000000e+00 -6.2766534179195298e-03 3.9624774548770697e-02 0.0000000000000000e+00 0.0000000000000000e+00 0.0000000000000000e+00 0.0000000000000000e+00  6.5793999251822541e-02 2.1563739603043010e-02 0.0000000000000000e+00 2.1563739603043010e-02 -1.6570956412576096e-02 0.0000000000000000e+00 0.0000000000000000e+00 0.0000000000000000e+00 0.0000000000000000e+00  9.2986458635339747e-03 -3.7513126780630212e-03 0.0000000000000000e+00 -3.7513126780630212e-03 -2.0371261817863116e-02 0.0000000000000000e+00 0.0000000000000000e+00 0.0000000000000000e+00 0.0000000000000000e+00  3.6795517880366521e-03 -5.5794024329791922e-03 0.0000000000000000e+00 -5.5794024329791922e-03 -9.4595325142953900e-05 0.0000000000000000e+00 0.0000000000000000e+00 0.0000000000000000e+00 0.0000000000000000e+00  5.1819377103703755e-03 1.3437603071325718e-03 0.0000000000000000e+00 1.3437603071325718e-03 3.7178255494687662e-03 0.0000000000000000e+00 0.0000000000000000e+00 0.0000000000000000e+00 0.0000000000000000e+00  2.3295628497679243e-03 1.4010674198404615e-05 0.0000000000000000e+00 1.4010674198404615e-05 1.6312104355973337e-03 0.0000000000000000e+00 0.0000000000000000e+00 0.0000000000000000e+00 0.0000000000000000e+00  2.3144662461044435e-03 -1.9882351607527100e-04 0.0000000000000000e+00 -1.9882351607527100e-04 2.4071651370341333e-03 0.0000000000000000e+00 0.0000000000000000e+00 0.0000000000000000e+00 0.0000000000000000e+00  2.5286347066230570e-03 1.9529998663895981e-04 0.0000000000000000e+00 1.9529998663895981e-04 2.5313639902359766e-03 0.0000000000000000e+00 0.0000000000000000e+00 0.0000000000000000e+00 0.0000000000000000e+00  2.3868656207433484e-03 -5.1709130037099343e-05 0.0000000000000000e+00 -5.1709130037099343e-05 2.3671029816409376e-03 0.0000000000000000e+00 0.0000000000000000e+00 0.0000000000000000e+00 0.0000000000000000e+00  2.4832547237043762e-03 2.5029208623200641e-05 0.0000000000000000e+00 2.5029208623200641e-05 2.4572250838279372e-03 0.0000000000000000e+00 0.0000000000000000e+00 0.0000000000000000e+00 0.0000000000000000e+00  2.4691801519970192e-03 4.5111581660530549e-06 0.0000000000000000e+00 4.5111581660530549e-06 2.4315242362870195e-03 0.0000000000000000e+00 0.0000000000000000e+00 0.0000000000000000e+00 0.0000000000000000e+00  2.4749635931324578e-03 1.0709499560907500e-06 0.0000000000000000e+00 1.0709499560907500e-06 2.4314516938324995e-03 0.0000000000000000e+00 0.0000000000000000e+00 0.0000000000000000e+00 0.0000000000000000e+00  2.4735803341201360e-03 -1.8217533542287712e-06 0.0000000000000000e+00 -1.8217533542287712e-06 2.4155502935436111e-03 0.0000000000000000e+00 0.0000000000000000e+00 0.0000000000000000e+00 0.0000000000000000e+00  2.4748407747493782e-03 -2.9864388618125428e-06 0.0000000000000000e+00 -2.9864388618125428e-06 2.4050982577197722e-03 0.0000000000000000e+00 0.0000000000000000e+00 0.0000000000000000e+00 0.0000000000000000e+00  2.4754070113114776e-03 -1.2267919952853414e-06 0.0000000000000000e+00 -1.2267919952853414e-06 2.3980810640747479e-03 0.0000000000000000e+00 0.0000000000000000e+00 0.0000000000000000e+00 0.0000000000000000e+00  2.4753297549990846e-03 1.4354582555510813e-06 0.0000000000000000e+00 1.4354582555510813e-06 2.3967074508881264e-03 0.0000000000000000e+00 0.0000000000000000e+00 0.0000000000000000e+00 0.0000000000000000e+00  2.4746080840217267e-03 3.8098818670518623e-06 0.0000000000000000e+00 3.8098818670518623e-06 2.4010687626626532e-03 0.0000000000000000e+00 0.0000000000000000e+00 0.0000000000000000e+00 0.0000000000000000e+00  2.4730530739635733e-03 4.0177185770378400e-06 0.0000000000000000e+00 4.0177185770378400e-06 2.4095863224293545e-03 0.0000000000000000e+00 0.0000000000000000e+00 0.0000000000000000e+00 0.0000000000000000e+00  2.4739436837810042e-03 2.8523131435142296e-06 0.0000000000000000e+00 2.8523131435142296e-06 2.4244083123097057e-03 0.0000000000000000e+00 0.0000000000000000e+00 0.0000000000000000e+00 0.0000000000000000e+00  2.4690576900284543e-03 -8.0731709961526564e-07 0.0000000000000000e+00 -8.0731709961526585e-07 2.4314063092329059e-03 0.0000000000000000e+00 0.0000000000000000e+00 0.0000000000000000e+00 0.0000000000000000e+00  2.4899108246768855e-03 -1.6009598345637911e-05 0.0000000000000000e+00 -1.6009598345637911e-05 2.4753243799344321e-03 0.0000000000000000e+00 0.0000000000000000e+00 0.0000000000000000e+00 0.0000000000000000e+00  2.4286298740368970e-03 3.3318336012198665e-05 0.0000000000000000e+00 3.3318336012198665e-05 2.4278647777093280e-03 0.0000000000000000e+00 0.0000000000000000e+00 0.0000000000000000e+00 0.0000000000000000e+00  2.5560287131323402e-03 -1.6778681026390072e-04 0.0000000000000000e+00 -1.6778681026390072e-04 2.5589881894256998e-03 0.0000000000000000e+00 0.0000000000000000e+00 0.0000000000000000e+00 0.0000000000000000e+00  2.2990411096415805e-03 3.0253878770517700e-04 0.0000000000000000e+00 3.0253878770517700e-04 2.4264047251307012e-03 0.0000000000000000e+00 0.0000000000000000e+00 0.0000000000000000e+00 0.0000000000000000e+00  2.2309633596675183e-03 -1.0218693721657643e-05 0.0000000000000000e+00 -1.0218693721657643e-05 1.3983688027678633e-03 0.0000000000000000e+00 0.0000000000000000e+00 0.0000000000000000e+00 0.0000000000000000e+00  4.9850576155599383e-03 -1.4715401701710044e-03 0.0000000000000000e+00 -1.4715401701710044e-03 3.6535688878205114e-03 0.0000000000000000e+00 0.0000000000000000e+00 0.0000000000000000e+00 0.0000000000000000e+00  4.1724436062712863e-03 5.5950900763421145e-03 0.0000000000000000e+00 5.5950900763421145e-03 6.4478469562737474e-04 0.0000000000000000e+00 0.0000000000000000e+00 0.0000000000000000e+00 0.0000000000000000e+00  9.4661135539658107e-03 4.0177703646585615e-03 0.0000000000000000e+00 4.0177703646585615e-03 -2.0005016851541751e-02 0.0000000000000000e+00 0.0000000000000000e+00 0.0000000000000000e+00 0.0000000000000000e+00  6.5270057868875769e-02 -2.1860122801542807e-02 0.0000000000000000e+00 -2.1860122801542807e-02 -1.6607800086733470e-02 0.0000000000000000e+00 0.0000000000000000e+00 0.0000000000000000e+00 0.0000000000000000e+00  1.4465068761147501e-01 5.9011434608663383e-03 0.0000000000000000e+00 5.9011434608663383e-03 3.9944952971116436e-02 0.0000000000000000e+00 0.0000000000000000e+00 0.0000000000000000e+00 0.0000000000000000e+00  7.7706509178938940e-02 7.8337712303524515e-02 0.0000000000000000e+00 7.8337712303524515e-02 1.1449920803758806e-01 0.0000000000000000e+00 0.0000000000000000e+00 0.0000000000000000e+00 0.0000000000000000e+00  -1.4318968557284181e-01 3.3788689909937213e-02 0.0000000000000000e+00 3.3788689909937213e-02 2.6169753227467130e-01 0.0000000000000000e+00 0.0000000000000000e+00 0.0000000000000000e+00 0.0000000000000000e+00  -2.3948417874119657e-01 -2.9605478603312807e-02 0.0000000000000000e+00 -2.9605478603312807e-02 3.9000496089339881e-01 0.0000000000000000e+00 0.0000000000000000e+00 0.0000000000000000e+00 0.0000000000000000e+00  -2.2083004875605261e-01 -2.5983882713948893e-02 0.0000000000000000e+00 -2.5983882713948893e-02 3.7911984636888507e-01 0.0000000000000000e+00 0.0000000000000000e+00 0.0000000000000000e+00 0.0000000000000000e+00  -2.0207455152860440e-01 -1.0461471973733630e-02 0.0000000000000000e+00 -1.0461471973733630e-02 3.1123726012392794e-01 0.0000000000000000e+00 0.0000000000000000e+00 0.0000000000000000e+00 0.0000000000000000e+00  -1.9222696641686848e-01 -1.3421645647850586e-03 0.0000000000000000e+00 -1.3421645647850586e-03 2.4427600666832033e-01 0.0000000000000000e+00 0.0000000000000000e+00 0.0000000000000000e+00 0.0000000000000000e+00  -1.8527435121945399e-01 6.2728198116020716e-04 0.0000000000000000e+00 6.2728198116020716e-04 1.9721572378572513e-01 0.0000000000000000e+00 0.0000000000000000e+00 0.0000000000000000e+00 0.0000000000000000e+00  -1.8247527324916757e-01 -2.1995501303952777e-03 0.0000000000000000e+00 -2.1995501303952777e-03 1.8245016436056910e-01 0.0000000000000000e+00 0.0000000000000000e+00 0.0000000000000000e+00 0.0000000000000000e+00  -1.8479951300966102e-01 -4.3911105655139388e-03 0.0000000000000000e+00 -4.3911105655139388e-03 2.0445860245473055e-01 0.0000000000000000e+00 0.0000000000000000e+00 0.0000000000000000e+00 0.0000000000000000e+00  -1.9088552268541234e-01 -9.3423073150841762e-04 0.0000000000000000e+00 -9.3423073150841762e-04 2.5689322986664737e-01 0.0000000000000000e+00 0.0000000000000000e+00 0.0000000000000000e+00 0.0000000000000000e+00  -2.0024102290052181e-01 9.8791082672149717e-03 0.0000000000000000e+00 9.8791082672149717e-03 3.2647040233842167e-01 0.0000000000000000e+00 0.0000000000000000e+00 0.0000000000000000e+00 0.0000000000000000e+00  -2.2027316670214367e-01 2.6230746441530617e-02 0.0000000000000000e+00 2.6230746441530617e-02 3.9085155839621100e-01 0.0000000000000000e+00 0.0000000000000000e+00 0.0000000000000000e+00 0.0000000000000000e+00  -2.2929465918749015e-01 2.2066431815272052e-02 0.0000000000000000e+00 2.2066431815272052e-02 3.8030572650353667e-01 0.0000000000000000e+00 0.0000000000000000e+00 0.0000000000000000e+00 0.0000000000000000e+00  -9.9192983114893496e-02 -5.1320376210231847e-02 0.0000000000000000e+00 -5.1320376210231847e-02 2.3279933312769177e-01 0.0000000000000000e+00 0.0000000000000000e+00 0.0000000000000000e+00 0.0000000000000000e+00  1.1230119062936506e-01 -7.1489946171875679e-02 0.0000000000000000e+00 -7.1489946171875679e-02 1.0116179796847258e-01 0.0000000000000000e+00 0.0000000000000000e+00 0.0000000000000000e+00 0.0000000000000000e+00  1.3979637403167883e-01 5.5920390719959873e-03 0.0000000000000000e+00 5.5920390719959873e-03 3.0922171223724398e-02 0.0000000000000000e+00 0.0000000000000000e+00 0.0000000000000000e+00 0.0000000000000000e+00  5.5906565514627866e-02 1.7249577215618671e-02 0.0000000000000000e+00 1.7249577215618671e-02 -1.7740228533193330e-02 0.0000000000000000e+00 0.0000000000000000e+00 0.0000000000000000e+00 0.0000000000000000e+00  1.0783758386206937e-02 -7.2887836278194909e-03 0.0000000000000000e+00 -7.2887836278194909e-03 -1.1620786218839165e-02 0.0000000000000000e+00 0.0000000000000000e+00 0.0000000000000000e+00 0.0000000000000000e+00  9.6066700802072743e-03 -3.8247028876839530e-03 0.0000000000000000e+00 -3.8247028876839530e-03 6.8419047825817201e-03 0.0000000000000000e+00 0.0000000000000000e+00 0.0000000000000000e+00 0.0000000000000000e+00  9.5993141309562973e-03 1.4299073554402762e-03 0.0000000000000000e+00 1.4299073554402762e-03 7.8151545622864409e-03 0.0000000000000000e+00 0.0000000000000000e+00 0.0000000000000000e+00 0.0000000000000000e+00  7.1872681109765345e-03 -4.6952465553161518e-04 0.0000000000000000e+00 -4.6952465553161518e-04 6.6652430674038138e-03 0.0000000000000000e+00 0.0000000000000000e+00 0.0000000000000000e+00 0.0000000000000000e+00  7.4936345780038660e-03 -1.1821627018932649e-04 0.0000000000000000e+00 -1.1821627018932649e-04 7.4844526998142178e-03 0.0000000000000000e+00 0.0000000000000000e+00 0.0000000000000000e+00 0.0000000000000000e+00  7.5812853878384273e-03 8.9529759766607527e-05 0.0000000000000000e+00 8.9529759766607527e-05 7.5445261785585379e-03 0.0000000000000000e+00 0.0000000000000000e+00 0.0000000000000000e+00 0.0000000000000000e+00  7.5506516461915744e-03 -9.8551275569554777e-05 0.0000000000000000e+00 -9.8551275569554777e-05 7.5564413795407501e-03 0.0000000000000000e+00 0.0000000000000000e+00 0.0000000000000000e+00 0.0000000000000000e+00  7.6446573635723970e-03 -3.0668568893174120e-07 0.0000000000000000e+00 -3.0668568893174120e-07 7.6480332609038257e-03 0.0000000000000000e+00 0.0000000000000000e+00 0.0000000000000000e+00 0.0000000000000000e+00  7.6379353514606637e-03 -1.8238240085352986e-05 0.0000000000000000e+00 -1.8238240085352986e-05 7.6545427947726560e-03 0.0000000000000000e+00 0.0000000000000000e+00 0.0000000000000000e+00 0.0000000000000000e+00  7.6506784492867347e-03 -6.3500941052486165e-06 0.0000000000000000e+00 -6.3500941052486165e-06 7.6777860570027834e-03 0.0000000000000000e+00 0.0000000000000000e+00 0.0000000000000000e+00 0.0000000000000000e+00  7.6515188102706227e-03 -5.4163500121226045e-06 0.0000000000000000e+00 -5.4163500121226045e-06 7.6828791101956626e-03 0.0000000000000000e+00 0.0000000000000000e+00 0.0000000000000000e+00 0.0000000000000000e+00  7.6546962478980197e-03 -3.8603632511115442e-06 0.0000000000000000e+00 -3.8603632511115442e-06 7.6894021710374426e-03 0.0000000000000000e+00 0.0000000000000000e+00 0.0000000000000000e+00 0.0000000000000000e+00  7.6565987622230717e-03 -3.6227537380801361e-06 0.0000000000000000e+00 -3.6227537380801361e-06 7.6926989116553731e-03 0.0000000000000000e+00 0.0000000000000000e+00 0.0000000000000000e+00 0.0000000000000000e+00  7.6585477944154465e-03 -4.1587849969689372e-06 0.0000000000000000e+00 -4.1587849969689372e-06 7.6943308684166919e-03 0.0000000000000000e+00 0.0000000000000000e+00 0.0000000000000000e+00 0.0000000000000000e+00  7.6603935943005685e-03 -5.5288281637559059e-06 0.0000000000000000e+00 -5.5288281637559059e-06 7.6937038209722551e-03 0.0000000000000000e+00 0.0000000000000000e+00 0.0000000000000000e+00 0.0000000000000000e+00  7.6624428893377694e-03 -7.4496579989985683e-06 0.0000000000000000e+00 -7.4496579989985683e-06 7.6906990731929912e-03 0.0000000000000000e+00 0.0000000000000000e+00 0.0000000000000000e+00 0.0000000000000000e+00  7.6648901815631306e-03 -9.6350945695772720e-06 0.0000000000000000e+00 -9.6350945695772720e-06 7.6849688143574603e-03 0.0000000000000000e+00 0.0000000000000000e+00 0.0000000000000000e+00 0.0000000000000000e+00  7.6680503473508608e-03 -1.1753428061131408e-05 0.0000000000000000e+00 -1.1753428061131408e-05 7.6760301290562903e-03 0.0000000000000000e+00 0.0000000000000000e+00 0.0000000000000000e+00 0.0000000000000000e+00  7.6295826983781853e-03 1.7674238667521226e-05 0.0000000000000000e+00 1.7674238667521226e-05 7.6383835700308154e-03 0.0000000000000000e+00 0.0000000000000000e+00 0.0000000000000000e+00 0.0000000000000000e+00  7.6261971844784728e-03 1.4001104143395703e-05 0.0000000000000000e+00 1.4001104143395703e-05 7.6481480654385925e-03 0.0000000000000000e+00 0.0000000000000000e+00 0.0000000000000000e+00 0.0000000000000000e+00  7.6238313806229431e-03 1.0788779326177973e-05 0.0000000000000000e+00 1.0788779326177973e-05 7.6540206469068424e-03 0.0000000000000000e+00 0.0000000000000000e+00 0.0000000000000000e+00 0.0000000000000000e+00  7.6222371830627538e-03 8.1995162797472087e-06 0.0000000000000000e+00 8.1995162797472087e-06 7.6565035008143980e-03 0.0000000000000000e+00 0.0000000000000000e+00 0.0000000000000000e+00 0.0000000000000000e+00  7.6211103336269875e-03 6.5328899572927588e-06 0.0000000000000000e+00 6.5328899572927588e-06 7.6558581113369177e-03 0.0000000000000000e+00 0.0000000000000000e+00 0.0000000000000000e+00 0.0000000000000000e+00  7.6206920904981351e-03 5.8060260601860246e-06 0.0000000000000000e+00 5.8060260601860246e-06 7.6527282271581743e-03 0.0000000000000000e+00 0.0000000000000000e+00 0.0000000000000000e+00 0.0000000000000000e+00  7.6195475911203349e-03 6.7892574910998436e-06 0.0000000000000000e+00 6.7892574910998436e-06 7.6460598274853174e-03 0.0000000000000000e+00 0.0000000000000000e+00 0.0000000000000000e+00 0.0000000000000000e+00  7.6221380788137755e-03 7.6321729531369627e-06 0.0000000000000000e+00 7.6321729531369627e-06 7.6405961018618474e-03 0.0000000000000000e+00 0.0000000000000000e+00 0.0000000000000000e+00 0.0000000000000000e+00  7.6140782026628846e-03 1.5388919011327768e-05 0.0000000000000000e+00 1.5388919011327768e-05 7.6208390352900798e-03 0.0000000000000000e+00 0.0000000000000000e+00 0.0000000000000000e+00 0.0000000000000000e+00  7.6418366642273926e-03 3.1589692826312194e-06 0.0000000000000000e+00 3.1589692826312194e-06 7.6390351141669022e-03 0.0000000000000000e+00 0.0000000000000000e+00 0.0000000000000000e+00 0.0000000000000000e+00  7.5617957602837939e-03 8.1657985531617829e-05 0.0000000000000000e+00 8.1657985531617829e-05 7.5327724738606088e-03 0.0000000000000000e+00 0.0000000000000000e+00 0.0000000000000000e+00 0.0000000000000000e+00  7.7890374038569552e-03 -1.6608262681455687e-04 0.0000000000000000e+00 -1.6608262681455687e-04 7.7543229503801922e-03 0.0000000000000000e+00 0.0000000000000000e+00 0.0000000000000000e+00 0.0000000000000000e+00  7.2141274231600156e-03 6.9548356251436657e-04 0.0000000000000000e+00 6.9548356251436657e-04 7.2207889096476017e-03 0.0000000000000000e+00 0.0000000000000000e+00 0.0000000000000000e+00 0.0000000000000000e+00  8.1193466806760255e-03 -1.0012235949264827e-03 0.0000000000000000e+00 -1.0012235949264827e-03 6.6577750337498956e-03 0.0000000000000000e+00 0.0000000000000000e+00 0.0000000000000000e+00 0.0000000000000000e+00  1.0213148782026619e-02 1.4932630562384101e-03 0.0000000000000000e+00 1.4932630562384101e-03 9.3084951195721230e-03 0.0000000000000000e+00 0.0000000000000000e+00 0.0000000000000000e+00 0.0000000000000000e+00  7.0150905483511959e-03 1.0065958235499110e-02 0.0000000000000000e+00 1.0065958235499110e-02 -1.0226216033309055e-02 0.0000000000000000e+00 0.0000000000000000e+00 0.0000000000000000e+00 0.0000000000000000e+00  5.3532064642869741e-02 -1.8233960229238948e-02 0.0000000000000000e+00 -1.8233960229238948e-02 -1.5686961932127586e-02 0.0000000000000000e+00 0.0000000000000000e+00 0.0000000000000000e+00 0.0000000000000000e+00  1.0969692827335077e-01 3.6009186260139589e-02 0.0000000000000000e+00 3.6009186260139589e-02 2.3447950791196145e-02 0.0000000000000000e+00 0.0000000000000000e+00 0.0000000000000000e+00 0.0000000000000000e+00  -1.2313022967060790e-01 9.8482838490892885e-02 0.0000000000000000e+00 9.8482838490892885e-02 6.4783798472379084e-02 0.0000000000000000e+00 0.0000000000000000e+00 0.0000000000000000e+00 0.0000000000000000e+00  -4.1021510024490465e-01 -8.8943179902411545e-02 0.0000000000000000e+00 -8.8943179902411545e-02 2.7197763656411539e-01 0.0000000000000000e+00 0.0000000000000000e+00 0.0000000000000000e+00 0.0000000000000000e+00  -2.3335200829819691e-01 -5.2814191772047672e-02 0.0000000000000000e+00 -5.2814191772047672e-02 1.8568178345068886e-01 0.0000000000000000e+00 0.0000000000000000e+00 0.0000000000000000e+00 0.0000000000000000e+00  -3.5228721164975850e-02 2.7464673357643771e-02 0.0000000000000000e+00 2.7464673357643771e-02 -1.1685702225959821e-01 0.0000000000000000e+00 0.0000000000000000e+00 0.0000000000000000e+00 0.0000000000000000e+00  -7.2193721895985996e-02 -2.4775658603431408e-02 0.0000000000000000e+00 -2.4775658603431408e-02 -2.7428715269981652e-01 0.0000000000000000e+00 0.0000000000000000e+00 0.0000000000000000e+00 0.0000000000000000e+00  -1.4740733871717751e-01 -4.7175989741212586e-02 0.0000000000000000e+00 -4.7175989741212586e-02 -2.8607268928646062e-01 0.0000000000000000e+00 0.0000000000000000e+00 0.0000000000000000e+00 0.0000000000000000e+00  -1.6678480414215521e-01 -2.4092259981444514e-02 0.0000000000000000e+00 -2.4092259981444514e-02 -2.5793708150447953e-01 0.0000000000000000e+00 0.0000000000000000e+00 0.0000000000000000e+00 0.0000000000000000e+00  -1.5633317673549513e-01 -2.1713865113647227e-03 0.0000000000000000e+00 -2.1713865113647227e-03 -2.3938674333560661e-01 0.0000000000000000e+00 0.0000000000000000e+00 0.0000000000000000e+00 0.0000000000000000e+00  -1.4289623636367363e-01 5.4858348053606464e-03 0.0000000000000000e+00 5.4858348053606464e-03 -2.3365425860170150e-01 0.0000000000000000e+00 0.0000000000000000e+00 0.0000000000000000e+00 0.0000000000000000e+00  -1.3732382608932181e-01 3.1438411734451975e-03 0.0000000000000000e+00 3.1438411734451975e-03 -2.3314494053089330e-01 0.0000000000000000e+00 0.0000000000000000e+00 0.0000000000000000e+00 0.0000000000000000e+00  -1.4245033308933769e-01 -2.3229253426907670e-04 0.0000000000000000e+00 -2.3229253426907670e-04 -2.3369663368460980e-01 0.0000000000000000e+00 0.0000000000000000e+00 0.0000000000000000e+00 0.0000000000000000e+00  -1.5639350638144855e-01 4.6547661811203039e-03 0.0000000000000000e+00 4.6547661811203039e-03 -2.3823515463696876e-01 0.0000000000000000e+00 0.0000000000000000e+00 0.0000000000000000e+00 0.0000000000000000e+00  -1.7029586723674806e-01 2.3519277056106541e-02 0.0000000000000000e+00 2.3519277056106541e-02 -2.5436519552183690e-01 0.0000000000000000e+00 0.0000000000000000e+00 0.0000000000000000e+00 0.0000000000000000e+00  -1.6053405523925521e-01 4.8241460000239059e-02 0.0000000000000000e+00 4.8241460000239059e-02 -2.8286737046997285e-01 0.0000000000000000e+00 0.0000000000000000e+00 0.0000000000000000e+00 0.0000000000000000e+00  -9.5548862907163121e-02 3.6722701025449070e-02 0.0000000000000000e+00 3.6722701025449070e-02 -2.8592602131060596e-01 0.0000000000000000e+00 0.0000000000000000e+00 0.0000000000000000e+00 0.0000000000000000e+00  -3.5757527146725324e-02 -2.2005629521506684e-02 0.0000000000000000e+00 -2.2005629521506684e-02 -1.6265936761744118e-01 0.0000000000000000e+00 0.0000000000000000e+00 0.0000000000000000e+00 0.0000000000000000e+00  -1.8979739459412640e-01 2.7967834412198120e-02 0.0000000000000000e+00 2.7967834412198120e-02 1.2786385801804792e-01 0.0000000000000000e+00 0.0000000000000000e+00 0.0000000000000000e+00 0.0000000000000000e+00  -4.1531641082568460e-01 1.0481479966226474e-01 0.0000000000000000e+00 1.0481479966226474e-01 2.8902593754127620e-01 0.0000000000000000e+00 0.0000000000000000e+00 0.0000000000000000e+00 0.0000000000000000e+00  -2.0336203794218793e-01 -7.1685432546027106e-02 0.0000000000000000e+00 -7.1685432546027106e-02 9.5068760126531066e-02 0.0000000000000000e+00 0.0000000000000000e+00 0.0000000000000000e+00 0.0000000000000000e+00  9.2178112751180069e-02 -6.2459420738518165e-02 0.0000000000000000e+00 -6.2459420738518165e-02 2.3079981004627020e-02 0.0000000000000000e+00 0.0000000000000000e+00 0.0000000000000000e+00 0.0000000000000000e+00  6.5660404102691430e-02 2.1332798773857815e-02 0.0000000000000000e+00 2.1332798773857815e-02 -1.2516226138779523e-02 0.0000000000000000e+00 0.0000000000000000e+00 0.0000000000000000e+00 0.0000000000000000e+00  5.0860361826057495e-03 -6.4816669218996084e-03 0.0000000000000000e+00 -6.4816669218996084e-03 -2.1395918919256955e-02 0.0000000000000000e+00 0.0000000000000000e+00 0.0000000000000000e+00 0.0000000000000000e+00  3.8728261395952783e-03 -4.2906399881157894e-03 0.0000000000000000e+00 -4.2906399881157894e-03 2.3833451356217060e-03 0.0000000000000000e+00 0.0000000000000000e+00 0.0000000000000000e+00 0.0000000000000000e+00  4.0672156957174566e-03 1.6771183447170975e-03 0.0000000000000000e+00 1.6771183447170975e-03 2.7495483082819933e-03 0.0000000000000000e+00 0.0000000000000000e+00 0.0000000000000000e+00 0.0000000000000000e+00  1.9647884369619908e-03 -6.2715216446419407e-04 0.0000000000000000e+00 -6.2715216446419407e-04 1.8386890952671057e-03 0.0000000000000000e+00 0.0000000000000000e+00 0.0000000000000000e+00 0.0000000000000000e+00  2.5346753850747296e-03 1.7697813587669607e-04 0.0000000000000000e+00 1.7697813587669607e-04 2.6255627372451717e-03 0.0000000000000000e+00 0.0000000000000000e+00 0.0000000000000000e+00 0.0000000000000000e+00  2.3587881140746708e-03 5.6152440775338101e-06 0.0000000000000000e+00 5.6152440775338101e-06 2.3370900979160334e-03 0.0000000000000000e+00 0.0000000000000000e+00 0.0000000000000000e+00 0.0000000000000000e+00  2.4548424546016680e-03 4.6428869017230949e-06 0.0000000000000000e+00 4.6428869017230949e-06 2.4577606522687887e-03 0.0000000000000000e+00 0.0000000000000000e+00 0.0000000000000000e+00 0.0000000000000000e+00  2.4530183331258493e-03 9.8486665257299866e-08 0.0000000000000000e+00 9.8486665257299866e-08 2.4287049508225633e-03 0.0000000000000000e+00 0.0000000000000000e+00 0.0000000000000000e+00 0.0000000000000000e+00  2.4639801448097707e-03 -5.5902685504377324e-06 0.0000000000000000e+00 -5.5902685504377324e-06 2.4204034900015266e-03 0.0000000000000000e+00 0.0000000000000000e+00 0.0000000000000000e+00 0.0000000000000000e+00  2.4663186513390577e-03 -4.5646078407806255e-06 0.0000000000000000e+00 -4.5646078407806255e-06 2.4035983708905633e-03 0.0000000000000000e+00 0.0000000000000000e+00 0.0000000000000000e+00 0.0000000000000000e+00  2.4688686187130395e-03 -2.0515600326496584e-06 0.0000000000000000e+00 -2.0515600326496584e-06 2.3950615988635221e-03 0.0000000000000000e+00 0.0000000000000000e+00 0.0000000000000000e+00 0.0000000000000000e+00  2.4688984846308474e-03 2.2987447286832792e-06 0.0000000000000000e+00 2.2987447286832792e-06 2.3933884480458372e-03 0.0000000000000000e+00 0.0000000000000000e+00 0.0000000000000000e+00 0.0000000000000000e+00  2.4665312235780243e-03 5.3084839312700387e-06 0.0000000000000000e+00 5.3084839312700387e-06 2.3987089194509471e-03 0.0000000000000000e+00 0.0000000000000000e+00 0.0000000000000000e+00 0.0000000000000000e+00  2.4649553025836001e-03 7.6089311648344495e-06 0.0000000000000000e+00 7.6089311648344495e-06 2.4120303316014311e-03 0.0000000000000000e+00 0.0000000000000000e+00 0.0000000000000000e+00 0.0000000000000000e+00  2.4571730135226210e-03 5.1230936672596445e-07 0.0000000000000000e+00 5.1230936672596445e-07 2.4213522308408259e-03 0.0000000000000000e+00 0.0000000000000000e+00 0.0000000000000000e+00 0.0000000000000000e+00  2.4726574245442514e-03 3.5475895639942914e-06 0.0000000000000000e+00 3.5475895639942914e-06 2.4637578907413934e-03 0.0000000000000000e+00 0.0000000000000000e+00 0.0000000000000000e+00 0.0000000000000000e+00  2.4081274698108304e-03 5.0889360572642992e-06 0.0000000000000000e+00 5.0889360572642992e-06 2.3822254263338176e-03 0.0000000000000000e+00 0.0000000000000000e+00 0.0000000000000000e+00 0.0000000000000000e+00  2.6525913817254053e-03 -1.3522166323816728e-04 0.0000000000000000e+00 -1.3522166323816728e-04 2.7275935202552633e-03 0.0000000000000000e+00 0.0000000000000000e+00 0.0000000000000000e+00 0.0000000000000000e+00  1.9150946995136768e-03 6.7703394823789235e-04 0.0000000000000000e+00 6.7703394823789235e-04 1.8295533133323523e-03 0.0000000000000000e+00 0.0000000000000000e+00 0.0000000000000000e+00 0.0000000000000000e+00  3.8224537709316180e-03 -1.6918913407604225e-03 0.0000000000000000e+00 -1.6918913407604225e-03 2.4624085731056356e-03 0.0000000000000000e+00 0.0000000000000000e+00 0.0000000000000000e+00 0.0000000000000000e+00  4.0906220125886987e-03 4.1381340571313308e-03 0.0000000000000000e+00 4.1381340571313308e-03 2.7371328937766475e-03 0.0000000000000000e+00 0.0000000000000000e+00 0.0000000000000000e+00 0.0000000000000000e+00  5.2405716773382726e-03 6.7288614367545648e-03 0.0000000000000000e+00 6.7288614367545648e-03 -2.0701824017701171e-02 0.0000000000000000e+00 0.0000000000000000e+00 0.0000000000000000e+00 0.0000000000000000e+00  6.5173564115224583e-02 -2.1504570397936070e-02 0.0000000000000000e+00 -2.1504570397936070e-02 -1.2361991351365609e-02 0.0000000000000000e+00 0.0000000000000000e+00 0.0000000000000000e+00 0.0000000000000000e+00  9.3113789333885241e-02 6.1777040226449927e-02 0.0000000000000000e+00 6.1777040226449927e-02 2.3410350525574043e-02 0.0000000000000000e+00 0.0000000000000000e+00 0.0000000000000000e+00 0.0000000000000000e+00  -2.0070129706684733e-01 7.2559393137860695e-02 0.0000000000000000e+00 7.2559393137860695e-02 9.4106726026549153e-02 0.0000000000000000e+00 0.0000000000000000e+00 0.0000000000000000e+00 0.0000000000000000e+00  -4.1508928209819734e-01 -1.0496620032891633e-01 0.0000000000000000e+00 -1.0496620032891633e-01 2.8853478046567888e-01 0.0000000000000000e+00 0.0000000000000000e+00 0.0000000000000000e+00 0.0000000000000000e+00  -1.9047854616606064e-01 -2.8913487484805246e-02 0.0000000000000000e+00 -2.8913487484805246e-02 1.2951652327580826e-01 0.0000000000000000e+00 0.0000000000000000e+00 0.0000000000000000e+00 0.0000000000000000e+00  -3.5168365961557098e-02 2.1938648075786649e-02 0.0000000000000000e+00 2.1938648075786649e-02 -1.6134996531938392e-01 0.0000000000000000e+00 0.0000000000000000e+00 0.0000000000000000e+00 0.0000000000000000e+00  -9.4371199385519314e-02 -3.6622480787699085e-02 0.0000000000000000e+00 -3.6622480787699085e-02 -2.8567442788129527e-01 0.0000000000000000e+00 0.0000000000000000e+00 0.0000000000000000e+00 0.0000000000000000e+00  -1.5962713982715157e-01 -4.8473152517733514e-02 0.0000000000000000e+00 -4.8473152517733514e-02 -2.8310897819675790e-01 0.0000000000000000e+00 0.0000000000000000e+00 0.0000000000000000e+00 0.0000000000000000e+00  -1.6969185548495896e-01 -2.3836697758631925e-02 0.0000000000000000e+00 -2.3836697758631925e-02 -2.5462972034547859e-01 0.0000000000000000e+00 0.0000000000000000e+00 0.0000000000000000e+00 0.0000000000000000e+00  -1.5595367059398244e-01 -4.8539532301435061e-03 0.0000000000000000e+00 -4.8539532301435061e-03 -2.3837655462744073e-01 0.0000000000000000e+00 0.0000000000000000e+00 0.0000000000000000e+00 0.0000000000000000e+00  -1.4208214594532345e-01 2.3036232082970627e-04 0.0000000000000000e+00 2.3036232082970627e-04 -2.3375079371620133e-01 0.0000000000000000e+00 0.0000000000000000e+00 0.0000000000000000e+00 0.0000000000000000e+00  -1.3697150542498457e-01 -2.9426924412862278e-03 0.0000000000000000e+00 -2.9426924412862278e-03 -2.3321087085782405e-01 0.0000000000000000e+00 0.0000000000000000e+00 0.0000000000000000e+00 0.0000000000000000e+00  -1.4251952675672791e-01 -5.1329234384266372e-03 0.0000000000000000e+00 -5.1329234384266372e-03 -2.3381451843262524e-01 0.0000000000000000e+00 0.0000000000000000e+00 0.0000000000000000e+00 0.0000000000000000e+00  -1.5590156437634087e-01 2.5883189143563489e-03 0.0000000000000000e+00 2.5883189143563489e-03 -2.3965752849101357e-01 0.0000000000000000e+00 0.0000000000000000e+00 0.0000000000000000e+00 0.0000000000000000e+00  -1.6624728610373707e-01 2.4480116722474639e-02 0.0000000000000000e+00 2.4480116722474639e-02 -2.5825946022675628e-01 0.0000000000000000e+00 0.0000000000000000e+00 0.0000000000000000e+00 0.0000000000000000e+00  -1.4664674037025882e-01 4.7389663104055652e-02 0.0000000000000000e+00 4.7389663104055652e-02 -2.8628102522984167e-01 0.0000000000000000e+00 0.0000000000000000e+00 0.0000000000000000e+00 0.0000000000000000e+00  -7.1288503975627401e-02 2.4658364199507624e-02 0.0000000000000000e+00 2.4658364199507624e-02 -2.7397960242286912e-01 0.0000000000000000e+00 0.0000000000000000e+00 0.0000000000000000e+00 0.0000000000000000e+00  -3.5057212302186634e-02 -2.7319641284432008e-02 0.0000000000000000e+00 -2.7319641284432008e-02 -1.1565443821606165e-01 0.0000000000000000e+00 0.0000000000000000e+00 0.0000000000000000e+00 0.0000000000000000e+00  -2.3406231484302428e-01 5.3526574920277480e-02 0.0000000000000000e+00 5.3526574920277480e-02 1.8707524144297244e-01 0.0000000000000000e+00 0.0000000000000000e+00 0.0000000000000000e+00 0.0000000000000000e+00  -4.0966407236665353e-01 8.8437707920932918e-02 0.0000000000000000e+00 8.8437707920932918e-02 2.7164107928094000e-01 0.0000000000000000e+00 0.0000000000000000e+00 0.0000000000000000e+00 0.0000000000000000e+00  -1.2180880363194850e-01 -9.8814299029252983e-02 0.0000000000000000e+00 -9.8814299029252983e-02 6.4068032910180581e-02 0.0000000000000000e+00 0.0000000000000000e+00 0.0000000000000000e+00 0.0000000000000000e+00  1.0949068070831541e-01 -3.5456026710902852e-02 0.0000000000000000e+00 -3.5456026710902852e-02 2.2896657325914380e-02 0.0000000000000000e+00 0.0000000000000000e+00 0.0000000000000000e+00 0.0000000000000000e+00  5.3075276593421705e-02 1.8062820366885089e-02 0.0000000000000000e+00 1.8062820366885089e-02 -1.6280935147066192e-02 0.0000000000000000e+00 0.0000000000000000e+00 0.0000000000000000e+00 0.0000000000000000e+00  6.7496768209745041e-03 -1.0057231325311250e-02 0.0000000000000000e+00 -1.0057231325311250e-02 -1.0639368041268499e-02 0.0000000000000000e+00 0.0000000000000000e+00 0.0000000000000000e+00 0.0000000000000000e+00  1.0107041106493112e-02 -1.5482931936262184e-03 0.0000000000000000e+00 -1.5482931936262184e-03 9.1277613229997345e-03 0.0000000000000000e+00 0.0000000000000000e+00 0.0000000000000000e+00 0.0000000000000000e+00  8.3042098979191660e-03 1.0065160983738189e-03 0.0000000000000000e+00 1.0065160983738189e-03 6.9068255844953463e-03 0.0000000000000000e+00 0.0000000000000000e+00 0.0000000000000000e+00 0.0000000000000000e+00  7.2987974252943476e-03 -6.5379017439654995e-04 0.0000000000000000e+00 -6.5379017439654995e-04 7.2514929387349882e-03 0.0000000000000000e+00 0.0000000000000000e+00 0.0000000000000000e+00 0.0000000000000000e+00  7.7174127037361482e-03 1.9745266493686694e-04 0.0000000000000000e+00 1.9745266493686694e-04 7.6945730216088351e-03 0.0000000000000000e+00 0.0000000000000000e+00 0.0000000000000000e+00 0.0000000000000000e+00  7.5589465128979043e-03 -8.6648894972745315e-05 0.0000000000000000e+00 -8.6648894972745315e-05 7.5266976966797501e-03 0.0000000000000000e+00 0.0000000000000000e+00 0.0000000000000000e+00 0.0000000000000000e+00  7.6666513953131460e-03 1.1526006238902899e-06 0.0000000000000000e+00 1.1526006238902899e-06 7.6728402332649536e-03 0.0000000000000000e+00 0.0000000000000000e+00 0.0000000000000000e+00 0.0000000000000000e+00  7.6504977623293438e-03 -1.5349411453380645e-05 0.0000000000000000e+00 -1.5349411453380645e-05 7.6644655798250574e-03 0.0000000000000000e+00 0.0000000000000000e+00 0.0000000000000000e+00 0.0000000000000000e+00  7.6619760777527348e-03 -6.1642865629682092e-06 0.0000000000000000e+00 -6.1642865629682092e-06 7.6843161883683548e-03 0.0000000000000000e+00 0.0000000000000000e+00 0.0000000000000000e+00 0.0000000000000000e+00  7.6606788526285925e-03 -5.7252698151159371e-06 0.0000000000000000e+00 -5.7252698151159371e-06 7.6876416756341106e-03 0.0000000000000000e+00 0.0000000000000000e+00 0.0000000000000000e+00 0.0000000000000000e+00  7.6621640501393935e-03 -4.8431576917899112e-06 0.0000000000000000e+00 -4.8431576917899112e-06 7.6930237133003088e-03 0.0000000000000000e+00 0.0000000000000000e+00 0.0000000000000000e+00 0.0000000000000000e+00  7.6627173141291926e-03 -5.5551346466000026e-06 0.0000000000000000e+00 -5.5551346466000026e-06 7.6953245989805352e-03 0.0000000000000000e+00 0.0000000000000000e+00 0.0000000000000000e+00 0.0000000000000000e+00  7.6638427619493150e-03 -7.1057410334524364e-06 0.0000000000000000e+00 -7.1057410334524364e-06 7.6955584169983368e-03 0.0000000000000000e+00 0.0000000000000000e+00 0.0000000000000000e+00 0.0000000000000000e+00  7.6653552669031996e-03 -9.4594477312575718e-06 0.0000000000000000e+00 -9.4594477312575718e-06 7.6930585051503426e-03 0.0000000000000000e+00 0.0000000000000000e+00 0.0000000000000000e+00 0.0000000000000000e+00  7.6675494533975696e-03 -1.2294280760450864e-05 0.0000000000000000e+00 -1.2294280760450864e-05 7.6875700071949342e-03 0.0000000000000000e+00 0.0000000000000000e+00 0.0000000000000000e+00 0.0000000000000000e+00  7.6706434184880181e-03 -1.5413330237536579e-05 0.0000000000000000e+00 -1.5413330237536579e-05 7.6786341484080690e-03 0.0000000000000000e+00 0.0000000000000000e+00 0.0000000000000000e+00 0.0000000000000000e+00  7.6346586528712942e-03 2.1575704220599121e-05 0.0000000000000000e+00 2.1575704220599121e-05 7.6429748739202065e-03 0.0000000000000000e+00 0.0000000000000000e+00 0.0000000000000000e+00 0.0000000000000000e+00  7.6315363356934153e-03 1.6652474647035342e-05 0.0000000000000000e+00 1.6652474647035342e-05 7.6521613143461231e-03 0.0000000000000000e+00 0.0000000000000000e+00 0.0000000000000000e+00 0.0000000000000000e+00  7.6296164922020114e-03 1.2440420722146057e-05 0.0000000000000000e+00 1.2440420722146057e-05 7.6573966374035799e-03 0.0000000000000000e+00 0.0000000000000000e+00 0.0000000000000000e+00 0.0000000000000000e+00  7.6286434506281859e-03 9.1239195395659568e-06 0.0000000000000000e+00 9.1239195395659568e-06 7.6589731441147786e-03 0.0000000000000000e+00 0.0000000000000000e+00 0.0000000000000000e+00 0.0000000000000000e+00  7.6287642952398054e-03 6.6526733621846189e-06 0.0000000000000000e+00 6.6526733621846189e-06 7.6575225179944528e-03 0.0000000000000000e+00 0.0000000000000000e+00 0.0000000000000000e+00 0.0000000000000000e+00  7.6286568270724402e-03 5.9286146170577010e-06 0.0000000000000000e+00 5.9286146170577010e-06 7.6522492426719215e-03 0.0000000000000000e+00 0.0000000000000000e+00 0.0000000000000000e+00 0.0000000000000000e+00  7.6327530396867781e-03 4.8532179946576942e-06 0.0000000000000000e+00 4.8532179946576942e-06 7.6476124046943742e-03 0.0000000000000000e+00 0.0000000000000000e+00 0.0000000000000000e+00 0.0000000000000000e+00  7.6255990517533432e-03 9.8916081342101552e-06 0.0000000000000000e+00 9.8916081342101552e-06 7.6290997425409518e-03 0.0000000000000000e+00 0.0000000000000000e+00 0.0000000000000000e+00 0.0000000000000000e+00  7.6588012750694132e-03 6.7322646502776250e-07 0.0000000000000000e+00 6.7322646502776250e-07 7.6489374309663734e-03 0.0000000000000000e+00 0.0000000000000000e+00 0.0000000000000000e+00 0.0000000000000000e+00  7.5671395138569601e-03 5.2507179512953721e-05 0.0000000000000000e+00 5.2507179512953721e-05 7.5257822369324866e-03 0.0000000000000000e+00 0.0000000000000000e+00 0.0000000000000000e+00 0.0000000000000000e+00  7.8893052445036527e-03 -1.3446600702905491e-04 0.0000000000000000e+00 -1.3446600702905491e-04 7.8684998510368028e-03 0.0000000000000000e+00 0.0000000000000000e+00 0.0000000000000000e+00 0.0000000000000000e+00  6.9757573290006487e-03 7.9352812976037936e-04 0.0000000000000000e+00 7.9352812976037936e-04 6.6813020300308936e-03 0.0000000000000000e+00 0.0000000000000000e+00 0.0000000000000000e+00 0.0000000000000000e+00  1.0032365854137982e-02 -2.1106978699823582e-03 0.0000000000000000e+00 -2.1106978699823582e-03 9.1048295347511896e-03 0.0000000000000000e+00 0.0000000000000000e+00 0.0000000000000000e+00 0.0000000000000000e+00  5.6167496779318399e-03 9.5097275495845592e-03 0.0000000000000000e+00 9.5097275495845592e-03 1.8529884723337937e-03 0.0000000000000000e+00 0.0000000000000000e+00 0.0000000000000000e+00 0.0000000000000000e+00  2.2640300535152539e-02 -5.6086415530225220e-03 0.0000000000000000e+00 -5.6086415530225220e-03 -1.8725445841917956e-02 0.0000000000000000e+00 0.0000000000000000e+00 0.0000000000000000e+00 0.0000000000000000e+00  7.8474803596151957e-02 2.1951331509531061e-02 0.0000000000000000e+00 2.1951331509531061e-02 5.8577832284015616e-03 0.0000000000000000e+00 0.0000000000000000e+00 0.0000000000000000e+00 0.0000000000000000e+00  -1.7200726553442788e-01 1.1096834768461404e-01 0.0000000000000000e+00 1.1096834768461404e-01 -2.9406010140881875e-02 0.0000000000000000e+00 0.0000000000000000e+00 0.0000000000000000e+00 0.0000000000000000e+00  -4.7473186574492787e-01 -1.5380792466365700e-01 0.0000000000000000e+00 -1.5380792466365700e-01 1.6648578069262426e-01 0.0000000000000000e+00 0.0000000000000000e+00 0.0000000000000000e+00 0.0000000000000000e+00  -6.8743660478925800e-02 -2.0157114964997256e-02 0.0000000000000000e+00 -2.0157114964997256e-02 -9.1542365943775988e-04 0.0000000000000000e+00 0.0000000000000000e+00 0.0000000000000000e+00 0.0000000000000000e+00  1.9878077346727835e-02 1.0862459550616915e-02 0.0000000000000000e+00 1.0862459550616915e-02 -2.2084981336259180e-01 0.0000000000000000e+00 0.0000000000000000e+00 0.0000000000000000e+00 0.0000000000000000e+00  -1.0052963612908351e-01 7.5654953912844157e-03 0.0000000000000000e+00 7.5654953912844157e-03 -2.2251590431736706e-01 0.0000000000000000e+00 0.0000000000000000e+00 0.0000000000000000e+00 0.0000000000000000e+00  -1.0388511962496805e-01 2.8934313486355258e-02 0.0000000000000000e+00 2.8934313486355258e-02 -2.0484128181615527e-01 0.0000000000000000e+00 0.0000000000000000e+00 0.0000000000000000e+00 0.0000000000000000e+00  -7.7352823878098748e-02 4.7137967031144288e-03 0.0000000000000000e+00 4.7137967031144288e-03 -1.9861130233723601e-01 0.0000000000000000e+00 0.0000000000000000e+00 0.0000000000000000e+00 0.0000000000000000e+00  -7.8289513032206728e-02 -1.6186884097030209e-02 0.0000000000000000e+00 -1.6186884097030209e-02 -1.6801097663950082e-01 0.0000000000000000e+00 0.0000000000000000e+00 0.0000000000000000e+00 0.0000000000000000e+00  -8.5807207329265764e-02 -1.6438851097620055e-02 0.0000000000000000e+00 -1.6438851097620055e-02 -1.3006972550035820e-01 0.0000000000000000e+00 0.0000000000000000e+00 0.0000000000000000e+00 0.0000000000000000e+00  -8.6870406281242665e-02 -7.4263921153253556e-03 0.0000000000000000e+00 -7.4263921153253556e-03 -1.0516417326205553e-01 0.0000000000000000e+00 0.0000000000000000e+00 0.0000000000000000e+00 0.0000000000000000e+00  -8.4215814546031761e-02 -1.2864749063914231e-04 0.0000000000000000e+00 -1.2864749063914231e-04 -9.4550244908911535e-02 0.0000000000000000e+00 0.0000000000000000e+00 0.0000000000000000e+00 0.0000000000000000e+00  -8.2882682486977458e-02 3.2434172345187405e-03 0.0000000000000000e+00 3.2434172345187405e-03 -9.1961292657057436e-02 0.0000000000000000e+00 0.0000000000000000e+00 0.0000000000000000e+00 0.0000000000000000e+00  -8.5114882319173038e-02 6.0631216858113889e-03 0.0000000000000000e+00 6.0631216858113889e-03 -9.3766799816878965e-02 0.0000000000000000e+00 0.0000000000000000e+00 0.0000000000000000e+00 0.0000000000000000e+00  -8.9345400144884041e-02 1.2187668041483980e-02 0.0000000000000000e+00 1.2187668041483980e-02 -1.0251603374792216e-01 0.0000000000000000e+00 0.0000000000000000e+00 0.0000000000000000e+00 0.0000000000000000e+00  -9.0838753041341147e-02 2.0819170552258813e-02 0.0000000000000000e+00 2.0819170552258813e-02 -1.2453986649192272e-01 0.0000000000000000e+00 0.0000000000000000e+00 0.0000000000000000e+00 0.0000000000000000e+00  -8.5628446407854941e-02 2.2508016768912068e-02 0.0000000000000000e+00 2.2508016768912068e-02 -1.6106320468357624e-01 0.0000000000000000e+00 0.0000000000000000e+00 0.0000000000000000e+00 0.0000000000000000e+00  -8.2803854887646383e-02 4.3447780493497522e-03 0.0000000000000000e+00 4.3447780493497522e-03 -1.9525642555748107e-01 0.0000000000000000e+00 0.0000000000000000e+00 0.0000000000000000e+00 0.0000000000000000e+00  -1.0603195820902694e-01 -2.4445179531772211e-02 0.0000000000000000e+00 -2.4445179531772211e-02 -2.0498325552675239e-01 0.0000000000000000e+00 0.0000000000000000e+00 0.0000000000000000e+00 0.0000000000000000e+00  -1.1919906461788779e-01 -1.3548661635156034e-02 0.0000000000000000e+00 -1.3548661635156034e-02 -2.1724821604402741e-01 0.0000000000000000e+00 0.0000000000000000e+00 0.0000000000000000e+00 0.0000000000000000e+00  -1.5340510615173457e-02 -4.2621515677104520e-03 0.0000000000000000e+00 -4.2621515677104520e-03 -2.3306124427896813e-01 0.0000000000000000e+00 0.0000000000000000e+00 0.0000000000000000e+00 0.0000000000000000e+00  -2.1219675457358683e-02 -9.0412059841699904e-03 0.0000000000000000e+00 -9.0412059841699904e-03 -6.2797662003875224e-02 0.0000000000000000e+00 0.0000000000000000e+00 0.0000000000000000e+00 0.0000000000000000e+00  -4.3426317964739242e-01 1.5363603032061188e-01 0.0000000000000000e+00 1.5363603032061188e-01 1.7750957841029838e-01 0.0000000000000000e+00 0.0000000000000000e+00 0.0000000000000000e+00 0.0000000000000000e+00  -2.8221648130936339e-01 -6.5604311407807925e-02 0.0000000000000000e+00 -6.5604311407807925e-02 2.4761645103200162e-03 0.0000000000000000e+00 0.0000000000000000e+00 0.0000000000000000e+00 0.0000000000000000e+00  6.5623137981334650e-02 -5.7092961512115431e-02 0.0000000000000000e+00 -5.7092961512115431e-02 -5.4301780686917302e-03 0.0000000000000000e+00 0.0000000000000000e+00 0.0000000000000000e+00 0.0000000000000000e+00  3.3475424504809573e-02 1.3825502192213533e-02 0.0000000000000000e+00 1.3825502192213533e-02 -1.9043011920110084e-02 0.0000000000000000e+00 0.0000000000000000e+00 0.0000000000000000e+00 0.0000000000000000e+00  -1.7313167036244628e-03 -1.1464756773205655e-02 0.0000000000000000e+00 -1.1464756773205655e-02 -1.0423814735506380e-02 0.0000000000000000e+00 0.0000000000000000e+00 0.0000000000000000e+00 0.0000000000000000e+00  5.4566871536199579e-03 1.1579535236532633e-03 0.0000000000000000e+00 1.1579535236532633e-03 5.0311145846731343e-03 0.0000000000000000e+00 0.0000000000000000e+00 0.0000000000000000e+00 0.0000000000000000e+00  1.8270542124300710e-03 -2.6385635863402171e-04 0.0000000000000000e+00 -2.6385635863402171e-04 1.4009010220654352e-03 0.0000000000000000e+00 0.0000000000000000e+00 0.0000000000000000e+00 0.0000000000000000e+00  2.5029116800072489e-03 -2.8028924619454101e-05 0.0000000000000000e+00 -2.8028924619454101e-05 2.6119898825667210e-03 0.0000000000000000e+00 0.0000000000000000e+00 0.0000000000000000e+00 0.0000000000000000e+00  2.3561579972876025e-03 5.1937408869545189e-05 0.0000000000000000e+00 5.1937408869545189e-05 2.3674642998685685e-03 0.0000000000000000e+00 0.0000000000000000e+00 0.0000000000000000e+00 0.0000000000000000e+00  2.4404373681567227e-03 -2.5104310343041025e-05 0.0000000000000000e+00 -2.5104310343041025e-05 2.4465424982297013e-03 0.0000000000000000e+00 0.0000000000000000e+00 0.0000000000000000e+00 0.0000000000000000e+00  2.4434464221105988e-03 -8.8834223611786999e-06 0.0000000000000000e+00 -8.8834223611786999e-06 2.4173335595675471e-03 0.0000000000000000e+00 0.0000000000000000e+00 0.0000000000000000e+00 0.0000000000000000e+00  2.4566653324913754e-03 -9.5016400552753610e-06 0.0000000000000000e+00 -9.5016400552753610e-06 2.4028128418097346e-03 0.0000000000000000e+00 0.0000000000000000e+00 0.0000000000000000e+00 0.0000000000000000e+00  2.4584503857794410e-03 -3.3900614548472918e-06 0.0000000000000000e+00 -3.3900614548472918e-06 2.3894883867035892e-03 0.0000000000000000e+00 0.0000000000000000e+00 0.0000000000000000e+00 0.0000000000000000e+00  2.4585007664451415e-03 3.5474771798886661e-06 0.0000000000000000e+00 3.5474771798886661e-06 2.3876326597820708e-03 0.0000000000000000e+00 0.0000000000000000e+00 0.0000000000000000e+00 0.0000000000000000e+00  2.4570232659685007e-03 1.0115152886534906e-05 0.0000000000000000e+00 1.0115152886534906e-05 2.3969160596815490e-03 0.0000000000000000e+00 0.0000000000000000e+00 0.0000000000000000e+00 0.0000000000000000e+00  2.4461104166244672e-03 6.8381731353944036e-06 0.0000000000000000e+00 6.8381731353944036e-06 2.4081636645415794e-03 0.0000000000000000e+00 0.0000000000000000e+00 0.0000000000000000e+00 0.0000000000000000e+00  2.4563978114484934e-03 2.4085063218551834e-05 0.0000000000000000e+00 2.4085063218551834e-05 2.4447455504557703e-03 0.0000000000000000e+00 0.0000000000000000e+00 0.0000000000000000e+00 0.0000000000000000e+00  2.4009447694359311e-03 -4.0796890833368193e-05 0.0000000000000000e+00 -4.0796890833368193e-05 2.3938907727027027e-03 0.0000000000000000e+00 0.0000000000000000e+00 0.0000000000000000e+00 0.0000000000000000e+00  2.6003923756795378e-03 7.8434013886504266e-05 0.0000000000000000e+00 7.8434013886504266e-05 2.6994536611198100e-03 0.0000000000000000e+00 0.0000000000000000e+00 0.0000000000000000e+00 0.0000000000000000e+00  1.8909614651941525e-03 2.7497274518334115e-04 0.0000000000000000e+00 2.7497274518334115e-04 1.3902695187152031e-03 0.0000000000000000e+00 0.0000000000000000e+00 0.0000000000000000e+00 0.0000000000000000e+00  5.4069075177955251e-03 -1.3023364599130864e-03 0.0000000000000000e+00 -1.3023364599130864e-03 5.0253141611297418e-03 0.0000000000000000e+00 0.0000000000000000e+00 0.0000000000000000e+00 0.0000000000000000e+00  -1.2072345835652187e-03 1.1480966586439233e-02 0.0000000000000000e+00 1.1480966586439233e-02 -9.5689481945023004e-03 0.0000000000000000e+00 0.0000000000000000e+00 0.0000000000000000e+00 0.0000000000000000e+00  3.3295463391838677e-02 -1.3758276085179429e-02 0.0000000000000000e+00 -1.3758276085179429e-02 -1.8871865312380401e-02 0.0000000000000000e+00 0.0000000000000000e+00 0.0000000000000000e+00 0.0000000000000000e+00  6.6472972610544745e-02 5.5716168037127499e-02 0.0000000000000000e+00 5.5716168037127499e-02 -4.7128801168711187e-03 0.0000000000000000e+00 0.0000000000000000e+00 0.0000000000000000e+00 0.0000000000000000e+00  -2.7791686864687454e-01 6.7391560466637815e-02 0.0000000000000000e+00 6.7391560466637815e-02 1.1710034189989997e-03 0.0000000000000000e+00 0.0000000000000000e+00 0.0000000000000000e+00 0.0000000000000000e+00  -4.3547304474975246e-01 -1.5452207986735847e-01 0.0000000000000000e+00 -1.5452207986735847e-01 1.7706896769303224e-01 0.0000000000000000e+00 0.0000000000000000e+00 0.0000000000000000e+00 0.0000000000000000e+00  -2.1584879922693988e-02 8.0353385964530358e-03 0.0000000000000000e+00 8.0353385964530358e-03 -6.1137607135922298e-02 0.0000000000000000e+00 0.0000000000000000e+00 0.0000000000000000e+00 0.0000000000000000e+00  -1.3686066783839592e-02 4.0773738794092160e-03 0.0000000000000000e+00 4.0773738794092160e-03 -2.3302660358667676e-01 0.0000000000000000e+00 0.0000000000000000e+00 0.0000000000000000e+00 0.0000000000000000e+00  -1.1823003235526994e-01 1.3027293136275415e-02 0.0000000000000000e+00 1.3027293136275415e-02 -2.1759745020426538e-01 0.0000000000000000e+00 0.0000000000000000e+00 0.0000000000000000e+00 0.0000000000000000e+00  -1.0548960419930958e-01 2.4324280270952774e-02 0.0000000000000000e+00 2.4324280270952774e-02 -2.0514964524083454e-01 0.0000000000000000e+00 0.0000000000000000e+00 0.0000000000000000e+00 0.0000000000000000e+00  -8.2152506237850670e-02 -4.3190931106670497e-03 0.0000000000000000e+00 -4.3190931106670497e-03 -1.9558801930278349e-01 0.0000000000000000e+00 0.0000000000000000e+00 0.0000000000000000e+00 0.0000000000000000e+00  -8.4928838318079361e-02 -2.2574102227285772e-02 0.0000000000000000e+00 -2.2574102227285772e-02 -1.6152666390762396e-01 0.0000000000000000e+00 0.0000000000000000e+00 0.0000000000000000e+00 0.0000000000000000e+00  -9.0216308672784642e-02 -2.0951275196352665e-02 0.0000000000000000e+00 -2.0951275196352665e-02 -1.2491751052170330e-01 0.0000000000000000e+00 0.0000000000000000e+00 0.0000000000000000e+00 0.0000000000000000e+00  -8.8815121833133795e-02 -1.2272134196531533e-02 0.0000000000000000e+00 -1.2272134196531533e-02 -1.0271696270972287e-01 0.0000000000000000e+00 0.0000000000000000e+00 0.0000000000000000e+00 0.0000000000000000e+00  -8.4642945411113377e-02 -6.0168944506191618e-03 0.0000000000000000e+00 -6.0168944506191618e-03 -9.3837213143655646e-02 0.0000000000000000e+00 0.0000000000000000e+00 0.0000000000000000e+00 0.0000000000000000e+00  -8.2428223615836779e-02 -3.0468241261021401e-03 0.0000000000000000e+00 -3.0468241261021401e-03 -9.2011058212446442e-02 0.0000000000000000e+00 0.0000000000000000e+00 0.0000000000000000e+00 0.0000000000000000e+00  -8.3746997856791433e-02 4.3827903927057011e-04 0.0000000000000000e+00 4.3827903927057011e-04 -9.4682420898631131e-02 0.0000000000000000e+00 0.0000000000000000e+00 0.0000000000000000e+00 0.0000000000000000e+00  -8.6368924688711241e-02 7.7748533584815838e-03 0.0000000000000000e+00 7.7748533584815838e-03 -1.0542566284225752e-01 0.0000000000000000e+00 0.0000000000000000e+00 0.0000000000000000e+00 0.0000000000000000e+00  -8.5269699057521603e-02 1.6737497168264250e-02 0.0000000000000000e+00 1.6737497168264250e-02 -1.3043209149147389e-01 0.0000000000000000e+00 0.0000000000000000e+00 0.0000000000000000e+00 0.0000000000000000e+00  -7.7752964154127330e-02 1.6356980442845271e-02 0.0000000000000000e+00 1.6356980442845271e-02 -1.6836591361779041e-01 0.0000000000000000e+00 0.0000000000000000e+00 0.0000000000000000e+00 0.0000000000000000e+00  -7.6939912571521510e-02 -4.6669394948386971e-03 0.0000000000000000e+00 -4.6669394948386971e-03 -1.9880741085001224e-01 0.0000000000000000e+00 0.0000000000000000e+00 0.0000000000000000e+00 0.0000000000000000e+00  -1.0359269648713763e-01 -2.8789465332118694e-02 0.0000000000000000e+00 -2.8789465332118694e-02 -2.0491177872779195e-01 0.0000000000000000e+00 0.0000000000000000e+00 0.0000000000000000e+00 0.0000000000000000e+00  -9.9873305915657740e-02 -7.2143605862665253e-03 0.0000000000000000e+00 -7.2143605862665253e-03 -2.2264899089498272e-01 0.0000000000000000e+00 0.0000000000000000e+00 0.0000000000000000e+00 0.0000000000000000e+00  2.0734208706274185e-02 -1.0789812135403908e-02 0.0000000000000000e+00 -1.0789812135403908e-02 -2.2050463426655709e-01 0.0000000000000000e+00 0.0000000000000000e+00 0.0000000000000000e+00 0.0000000000000000e+00  -6.9603800437440799e-02 2.0982454075474891e-02 0.0000000000000000e+00 2.0982454075474891e-02 4.0263582041193211e-04 0.0000000000000000e+00 0.0000000000000000e+00 0.0000000000000000e+00 0.0000000000000000e+00  -4.7490497690000139e-01 1.5343801808146365e-01 0.0000000000000000e+00 1.5343801808146365e-01 1.6637803747206031e-01 0.0000000000000000e+00 0.0000000000000000e+00 0.0000000000000000e+00 0.0000000000000000e+00  -1.7047531658337498e-01 -1.1145060921213037e-01 0.0000000000000000e+00 -1.1145060921213037e-01 -2.9787859279505838e-02 0.0000000000000000e+00 0.0000000000000000e+00 0.0000000000000000e+00 0.0000000000000000e+00  7.8453186999194485e-02 -2.1538136756954433e-02 0.0000000000000000e+00 -2.1538136756954433e-02 5.6411209928069472e-03 0.0000000000000000e+00 0.0000000000000000e+00 0.0000000000000000e+00 0.0000000000000000e+00  2.2279803246739817e-02 5.4168088187189489e-03 0.0000000000000000e+00 5.4168088187189489e-03 -1.9142553968138215e-02 0.0000000000000000e+00 0.0000000000000000e+00 0.0000000000000000e+00 0.0000000000000000e+00  5.3493608683508323e-03 -9.4903248861876559e-03 0.0000000000000000e+00 -9.4903248861876559e-03 1.4931518369415832e-03 0.0000000000000000e+00 0.0000000000000000e+00 0.0000000000000000e+00 0.0000000000000000e+00  1.0109183742531573e-02 2.0321433745491219e-03 0.0000000000000000e+00 2.0321433745491219e-03 9.1359493566527828e-03 0.0000000000000000e+00 0.0000000000000000e+00 0.0000000000000000e+00 0.0000000000000000e+00  7.0010079017938992e-03 -7.7826715063351501e-04 0.0000000000000000e+00 -7.7826715063351501e-04 6.7303405564605127e-03 0.0000000000000000e+00 0.0000000000000000e+00 0.0000000000000000e+00 0.0000000000000000e+00  7.8108228109859922e-03 1.7560915672316355e-04 0.0000000000000000e+00 1.7560915672316355e-04 7.7963043369950052e-03 0.0000000000000000e+00 0.0000000000000000e+00 0.0000000000000000e+00 0.0000000000000000e+00  7.5694567876394810e-03 -5.5634002178030410e-05 0.0000000000000000e+00 -5.5634002178030410e-05 7.5402158794043543e-03 0.0000000000000000e+00 0.0000000000000000e+00 0.0000000000000000e+00 0.0000000000000000e+00  7.6852995232731007e-03 -5.7797307503972075e-06 0.0000000000000000e+00 -5.7797307503972075e-06 7.6892694248367624e-03 0.0000000000000000e+00 0.0000000000000000e+00 0.0000000000000000e+00 0.0000000000000000e+00  7.6627829390810941e-03 -1.1479216818591314e-05 0.0000000000000000e+00 -1.1479216818591314e-05 7.6731455559913286e-03 0.0000000000000000e+00 0.0000000000000000e+00 0.0000000000000000e+00 0.0000000000000000e+00  7.6718942152924031e-03 -4.4393188760930401e-06 0.0000000000000000e+00 -4.4393188760930401e-06 7.6892938158544732e-03 0.0000000000000000e+00 0.0000000000000000e+00 0.0000000000000000e+00 0.0000000000000000e+00  7.6685270792219906e-03 -5.2282003145789863e-06 0.0000000000000000e+00 -5.2282003145789863e-06 7.6925354508512829e-03 0.0000000000000000e+00 0.0000000000000000e+00 0.0000000000000000e+00 0.0000000000000000e+00  7.6689094913979109e-03 -5.7957241259073252e-06 0.0000000000000000e+00 -5.7957241259073252e-06 7.6968608019746263e-03 0.0000000000000000e+00 0.0000000000000000e+00 0.0000000000000000e+00 0.0000000000000000e+00  7.6689426477207345e-03 -8.0656280619932549e-06 0.0000000000000000e+00 -8.0656280619932549e-06 7.6978193411115399e-03 0.0000000000000000e+00 0.0000000000000000e+00 0.0000000000000000e+00 0.0000000000000000e+00  7.6699842851816191e-03 -1.1053187656978636e-05 0.0000000000000000e+00 -1.1053187656978636e-05 7.6960783641897793e-03 0.0000000000000000e+00 0.0000000000000000e+00 0.0000000000000000e+00 0.0000000000000000e+00  7.6718442546608138e-03 -1.4769118968370191e-05 0.0000000000000000e+00 -1.4769118968370191e-05 7.6910606264154044e-03 0.0000000000000000e+00 0.0000000000000000e+00 0.0000000000000000e+00 0.0000000000000000e+00  7.6747682295532482e-03 -1.9000612219117288e-05 0.0000000000000000e+00 -1.9000612219117288e-05 7.6824844591938174e-03 0.0000000000000000e+00 0.0000000000000000e+00 0.0000000000000000e+00 0.0000000000000000e+00  7.6412632070216478e-03 2.5212351439633388e-05 0.0000000000000000e+00 2.5212351439633388e-05 7.6489665935004208e-03 0.0000000000000000e+00 0.0000000000000000e+00 0.0000000000000000e+00 0.0000000000000000e+00  7.6384677838269481e-03 1.8944997066138105e-05 0.0000000000000000e+00 1.8944997066138105e-05 7.6573698307100535e-03 0.0000000000000000e+00 0.0000000000000000e+00 0.0000000000000000e+00 0.0000000000000000e+00  7.6369723074408589e-03 1.3589033010352598e-05 0.0000000000000000e+00 1.3589033010352598e-05 7.6617237211149807e-03 0.0000000000000000e+00 0.0000000000000000e+00 0.0000000000000000e+00 0.0000000000000000e+00  7.6368157789909004e-03 9.0670710102903092e-06 0.0000000000000000e+00 9.0670710102903092e-06 7.6624602141961195e-03 0.0000000000000000e+00 0.0000000000000000e+00 0.0000000000000000e+00 0.0000000000000000e+00  7.6370742982797097e-03 6.3174532988382016e-06 0.0000000000000000e+00 6.3174532988382016e-06 7.6591281391084265e-03 0.0000000000000000e+00 0.0000000000000000e+00 0.0000000000000000e+00 0.0000000000000000e+00  7.6411926562613818e-03 2.7325132686259492e-06 0.0000000000000000e+00 2.7325132686259492e-06 7.6554374488750649e-03 0.0000000000000000e+00 0.0000000000000000e+00 0.0000000000000000e+00 0.0000000000000000e+00  7.6348433854948519e-03 6.8667440272269510e-06 0.0000000000000000e+00 6.8667440272269510e-06 7.6388552991792889e-03 0.0000000000000000e+00 0.0000000000000000e+00 0.0000000000000000e+00 0.0000000000000000e+00  7.6702368302229255e-03 -5.4031710428778107e-06 0.0000000000000000e+00 -5.4031710428778107e-06 7.6574839210028752e-03 0.0000000000000000e+00 0.0000000000000000e+00 0.0000000000000000e+00 0.0000000000000000e+00  7.5691511059936675e-03 3.3818099249591558e-05 0.0000000000000000e+00 3.3818099249591558e-05 7.5421856961715968e-03 0.0000000000000000e+00 0.0000000000000000e+00 0.0000000000000000e+00 0.0000000000000000e+00  7.9165925330101413e-03 -7.1535382891899473e-05 0.0000000000000000e+00 -7.1535382891899473e-05 7.8856587636366195e-03 0.0000000000000000e+00 0.0000000000000000e+00 0.0000000000000000e+00 0.0000000000000000e+00  6.8462185595422323e-03 5.3659329545399030e-04 0.0000000000000000e+00 5.3659329545399030e-04 6.5463612880343981e-03 0.0000000000000000e+00 0.0000000000000000e+00 0.0000000000000000e+00 0.0000000000000000e+00  1.0646997188265591e-02 -1.2536728563709684e-03 0.0000000000000000e+00 -1.2536728563709684e-03 1.0446366068441409e-02 0.0000000000000000e+00 0.0000000000000000e+00 0.0000000000000000e+00 0.0000000000000000e+00  5.2547815812764955e-04 1.2250998401512848e-02 0.0000000000000000e+00 1.2250998401512848e-02 -7.5512984733662764e-03 0.0000000000000000e+00 0.0000000000000000e+00 0.0000000000000000e+00 0.0000000000000000e+00  4.1977145729508308e-02 -1.2870513086916873e-02 0.0000000000000000e+00 -1.2870513086916873e-02 1.9397874227849419e-03 0.0000000000000000e+00 0.0000000000000000e+00 0.0000000000000000e+00 0.0000000000000000e+00  -3.4156583024339840e-02 1.2450199514920764e-01 0.0000000000000000e+00 1.2450199514920764e-01 -6.6415227753479786e-02 0.0000000000000000e+00 0.0000000000000000e+00 0.0000000000000000e+00 0.0000000000000000e+00  -4.9128085849224373e-01 -1.2035183471043037e-01 0.0000000000000000e+00 -1.2035183471043037e-01 -1.3056364652057603e-02 0.0000000000000000e+00 0.0000000000000000e+00 0.0000000000000000e+00 0.0000000000000000e+00  -1.0482193277961058e-01 -7.3396506773772754e-02 0.0000000000000000e+00 -7.3396506773772754e-02 2.7450304975307031e-03 0.0000000000000000e+00 0.0000000000000000e+00 0.0000000000000000e+00 0.0000000000000000e+00  5.0040166623262446e-02 4.8689717134983539e-02 0.0000000000000000e+00 4.8689717134983539e-02 -1.7939346976296333e-01 0.0000000000000000e+00 0.0000000000000000e+00 0.0000000000000000e+00 0.0000000000000000e+00  -8.1553960435947537e-02 2.4495199370668380e-02 0.0000000000000000e+00 2.4495199370668380e-02 -1.8200943718126936e-01 0.0000000000000000e+00 0.0000000000000000e+00 0.0000000000000000e+00 0.0000000000000000e+00  -7.7276914710067895e-02 1.2657098802488125e-02 0.0000000000000000e+00 1.2657098802488125e-02 -1.4450758594650229e-01 0.0000000000000000e+00 0.0000000000000000e+00 0.0000000000000000e+00 0.0000000000000000e+00  -7.4771365173301019e-02 1.1446746780280336e-02 0.0000000000000000e+00 1.1446746780280336e-02 -1.1685782140768042e-01 0.0000000000000000e+00 0.0000000000000000e+00 0.0000000000000000e+00 0.0000000000000000e+00  -8.1398938595272530e-02 1.3055376951340488e-02 0.0000000000000000e+00 1.3055376951340488e-02 -1.1149349723161243e-01 0.0000000000000000e+00 0.0000000000000000e+00 0.0000000000000000e+00 0.0000000000000000e+00  -8.1919975493523298e-02 3.1036137683788569e-03 0.0000000000000000e+00 3.1036137683788569e-03 -1.1481962695666126e-01 0.0000000000000000e+00 0.0000000000000000e+00 0.0000000000000000e+00 0.0000000000000000e+00  -8.5958755086340322e-02 -9.1132710816661435e-03 0.0000000000000000e+00 -9.1132710816661435e-03 -1.0592831260346280e-01 0.0000000000000000e+00 0.0000000000000000e+00 0.0000000000000000e+00 0.0000000000000000e+00  -9.2770317148171785e-02 -1.2570717636588298e-02 0.0000000000000000e+00 -1.2570717636588298e-02 -8.8732876410744538e-02 0.0000000000000000e+00 0.0000000000000000e+00 0.0000000000000000e+00 0.0000000000000000e+00  -9.7183049792263554e-02 -8.5193060008109025e-03 0.0000000000000000e+00 -8.5193060008109025e-03 -7.4263063573831153e-02 0.0000000000000000e+00 0.0000000000000000e+00 0.0000000000000000e+00 0.0000000000000000e+00  -9.8592305091642601e-02 -2.1924937673522484e-03 0.0000000000000000e+00 -2.1924937673522484e-03 -6.6470997265158260e-02 0.0000000000000000e+00 0.0000000000000000e+00 0.0000000000000000e+00 0.0000000000000000e+00  -9.9121058489346187e-02 3.6834466752632454e-03 0.0000000000000000e+00 3.6834466752632454e-03 -6.4033170945029610e-02 0.0000000000000000e+00 0.0000000000000000e+00 0.0000000000000000e+00 0.0000000000000000e+00  -1.0006434485334162e-01 9.3392377909036917e-03 0.0000000000000000e+00 9.3392377909036917e-03 -6.5596887089893016e-02 0.0000000000000000e+00 0.0000000000000000e+00 0.0000000000000000e+00 0.0000000000000000e+00  -1.0051321045962777e-01 1.5303832429664824e-02 0.0000000000000000e+00 1.5303832429664824e-02 -7.2124404657244817e-02 0.0000000000000000e+00 0.0000000000000000e+00 0.0000000000000000e+00 0.0000000000000000e+00  -9.8291312282463350e-02 1.9505817589622838e-02 0.0000000000000000e+00 1.9505817589622838e-02 -8.5277301883630571e-02 0.0000000000000000e+00 0.0000000000000000e+00 0.0000000000000000e+00 0.0000000000000000e+00  -9.3196040821229870e-02 1.6884464469970280e-02 0.0000000000000000e+00 1.6884464469970280e-02 -1.0246460102374448e-01 0.0000000000000000e+00 0.0000000000000000e+00 0.0000000000000000e+00 0.0000000000000000e+00  -8.9830490775599486e-02 4.6759811036559164e-03 0.0000000000000000e+00 4.6759811036559164e-03 -1.1350657238658721e-01 0.0000000000000000e+00 0.0000000000000000e+00 0.0000000000000000e+00 0.0000000000000000e+00  -9.0882221959532786e-02 -8.3481828936461267e-03 0.0000000000000000e+00 -8.3481828936461267e-03 -1.1127021101862757e-01 0.0000000000000000e+00 0.0000000000000000e+00 0.0000000000000000e+00 0.0000000000000000e+00  -8.7269633076700576e-02 -1.0174719728250009e-02 0.0000000000000000e+00 -1.0174719728250009e-02 -1.1268146200101772e-01 0.0000000000000000e+00 0.0000000000000000e+00 0.0000000000000000e+00 0.0000000000000000e+00  -8.7059229600075339e-02 -1.1499628886837825e-02 0.0000000000000000e+00 -1.1499628886837825e-02 -1.3666717345481441e-01 0.0000000000000000e+00 0.0000000000000000e+00 0.0000000000000000e+00 0.0000000000000000e+00  -1.0257122820978830e-01 -2.3881061824054441e-02 0.0000000000000000e+00 -2.3881061824054441e-02 -1.7361391424416084e-01 0.0000000000000000e+00 0.0000000000000000e+00 0.0000000000000000e+00 0.0000000000000000e+00  -6.5252390965043385e-05 -4.4155477212543634e-02 0.0000000000000000e+00 -4.4155477212543634e-02 -1.9356859908091498e-01 0.0000000000000000e+00 0.0000000000000000e+00 0.0000000000000000e+00 0.0000000000000000e+00  -2.3082449637417582e-02 8.7694360290560130e-03 0.0000000000000000e+00 8.7694360290560130e-03 -4.7471797545835109e-02 0.0000000000000000e+00 0.0000000000000000e+00 0.0000000000000000e+00 0.0000000000000000e+00  -5.1947525446502507e-01 1.8070482789897774e-01 0.0000000000000000e+00 1.8070482789897774e-01 3.4694481075846315e-02 0.0000000000000000e+00 0.0000000000000000e+00 0.0000000000000000e+00 0.0000000000000000e+00  -1.3501619287125355e-01 -1.3345512656592418e-01 0.0000000000000000e+00 -1.3345512656592418e-01 -9.7058949737094113e-02 0.0000000000000000e+00 0.0000000000000000e+00 0.0000000000000000e+00 0.0000000000000000e+00  4.6735438731952732e-02 -2.6673798287834611e-04 0.0000000000000000e+00 -2.6673798287834611e-04 1.7990097283269214e-03 0.0000000000000000e+00 0.0000000000000000e+00 0.0000000000000000e+00 0.0000000000000000e+00  -3.4748960435703174e-03 -8.1460924613844850e-03 0.0000000000000000e+00 -8.1460924613844850e-03 -1.8478638559473490e-02 0.0000000000000000e+00 0.0000000000000000e+00 0.0000000000000000e+00 0.0000000000000000e+00  4.4632642434200166e-03 -1.8874710619973000e-03 0.0000000000000000e+00 -1.8874710619973000e-03 4.5035826854708406e-03 0.0000000000000000e+00 0.0000000000000000e+00 0.0000000000000000e+00 0.0000000000000000e+00  1.9896886853242725e-03 3.5601758532795367e-04 0.0000000000000000e+00 3.5601758532795367e-04 1.7458646222882840e-03 0.0000000000000000e+00 0.0000000000000000e+00 0.0000000000000000e+00 0.0000000000000000e+00  2.5133741267620289e-03 -1.9043777803893553e-04 0.0000000000000000e+00 -1.9043777803893553e-04 2.5596191078748995e-03 0.0000000000000000e+00 0.0000000000000000e+00 0.0000000000000000e+00 0.0000000000000000e+00  2.3447201953701903e-03 4.9326962489957555e-05 0.0000000000000000e+00 4.9326962489957555e-05 2.3894152271555667e-03 0.0000000000000000e+00 0.0000000000000000e+00 0.0000000000000000e+00 0.0000000000000000e+00  2.4383067268779050e-03 -3.3324083922458956e-05 0.0000000000000000e+00 -3.3324083922458956e-05 2.4288262771516643e-03 0.0000000000000000e+00 0.0000000000000000e+00 0.0000000000000000e+00 0.0000000000000000e+00  2.4342494331428080e-03 -1.5886791160689249e-05 0.0000000000000000e+00 -1.5886791160689249e-05 2.3939105773188589e-03 0.0000000000000000e+00 0.0000000000000000e+00 0.0000000000000000e+00 0.0000000000000000e+00  2.4466504458752602e-03 -5.1044318396831700e-06 0.0000000000000000e+00 -5.1044318396831700e-06 2.3816354579694263e-03 0.0000000000000000e+00 0.0000000000000000e+00 0.0000000000000000e+00 0.0000000000000000e+00  2.4465422173555536e-03 5.4456530245960326e-06 0.0000000000000000e+00 5.4456530245960326e-06 2.3798877520861206e-03 0.0000000000000000e+00 0.0000000000000000e+00 0.0000000000000000e+00 0.0000000000000000e+00  2.4354065996787166e-03 1.3716364305892584e-05 0.0000000000000000e+00 1.3716364305892584e-05 2.3871185733634103e-03 0.0000000000000000e+00 0.0000000000000000e+00 0.0000000000000000e+00 0.0000000000000000e+00  2.4500884093504567e-03 2.9905343812417822e-05 0.0000000000000000e+00 2.9905343812417822e-05 2.4234722728211705e-03 0.0000000000000000e+00 0.0000000000000000e+00 0.0000000000000000e+00 0.0000000000000000e+00  2.3795077520713565e-03 -3.9739559205252417e-05 0.0000000000000000e+00 -3.9739559205252417e-05 2.4034291628353770e-03 0.0000000000000000e+00 0.0000000000000000e+00 0.0000000000000000e+00 0.0000000000000000e+00  2.5366949373282852e-03 2.4492909475106790e-04 0.0000000000000000e+00 2.4492909475106790e-04 2.5954266969755412e-03 0.0000000000000000e+00 0.0000000000000000e+00 0.0000000000000000e+00 0.0000000000000000e+00  2.0427948503797602e-03 -3.7782909599954169e-04 0.0000000000000000e+00 -3.7782909599954169e-04 1.7302938680817425e-03 0.0000000000000000e+00 0.0000000000000000e+00 0.0000000000000000e+00 0.0000000000000000e+00  4.5062497322361002e-03 1.7875431742892715e-03 0.0000000000000000e+00 1.7875431742892715e-03 4.5981575732368931e-03 0.0000000000000000e+00 0.0000000000000000e+00 0.0000000000000000e+00 0.0000000000000000e+00  -2.8864601604205037e-03 8.2239824127272997e-03 0.0000000000000000e+00 8.2239824127272997e-03 -1.7752141937996603e-02 0.0000000000000000e+00 0.0000000000000000e+00 0.0000000000000000e+00 0.0000000000000000e+00  4.7446190920653421e-02 -5.1034096855100857e-04 0.0000000000000000e+00 -5.1034096855100857e-04 2.4034812850791810e-03 0.0000000000000000e+00 0.0000000000000000e+00 0.0000000000000000e+00 0.0000000000000000e+00  -1.3070527000950596e-01 1.3376568528635782e-01 0.0000000000000000e+00 1.3376568528635782e-01 -9.5555081203643491e-02 0.0000000000000000e+00 0.0000000000000000e+00 0.0000000000000000e+00 0.0000000000000000e+00  -5.1826970758197566e-01 -1.7974169874658488e-01 0.0000000000000000e+00 -1.7974169874658488e-01 3.4482096570275809e-02 0.0000000000000000e+00 0.0000000000000000e+00 0.0000000000000000e+00 0.0000000000000000e+00  -2.3773264982884807e-02 -1.0738120434184926e-02 0.0000000000000000e+00 -1.0738120434184926e-02 -4.5509125274203401e-02 0.0000000000000000e+00 0.0000000000000000e+00 0.0000000000000000e+00 0.0000000000000000e+00  2.7562267114236046e-03 4.4260741072726942e-02 0.0000000000000000e+00 4.4260741072726942e-02 -1.9319856233783614e-01 0.0000000000000000e+00 0.0000000000000000e+00 0.0000000000000000e+00 0.0000000000000000e+00  -1.0120009893964795e-01 2.3665294074695517e-02 0.0000000000000000e+00 2.3665294074695517e-02 -1.7405412045099763e-01 0.0000000000000000e+00 0.0000000000000000e+00 0.0000000000000000e+00 0.0000000000000000e+00  -8.6124741231357049e-02 1.1252403218957152e-02 0.0000000000000000e+00 1.1252403218957152e-02 -1.3715025947987117e-01 0.0000000000000000e+00 0.0000000000000000e+00 0.0000000000000000e+00 0.0000000000000000e+00  -8.6397656285894450e-02 9.9497473708546318e-03 0.0000000000000000e+00 9.9497473708546318e-03 -1.1304364776529853e-01 0.0000000000000000e+00 0.0000000000000000e+00 0.0000000000000000e+00 0.0000000000000000e+00  -9.0164787984789038e-02 8.2498381133941975e-03 0.0000000000000000e+00 8.2498381133941975e-03 -1.1148471133290414e-01 0.0000000000000000e+00 0.0000000000000000e+00 0.0000000000000000e+00 0.0000000000000000e+00  -8.9176145808601878e-02 -4.6724067536689376e-03 0.0000000000000000e+00 -4.6724067536689376e-03 -1.1373861325298416e-01 0.0000000000000000e+00 0.0000000000000000e+00 0.0000000000000000e+00 0.0000000000000000e+00  -9.2574496229321984e-02 -1.6884722780538045e-02 0.0000000000000000e+00 -1.6884722780538045e-02 -1.0273284674266103e-01 0.0000000000000000e+00 0.0000000000000000e+00 0.0000000000000000e+00 0.0000000000000000e+00  -9.7739879733388338e-02 -1.9528306299166211e-02 0.0000000000000000e+00 -1.9528306299166211e-02 -8.5489306130517251e-02 0.0000000000000000e+00 0.0000000000000000e+00 0.0000000000000000e+00 0.0000000000000000e+00  -1.0004765143280331e-01 -1.5297994628907305e-02 0.0000000000000000e+00 -1.5297994628907305e-02 -7.2225712473097073e-02 0.0000000000000000e+00 0.0000000000000000e+00 0.0000000000000000e+00 0.0000000000000000e+00  -9.9661010239755154e-02 -9.2509753863889675e-03 0.0000000000000000e+00 -9.2509753863889675e-03 -6.5610801098015967e-02 0.0000000000000000e+00 0.0000000000000000e+00 0.0000000000000000e+00 0.0000000000000000e+00  -9.8737929378736447e-02 -3.4938311404994096e-03 0.0000000000000000e+00 -3.4938311404994096e-03 -6.4029118484358230e-02 0.0000000000000000e+00 0.0000000000000000e+00 0.0000000000000000e+00 0.0000000000000000e+00  -9.8190263804527972e-02 2.4600169671589118e-03 0.0000000000000000e+00 2.4600169671589118e-03 -6.6518393467664028e-02 0.0000000000000000e+00 0.0000000000000000e+00 0.0000000000000000e+00 0.0000000000000000e+00  -9.6740302556925784e-02 8.8115503616530543e-03 0.0000000000000000e+00 8.8115503616530543e-03 -7.4394575962579423e-02 0.0000000000000000e+00 0.0000000000000000e+00 0.0000000000000000e+00 0.0000000000000000e+00  -9.2290887146559739e-02 1.2827490504806478e-02 0.0000000000000000e+00 1.2827490504806478e-02 -8.8925291163111889e-02 0.0000000000000000e+00 0.0000000000000000e+00 0.0000000000000000e+00 0.0000000000000000e+00  -8.5475709246785270e-02 9.2979408928025274e-03 0.0000000000000000e+00 9.2979408928025274e-03 -1.0610450276422603e-01 0.0000000000000000e+00 0.0000000000000000e+00 0.0000000000000000e+00 0.0000000000000000e+00  -8.1469890794630143e-02 -2.9649301971727215e-03 0.0000000000000000e+00 -2.9649301971727215e-03 -1.1489571793021487e-01 0.0000000000000000e+00 0.0000000000000000e+00 0.0000000000000000e+00 0.0000000000000000e+00  -8.0958234142940136e-02 -1.2879780710353518e-02 0.0000000000000000e+00 -1.2879780710353518e-02 -1.1149160613059388e-01 0.0000000000000000e+00 0.0000000000000000e+00 0.0000000000000000e+00 0.0000000000000000e+00  -7.4316865335860793e-02 -1.1231578166396784e-02 0.0000000000000000e+00 -1.1231578166396784e-02 -1.1690040119345474e-01 0.0000000000000000e+00 0.0000000000000000e+00 0.0000000000000000e+00 0.0000000000000000e+00  -7.6935140497893115e-02 -1.2486201992180973e-02 0.0000000000000000e+00 -1.2486201992180973e-02 -1.4459611817137408e-01 0.0000000000000000e+00 0.0000000000000000e+00 0.0000000000000000e+00 0.0000000000000000e+00  -8.1003726545672464e-02 -2.4345389116180810e-02 0.0000000000000000e+00 -2.4345389116180810e-02 -1.8206666138806940e-01 0.0000000000000000e+00 0.0000000000000000e+00 0.0000000000000000e+00 0.0000000000000000e+00  5.0923318590097251e-02 -4.8523145389205900e-02 0.0000000000000000e+00 -4.8523145389205900e-02 -1.7902953815210987e-01 0.0000000000000000e+00 0.0000000000000000e+00 0.0000000000000000e+00 0.0000000000000000e+00  -1.0614328735165124e-01 7.4514753187942304e-02 0.0000000000000000e+00 7.4514753187942304e-02 3.6940413459141492e-03 0.0000000000000000e+00 0.0000000000000000e+00 0.0000000000000000e+00 0.0000000000000000e+00  -4.9057041719799366e-01 1.1917860638895399e-01 0.0000000000000000e+00 1.1917860638895399e-01 -1.3364846850644620e-02 0.0000000000000000e+00 0.0000000000000000e+00 0.0000000000000000e+00 0.0000000000000000e+00  -3.3351939533509109e-02 -1.2409936234438719e-01 0.0000000000000000e+00 -1.2409936234438719e-01 -6.5921843953974560e-02 0.0000000000000000e+00 0.0000000000000000e+00 0.0000000000000000e+00 0.0000000000000000e+00  4.1470021935780435e-02 1.2928316125449080e-02 0.0000000000000000e+00 1.2928316125449080e-02 1.2974682626465438e-03 0.0000000000000000e+00 0.0000000000000000e+00 0.0000000000000000e+00 0.0000000000000000e+00  1.7201408797916991e-04 -1.2291340404722994e-02 0.0000000000000000e+00 -1.2291340404722994e-02 -8.0977147225703722e-03 0.0000000000000000e+00 0.0000000000000000e+00 0.0000000000000000e+00 0.0000000000000000e+00  1.0661063431333937e-02 1.1882714064859665e-03 0.0000000000000000e+00 1.1882714064859665e-03 1.0410048977336181e-02 0.0000000000000000e+00 0.0000000000000000e+00 0.0000000000000000e+00 0.0000000000000000e+00  6.8679282647963703e-03 -5.3381678244670086e-04 0.0000000000000000e+00 -5.3381678244670086e-04 6.5909664953218081e-03 0.0000000000000000e+00 0.0000000000000000e+00 0.0000000000000000e+00 0.0000000000000000e+00  7.8772638059203537e-03 1.0871978263683694e-04 0.0000000000000000e+00 1.0871978263683694e-04 7.8429603255989050e-03 0.0000000000000000e+00 0.0000000000000000e+00 0.0000000000000000e+00 0.0000000000000000e+00  7.5839784304981214e-03 -3.6224621301491535e-05 0.0000000000000000e+00 -3.6224621301491535e-05 7.5710723231158222e-03 0.0000000000000000e+00 0.0000000000000000e+00 0.0000000000000000e+00 0.0000000000000000e+00  7.7004337540710604e-03 -2.8578582074555147e-06 0.0000000000000000e+00 -2.8578582074555147e-06 7.6984554278432460e-03 0.0000000000000000e+00 0.0000000000000000e+00 0.0000000000000000e+00 0.0000000000000000e+00  7.6721174375977523e-03 -7.4597726980728694e-06 0.0000000000000000e+00 -7.4597726980728694e-06 7.6811057253857694e-03 0.0000000000000000e+00 0.0000000000000000e+00 0.0000000000000000e+00 0.0000000000000000e+00  7.6792664137989184e-03 -2.4311397493212021e-06 0.0000000000000000e+00 -2.4311397493212017e-06 7.6953005430988172e-03 0.0000000000000000e+00 0.0000000000000000e+00 0.0000000000000000e+00 0.0000000000000000e+00  7.6755054890253402e-03 -5.7508596330420737e-06 0.0000000000000000e+00 -5.7508596330420737e-06 7.6983351796031689e-03 0.0000000000000000e+00 0.0000000000000000e+00 0.0000000000000000e+00 0.0000000000000000e+00  7.6756654111601475e-03 -8.2271123898359202e-06 0.0000000000000000e+00 -8.2271123898359202e-06 7.7009892353987024e-03 0.0000000000000000e+00 0.0000000000000000e+00 0.0000000000000000e+00 0.0000000000000000e+00  7.6760545628091108e-03 -1.2283716928587915e-05 0.0000000000000000e+00 -1.2283716928587915e-05 7.6999214729233040e-03 0.0000000000000000e+00 0.0000000000000000e+00 0.0000000000000000e+00 0.0000000000000000e+00  7.6776189268512856e-03 -1.6986772678508032e-05 0.0000000000000000e+00 -1.6986772678508032e-05 7.6956037025141385e-03 0.0000000000000000e+00 0.0000000000000000e+00 0.0000000000000000e+00 0.0000000000000000e+00  7.6803085939224948e-03 -2.2416049440648844e-05 0.0000000000000000e+00 -2.2416049440648844e-05 7.6876011618815382e-03 0.0000000000000000e+00 0.0000000000000000e+00 0.0000000000000000e+00 0.0000000000000000e+00  7.6492412438353826e-03 2.8547461409446122e-05 0.0000000000000000e+00 2.8547461409446122e-05 7.6563561109112182e-03 0.0000000000000000e+00 0.0000000000000000e+00 0.0000000000000000e+00 0.0000000000000000e+00  7.6467663684386834e-03 2.0893894845077057e-05 0.0000000000000000e+00 2.0893894845077057e-05 7.6638891518827669e-03 0.0000000000000000e+00 0.0000000000000000e+00 0.0000000000000000e+00 0.0000000000000000e+00  7.6457480791772264e-03 1.4084199577065544e-05 0.0000000000000000e+00 1.4084199577065544e-05 7.6673439963475063e-03 0.0000000000000000e+00 0.0000000000000000e+00 0.0000000000000000e+00 0.0000000000000000e+00  7.6458648930182779e-03 8.8362316651654393e-06 0.0000000000000000e+00 8.8362316651654393e-06 7.6665461795210688e-03 0.0000000000000000e+00 0.0000000000000000e+00 0.0000000000000000e+00 0.0000000000000000e+00  7.6486830481085804e-03 2.9404686505851249e-06 0.0000000000000000e+00 2.9404686505851249e-06 7.6638151429276697e-03 0.0000000000000000e+00 0.0000000000000000e+00 0.0000000000000000e+00 0.0000000000000000e+00  7.6448185659101489e-03 5.9126956082082103e-06 0.0000000000000000e+00 5.9126956082082103e-06 7.6505029798983873e-03 0.0000000000000000e+00 0.0000000000000000e+00 0.0000000000000000e+00 0.0000000000000000e+00  7.6762344160053193e-03 -1.4599996844771484e-05 0.0000000000000000e+00 -1.4599996844771484e-05 7.6658715715067901e-03 0.0000000000000000e+00 0.0000000000000000e+00 0.0000000000000000e+00 0.0000000000000000e+00  7.5733073344530135e-03 4.0749279226916971e-05 0.0000000000000000e+00 4.0749279226916971e-05 7.5613152990670115e-03 0.0000000000000000e+00 0.0000000000000000e+00 0.0000000000000000e+00 0.0000000000000000e+00  7.9425789059804110e-03 -8.5256583875579773e-05 0.0000000000000000e+00 -8.5256583875579773e-05 7.8813937678345446e-03 0.0000000000000000e+00 0.0000000000000000e+00 0.0000000000000000e+00 0.0000000000000000e+00  6.7338294430862996e-03 3.8779217871837617e-04 0.0000000000000000e+00 3.8779217871837617e-04 6.6883262782468419e-03 0.0000000000000000e+00 0.0000000000000000e+00 0.0000000000000000e+00 0.0000000000000000e+00  1.0460518722041796e-02 -9.6016624029706229e-05 0.0000000000000000e+00 -9.6016624029706229e-05 1.0412778071540408e-02 0.0000000000000000e+00 0.0000000000000000e+00 0.0000000000000000e+00 0.0000000000000000e+00  -2.7836244760192728e-03 9.8881063494455149e-03 0.0000000000000000e+00 9.8881063494455149e-03 -9.1503081100607533e-03 0.0000000000000000e+00 0.0000000000000000e+00 0.0000000000000000e+00 0.0000000000000000e+00  3.6412716194894133e-02 7.3962593241237388e-03 0.0000000000000000e+00 7.3962593241237388e-03 1.1897336988565552e-02 0.0000000000000000e+00 0.0000000000000000e+00 0.0000000000000000e+00 0.0000000000000000e+00  -2.0079962544812710e-01 1.1404531633458859e-01 0.0000000000000000e+00 1.1404531633458859e-01 -1.4839849284901210e-01 0.0000000000000000e+00 0.0000000000000000e+00 0.0000000000000000e+00 0.0000000000000000e+00  -4.0770216210215959e-01 -2.3222758593075485e-01 0.0000000000000000e+00 -2.3222758593075485e-01 -6.9725821317416947e-02 0.0000000000000000e+00 0.0000000000000000e+00 0.0000000000000000e+00 0.0000000000000000e+00  8.0022545910649598e-02 6.0464665445647076e-02 0.0000000000000000e+00 6.0464665445647076e-02 -8.2528156469426461e-02 0.0000000000000000e+00 0.0000000000000000e+00 0.0000000000000000e+00 0.0000000000000000e+00  -4.6514264500083821e-02 5.0030305161791154e-02 0.0000000000000000e+00 5.0030305161791154e-02 -1.5871370138122964e-01 0.0000000000000000e+00 0.0000000000000000e+00 0.0000000000000000e+00 0.0000000000000000e+00  -7.5905750774588152e-02 4.4809945739215156e-03 0.0000000000000000e+00 4.4809945739215156e-03 -1.2120579920542394e-01 0.0000000000000000e+00 0.0000000000000000e+00 0.0000000000000000e+00 0.0000000000000000e+00  -7.8546629974220031e-02 9.4181966595298060e-03 0.0000000000000000e+00 9.4181966595298060e-03 -9.8930333274992233e-02 0.0000000000000000e+00 0.0000000000000000e+00 0.0000000000000000e+00 0.0000000000000000e+00  -8.8556067842708516e-02 1.0949411569429187e-02 0.0000000000000000e+00 1.0949411569429187e-02 -9.3883686021447837e-02 0.0000000000000000e+00 0.0000000000000000e+00 0.0000000000000000e+00 0.0000000000000000e+00  -8.8360931881523552e-02 9.1246657462246018e-03 0.0000000000000000e+00 9.1246657462246018e-03 -9.4466490754546328e-02 0.0000000000000000e+00 0.0000000000000000e+00 0.0000000000000000e+00 0.0000000000000000e+00  -8.5863968624915091e-02 7.7795410682404550e-03 0.0000000000000000e+00 7.7795410682404550e-03 -9.8297644948348112e-02 0.0000000000000000e+00 0.0000000000000000e+00 0.0000000000000000e+00 0.0000000000000000e+00  -8.4917141420075101e-02 2.6561704896989062e-03 0.0000000000000000e+00 2.6561704896989062e-03 -1.0071385127086085e-01 0.0000000000000000e+00 0.0000000000000000e+00 0.0000000000000000e+00 0.0000000000000000e+00  -8.7374895080502349e-02 -3.8839539279441806e-03 0.0000000000000000e+00 -3.8839539279441806e-03 -9.6318515693635379e-02 0.0000000000000000e+00 0.0000000000000000e+00 0.0000000000000000e+00 0.0000000000000000e+00  -9.2074249764528479e-02 -6.9172272205813368e-03 0.0000000000000000e+00 -6.9172272205813368e-03 -8.6661311219486392e-02 0.0000000000000000e+00 0.0000000000000000e+00 0.0000000000000000e+00 0.0000000000000000e+00  -9.6456508815783756e-02 -5.2951166599969676e-03 0.0000000000000000e+00 -5.2951166599969676e-03 -7.6886082574110781e-02 0.0000000000000000e+00 0.0000000000000000e+00 0.0000000000000000e+00 0.0000000000000000e+00  -9.9240777062755275e-02 -8.6990792825280454e-04 0.0000000000000000e+00 -8.6990792825280454e-04 -7.0366217284407562e-02 0.0000000000000000e+00 0.0000000000000000e+00 0.0000000000000000e+00 0.0000000000000000e+00  -1.0062560268001593e-01 4.4588000623362262e-03 0.0000000000000000e+00 4.4588000623362262e-03 -6.7871999743313483e-02 0.0000000000000000e+00 0.0000000000000000e+00 0.0000000000000000e+00 0.0000000000000000e+00  -1.0097561134721868e-01 9.7280879402330007e-03 0.0000000000000000e+00 9.7280879402330007e-03 -6.9289645366630195e-02 0.0000000000000000e+00 0.0000000000000000e+00 0.0000000000000000e+00 0.0000000000000000e+00  -1.0004600903412436e-01 1.4088262311656250e-02 0.0000000000000000e+00 1.4088262311656250e-02 -7.4706313301264690e-02 0.0000000000000000e+00 0.0000000000000000e+00 0.0000000000000000e+00 0.0000000000000000e+00  -9.7530758454837191e-02 1.5809950732120787e-02 0.0000000000000000e+00 1.5809950732120787e-02 -8.3642716431103159e-02 0.0000000000000000e+00 0.0000000000000000e+00 0.0000000000000000e+00 0.0000000000000000e+00  -9.4406402676074391e-02 1.2843877687789496e-02 0.0000000000000000e+00 1.2843877687789496e-02 -9.3260514347793075e-02 0.0000000000000000e+00 0.0000000000000000e+00 0.0000000000000000e+00 0.0000000000000000e+00  -9.3177055043463450e-02 5.5636814006902882e-03 0.0000000000000000e+00 5.5636814006902882e-03 -9.8445652332254760e-02 0.0000000000000000e+00 0.0000000000000000e+00 0.0000000000000000e+00 0.0000000000000000e+00  -9.5549334362148852e-02 -1.5326433072979826e-03 0.0000000000000000e+00 -1.5326433072979826e-03 -9.6503148637683625e-02 0.0000000000000000e+00 0.0000000000000000e+00 0.0000000000000000e+00 0.0000000000000000e+00  -1.0018556004173784e-01 -4.9186376094907894e-03 0.0000000000000000e+00 -4.9186376094907894e-03 -9.1846343039320655e-02 0.0000000000000000e+00 0.0000000000000000e+00 0.0000000000000000e+00 0.0000000000000000e+00  -1.0385436750810895e-01 -8.1271709215980023e-03 0.0000000000000000e+00 -8.1271709215980023e-03 -9.0076601957427185e-02 0.0000000000000000e+00 0.0000000000000000e+00 0.0000000000000000e+00 0.0000000000000000e+00  -9.8830114954956458e-02 -9.8825369165645213e-03 0.0000000000000000e+00 -9.8825369165645213e-03 -9.3590677637142905e-02 0.0000000000000000e+00 0.0000000000000000e+00 0.0000000000000000e+00 0.0000000000000000e+00  -9.5273662484531493e-02 -5.6352767613958021e-03 0.0000000000000000e+00 -5.6352767613958021e-03 -1.1185542924834956e-01 0.0000000000000000e+00 0.0000000000000000e+00 0.0000000000000000e+00 0.0000000000000000e+00  -9.2801143482640458e-02 -3.4434381674526476e-02 0.0000000000000000e+00 -3.4434381674526476e-02 -1.5658533538988559e-01 0.0000000000000000e+00 0.0000000000000000e+00 0.0000000000000000e+00 0.0000000000000000e+00  4.1672569183940779e-02 -8.3453450174128294e-02 0.0000000000000000e+00 -8.3453450174128294e-02 -1.2819849329591579e-01 0.0000000000000000e+00 0.0000000000000000e+00 0.0000000000000000e+00 0.0000000000000000e+00  -2.7827288304228914e-01 1.7363290032406242e-01 0.0000000000000000e+00 1.7363290032406242e-01 -4.8375966049038231e-02 0.0000000000000000e+00 0.0000000000000000e+00 0.0000000000000000e+00 0.0000000000000000e+00  -3.4547914289859938e-01 -3.0885411728025568e-02 0.0000000000000000e+00 -3.0885411728025568e-02 -1.7613719622682880e-01 0.0000000000000000e+00 0.0000000000000000e+00 0.0000000000000000e+00 0.0000000000000000e+00  1.5134267998245228e-02 -4.9172636945450487e-02 0.0000000000000000e+00 -4.9172636945450487e-02 -1.2296149853402570e-02 0.0000000000000000e+00 0.0000000000000000e+00 0.0000000000000000e+00 0.0000000000000000e+00  -4.5215614326346914e-03 -1.8361232962524909e-03 0.0000000000000000e+00 -1.8361232962524909e-03 -1.3330634879245641e-02 0.0000000000000000e+00 0.0000000000000000e+00 0.0000000000000000e+00 0.0000000000000000e+00  3.1011321684864357e-03 -3.9067087699136962e-03 0.0000000000000000e+00 -3.9067087699136962e-03 3.1638988846974555e-03 0.0000000000000000e+00 0.0000000000000000e+00 0.0000000000000000e+00 0.0000000000000000e+00  1.8372038117636185e-03 4.5388550930137306e-04 0.0000000000000000e+00 4.5388550930137306e-04 2.1083485370644475e-03 0.0000000000000000e+00 0.0000000000000000e+00 0.0000000000000000e+00 0.0000000000000000e+00  2.6068925804573150e-03 -1.4455988578447056e-04 0.0000000000000000e+00 -1.4455988578447056e-04 2.5912689566935268e-03 0.0000000000000000e+00 0.0000000000000000e+00 0.0000000000000000e+00 0.0000000000000000e+00  2.3251957412876393e-03 -1.3251295081015846e-05 0.0000000000000000e+00 -1.3251295081015846e-05 2.3725325796848159e-03 0.0000000000000000e+00 0.0000000000000000e+00 0.0000000000000000e+00 0.0000000000000000e+00  2.4323277846585666e-03 -2.1075378398178192e-05 0.0000000000000000e+00 -2.1075378398178192e-05 2.3989559512903372e-03 0.0000000000000000e+00 0.0000000000000000e+00 0.0000000000000000e+00 0.0000000000000000e+00  2.4240039368783077e-03 -1.2714968136675182e-05 0.0000000000000000e+00 -1.2714968136675182e-05 2.3648252564590134e-03 0.0000000000000000e+00 0.0000000000000000e+00 0.0000000000000000e+00 0.0000000000000000e+00  2.4243939294060265e-03 1.1787749360881035e-05 0.0000000000000000e+00 1.1787749360881035e-05 2.3629288019329426e-03 0.0000000000000000e+00 0.0000000000000000e+00 0.0000000000000000e+00 0.0000000000000000e+00  2.4401681859362711e-03 1.9142082474838435e-05 0.0000000000000000e+00 1.9142082474838435e-05 2.3957748855190117e-03 0.0000000000000000e+00 0.0000000000000000e+00 0.0000000000000000e+00 0.0000000000000000e+00  2.3436794187154451e-03 1.4682932550346480e-05 0.0000000000000000e+00 1.4682932550346478e-05 2.3729782781148319e-03 0.0000000000000000e+00 0.0000000000000000e+00 0.0000000000000000e+00 0.0000000000000000e+00  2.5887003035436509e-03 1.9466027811605952e-04 0.0000000000000000e+00 1.9466027811605952e-04 2.5760612363730194e-03 0.0000000000000000e+00 0.0000000000000000e+00 0.0000000000000000e+00 0.0000000000000000e+00  1.8897500528679448e-03 -5.2633526862518802e-04 0.0000000000000000e+00 -5.2633526862518802e-04 2.1363365857651659e-03 0.0000000000000000e+00 0.0000000000000000e+00 0.0000000000000000e+00 0.0000000000000000e+00  3.1819739751161708e-03 4.0130361433911741e-03 0.0000000000000000e+00 4.0130361433911741e-03 3.2624185737503276e-03 0.0000000000000000e+00 0.0000000000000000e+00 0.0000000000000000e+00 0.0000000000000000e+00  -3.5827375579442380e-03 1.6487567659220601e-03 0.0000000000000000e+00 1.6487567659220601e-03 -1.2983130268474290e-02 0.0000000000000000e+00 0.0000000000000000e+00 0.0000000000000000e+00 0.0000000000000000e+00  1.6523392302798024e-02 4.8459774258232384e-02 0.0000000000000000e+00 4.8459774258232384e-02 -1.1621576299735677e-02 0.0000000000000000e+00 0.0000000000000000e+00 0.0000000000000000e+00 0.0000000000000000e+00  -3.4277778536667580e-01 3.2232448327355778e-02 0.0000000000000000e+00 3.2232448327355778e-02 -1.7260806052244396e-01 0.0000000000000000e+00 0.0000000000000000e+00 0.0000000000000000e+00 0.0000000000000000e+00  -2.7965425679771860e-01 -1.7523066410987681e-01 0.0000000000000000e+00 -1.7523066410987681e-01 -4.6234346816617193e-02 0.0000000000000000e+00 0.0000000000000000e+00 0.0000000000000000e+00 0.0000000000000000e+00  4.5245601212921788e-02 8.3263955215347268e-02 0.0000000000000000e+00 8.3263955215347268e-02 -1.2652134016251218e-01 0.0000000000000000e+00 0.0000000000000000e+00 0.0000000000000000e+00 0.0000000000000000e+00  -9.0301648447710811e-02 3.5108943971157755e-02 0.0000000000000000e+00 3.5108943971157755e-02 -1.5631096714009765e-01 0.0000000000000000e+00 0.0000000000000000e+00 0.0000000000000000e+00 0.0000000000000000e+00  -9.3780217169861083e-02 5.6976241687430431e-03 0.0000000000000000e+00 5.6976241687430431e-03 -1.1207887229369767e-01 0.0000000000000000e+00 0.0000000000000000e+00 0.0000000000000000e+00 0.0000000000000000e+00  -9.7544068850067070e-02 9.8621350103131646e-03 0.0000000000000000e+00 9.8621350103131646e-03 -9.3922170234836885e-02 0.0000000000000000e+00 0.0000000000000000e+00 0.0000000000000000e+00 0.0000000000000000e+00  -1.0289293080441735e-01 8.1036738866382893e-03 0.0000000000000000e+00 8.1036738866382893e-03 -9.0427013838166787e-02 0.0000000000000000e+00 0.0000000000000000e+00 0.0000000000000000e+00 0.0000000000000000e+00  -9.9431281030922011e-02 4.8741274425718384e-03 0.0000000000000000e+00 4.8741274425718384e-03 -9.2153510509541181e-02 0.0000000000000000e+00 0.0000000000000000e+00 0.0000000000000000e+00 0.0000000000000000e+00  -9.4925122055325939e-02 1.5227419431550456e-03 0.0000000000000000e+00 1.5227419431550456e-03 -9.6759976317579849e-02 0.0000000000000000e+00 0.0000000000000000e+00 0.0000000000000000e+00 0.0000000000000000e+00  -9.2626059242385289e-02 -5.5290097632150897e-03 0.0000000000000000e+00 -5.5290097632150897e-03 -9.8692987948859695e-02 0.0000000000000000e+00 0.0000000000000000e+00 0.0000000000000000e+00 0.0000000000000000e+00  -9.3904908886712282e-02 -1.2795542756040439e-02 0.0000000000000000e+00 -1.2795542756040439e-02 -9.3503558303061257e-02 0.0000000000000000e+00 0.0000000000000000e+00 0.0000000000000000e+00 0.0000000000000000e+00  -9.7083603488645392e-02 -1.5759725230758241e-02 0.0000000000000000e+00 -1.5759725230758241e-02 -8.3846437687469577e-02 0.0000000000000000e+00 0.0000000000000000e+00 0.0000000000000000e+00 0.0000000000000000e+00  -9.9656251908391350e-02 -1.4015099830629109e-02 0.0000000000000000e+00 -1.4015099830629109e-02 -7.4844762996925315e-02 0.0000000000000000e+00 0.0000000000000000e+00 0.0000000000000000e+00 0.0000000000000000e+00  -1.0062839844034729e-01 -9.6033548314061138e-03 0.0000000000000000e+00 -9.6033548314061138e-03 -6.9372426979007182e-02 0.0000000000000000e+00 0.0000000000000000e+00 0.0000000000000000e+00 0.0000000000000000e+00  -1.0029296553425668e-01 -4.2708193895895277e-03 0.0000000000000000e+00 -4.2708193895895277e-03 -6.7935609345733533e-02 0.0000000000000000e+00 0.0000000000000000e+00 0.0000000000000000e+00 0.0000000000000000e+00  -9.8895221787622639e-02 1.1072734579918499e-03 0.0000000000000000e+00 1.1072734579918499e-03 -7.0449171182992251e-02 0.0000000000000000e+00 0.0000000000000000e+00 0.0000000000000000e+00 0.0000000000000000e+00  -9.6083151677207795e-02 5.5490652407997653e-03 0.0000000000000000e+00 5.5490652407997653e-03 -7.7005632154757961e-02 0.0000000000000000e+00 0.0000000000000000e+00 0.0000000000000000e+00 0.0000000000000000e+00  -9.1677128478701395e-02 7.1524929626570243e-03 0.0000000000000000e+00 7.1524929626570243e-03 -8.6801692355401389e-02 0.0000000000000000e+00 0.0000000000000000e+00 0.0000000000000000e+00 0.0000000000000000e+00  -8.6973777686716297e-02 4.0835900436796222e-03 0.0000000000000000e+00 4.0835900436796222e-03 -9.6437121363695491e-02 0.0000000000000000e+00 0.0000000000000000e+00 0.0000000000000000e+00 0.0000000000000000e+00  -8.4532027354960029e-02 -2.4768679648461593e-03 0.0000000000000000e+00 -2.4768679648461593e-03 -1.0076996398520827e-01 0.0000000000000000e+00 0.0000000000000000e+00 0.0000000000000000e+00 0.0000000000000000e+00  -8.5496348076323961e-02 -7.5907109110330906e-03 0.0000000000000000e+00 -7.5907109110330906e-03 -9.8289085373435031e-02 0.0000000000000000e+00 0.0000000000000000e+00 0.0000000000000000e+00 0.0000000000000000e+00  -8.7994358456104857e-02 -8.9262079514902688e-03 0.0000000000000000e+00 -8.9262079514902688e-03 -9.4422659635661987e-02 0.0000000000000000e+00 0.0000000000000000e+00 0.0000000000000000e+00 0.0000000000000000e+00  -8.8159627131703680e-02 -1.0757567848198077e-02 0.0000000000000000e+00 -1.0757567848198077e-02 -9.3814137574011566e-02 0.0000000000000000e+00 0.0000000000000000e+00 0.0000000000000000e+00 0.0000000000000000e+00  -7.8112963082539622e-02 -9.2008751831091570e-03 0.0000000000000000e+00 -9.2008751831091570e-03 -9.8843805678595353e-02 0.0000000000000000e+00 0.0000000000000000e+00 0.0000000000000000e+00 0.0000000000000000e+00  -7.5558748775570783e-02 -4.3225767714569294e-03 0.0000000000000000e+00 -4.3225767714569294e-03 -1.2117759961065354e-01 0.0000000000000000e+00 0.0000000000000000e+00 0.0000000000000000e+00 0.0000000000000000e+00  -4.5796693349073596e-02 -5.0054870752451693e-02 0.0000000000000000e+00 -5.0054870752451693e-02 -1.5858583825944078e-01 0.0000000000000000e+00 0.0000000000000000e+00 0.0000000000000000e+00 0.0000000000000000e+00  8.0374789036162048e-02 -5.9787076591505839e-02 0.0000000000000000e+00 -5.9787076591505839e-02 -8.1954095967429863e-02 0.0000000000000000e+00 0.0000000000000000e+00 0.0000000000000000e+00 0.0000000000000000e+00  -4.0887303338378012e-01 2.3244255232288058e-01 0.0000000000000000e+00 2.3244255232288058e-01 -6.9385299545430226e-02 0.0000000000000000e+00 0.0000000000000000e+00 0.0000000000000000e+00 0.0000000000000000e+00  -1.9980364008042525e-01 -1.1442339268490424e-01 0.0000000000000000e+00 -1.1442339268490424e-01 -1.4787909023025578e-01 0.0000000000000000e+00 0.0000000000000000e+00 0.0000000000000000e+00 0.0000000000000000e+00  3.6207157434106838e-02 -7.3108539769770444e-03 0.0000000000000000e+00 -7.3108539769770444e-03 1.1465089527018912e-02 0.0000000000000000e+00 0.0000000000000000e+00 0.0000000000000000e+00 0.0000000000000000e+00  -3.1530149475210425e-03 -9.9551455593309308e-03 0.0000000000000000e+00 -9.9551455593309308e-03 -9.6680331191498822e-03 0.0000000000000000e+00 0.0000000000000000e+00 0.0000000000000000e+00 0.0000000000000000e+00  1.0419756731226837e-02 6.0959385153998108e-05 0.0000000000000000e+00 6.0959385153998108e-05 1.0341486211390992e-02 0.0000000000000000e+00 0.0000000000000000e+00 0.0000000000000000e+00 0.0000000000000000e+00  6.7821912701770907e-03 -3.8808927031178900e-04 0.0000000000000000e+00 -3.8808927031178900e-04 6.7257611525582866e-03 0.0000000000000000e+00 0.0000000000000000e+00 0.0000000000000000e+00 0.0000000000000000e+00  7.9302852456923055e-03 1.1078525263266457e-04 0.0000000000000000e+00 1.1078525263266460e-04 7.8688180508442156e-03 0.0000000000000000e+00 0.0000000000000000e+00 0.0000000000000000e+00 0.0000000000000000e+00  7.5980535527080846e-03 -4.5562251204642227e-05 0.0000000000000000e+00 -4.5562251204642213e-05 7.5992798216405234e-03 0.0000000000000000e+00 0.0000000000000000e+00 0.0000000000000000e+00 0.0000000000000000e+00  7.7086949351940501e-03 1.0348117053507395e-05 0.0000000000000000e+00 1.0348117053507395e-05 7.7057596394496724e-03 0.0000000000000000e+00 0.0000000000000000e+00 0.0000000000000000e+00 0.0000000000000000e+00  7.6803646067842629e-03 -6.4079272436256506e-06 0.0000000000000000e+00 -6.4079272436256515e-06 7.6906819397702924e-03 0.0000000000000000e+00 0.0000000000000000e+00 0.0000000000000000e+00 0.0000000000000000e+00  7.6854467729457927e-03 -2.9745490688182984e-06 0.0000000000000000e+00 -2.9745490688182984e-06 7.7027259591588059e-03 0.0000000000000000e+00 0.0000000000000000e+00 0.0000000000000000e+00 0.0000000000000000e+00  7.6831907584317500e-03 -8.4369970777354484e-06 0.0000000000000000e+00 -8.4369970777354484e-06 7.7046098690675344e-03 0.0000000000000000e+00 0.0000000000000000e+00 0.0000000000000000e+00 0.0000000000000000e+00  7.6835358254326528e-03 -1.3023453251657366e-05 0.0000000000000000e+00 -1.3023453251657366e-05 7.7048840779200579e-03 0.0000000000000000e+00 0.0000000000000000e+00 0.0000000000000000e+00 0.0000000000000000e+00  7.6847461930406331e-03 -1.8957280226211171e-05 0.0000000000000000e+00 -1.8957280226211171e-05 7.7012722523906842e-03 0.0000000000000000e+00 0.0000000000000000e+00 0.0000000000000000e+00 0.0000000000000000e+00  7.6871808855270883e-03 -2.5602780825605182e-05 0.0000000000000000e+00 -2.5602780825605182e-05 7.6939957620921302e-03 0.0000000000000000e+00 0.0000000000000000e+00 0.0000000000000000e+00 0.0000000000000000e+00  7.6585213209239287e-03 3.1613798361934387e-05 0.0000000000000000e+00 3.1613798361934387e-05 7.6651598020771707e-03 0.0000000000000000e+00 0.0000000000000000e+00 0.0000000000000000e+00 0.0000000000000000e+00  7.6563220145887054e-03 2.2450346710665491e-05 0.0000000000000000e+00 2.2450346710665491e-05 7.6718670635971473e-03 0.0000000000000000e+00 0.0000000000000000e+00 0.0000000000000000e+00 0.0000000000000000e+00  7.6556860867523493e-03 1.4379197236844223e-05 0.0000000000000000e+00 1.4379197236844223e-05 7.6741830292172035e-03 0.0000000000000000e+00 0.0000000000000000e+00 0.0000000000000000e+00 0.0000000000000000e+00  7.6566611413456187e-03 6.5200172302860628e-06 0.0000000000000000e+00 6.5200172302860628e-06 7.6728319163051912e-03 0.0000000000000000e+00 0.0000000000000000e+00 0.0000000000000000e+00 0.0000000000000000e+00  7.6567812165101255e-03 5.4811134610465270e-06 0.0000000000000000e+00 5.4811134610465270e-06 7.6642598403510844e-03 0.0000000000000000e+00 0.0000000000000000e+00 0.0000000000000000e+00 0.0000000000000000e+00  7.6743583329554610e-03 -1.7551011497656707e-05 0.0000000000000000e+00 -1.7551011497656707e-05 7.6715348435526902e-03 0.0000000000000000e+00 0.0000000000000000e+00 0.0000000000000000e+00 0.0000000000000000e+00  7.6002701507417222e-03 5.3028739383828531e-05 0.0000000000000000e+00 5.3028739383828531e-05 7.5892728718879596e-03 0.0000000000000000e+00 0.0000000000000000e+00 0.0000000000000000e+00 0.0000000000000000e+00  7.9348729974245656e-03 -1.6548676922467572e-04 0.0000000000000000e+00 -1.6548676922467572e-04 7.8727515707755318e-03 0.0000000000000000e+00 0.0000000000000000e+00 0.0000000000000000e+00 0.0000000000000000e+00  6.6260199506465497e-03 5.4347406850259591e-04 0.0000000000000000e+00 5.4347406850259591e-04 6.8174711085843163e-03 0.0000000000000000e+00 0.0000000000000000e+00 0.0000000000000000e+00 0.0000000000000000e+00  1.0507200565704341e-02 -1.6708172173899232e-04 0.0000000000000000e+00 -1.6708172173899232e-04 1.0421442185495932e-02 0.0000000000000000e+00 0.0000000000000000e+00 0.0000000000000000e+00 0.0000000000000000e+00  -6.1779782399585701e-03 8.5001632176800040e-03 0.0000000000000000e+00 8.5001632176800040e-03 -5.9138528193618117e-03 0.0000000000000000e+00 0.0000000000000000e+00 0.0000000000000000e+00 0.0000000000000000e+00  1.9496850758867937e-02 2.6568997853566222e-02 0.0000000000000000e+00 2.6568997853566222e-02 1.1573054083703379e-02 0.0000000000000000e+00 0.0000000000000000e+00 0.0000000000000000e+00 0.0000000000000000e+00  -2.7903282525533984e-01 4.0704171665651719e-02 0.0000000000000000e+00 4.0704171665651719e-02 -2.1700024304467130e-01 0.0000000000000000e+00 0.0000000000000000e+00 0.0000000000000000e+00 0.0000000000000000e+00  -1.8925304975580795e-01 -1.8485183307024905e-01 0.0000000000000000e+00 -1.8485183307024905e-01 -9.5381888025468167e-02 0.0000000000000000e+00 0.0000000000000000e+00 0.0000000000000000e+00 0.0000000000000000e+00  3.8788459110603184e-02 1.1280614840483720e-01 0.0000000000000000e+00 1.1280614840483720e-01 -8.9228526721975135e-02 0.0000000000000000e+00 0.0000000000000000e+00 0.0000000000000000e+00 0.0000000000000000e+00  -7.6256171606442574e-02 1.2287044310634432e-02 0.0000000000000000e+00 1.2287044310634432e-02 -1.2282797921780669e-01 0.0000000000000000e+00 0.0000000000000000e+00 0.0000000000000000e+00 0.0000000000000000e+00  -7.9811178464339369e-02 9.7835460463384632e-04 0.0000000000000000e+00 9.7835460463384632e-04 -9.4812897727797621e-02 0.0000000000000000e+00 0.0000000000000000e+00 0.0000000000000000e+00 0.0000000000000000e+00  -9.1158774316236230e-02 1.0384879099425707e-02 0.0000000000000000e+00 1.0384879099425707e-02 -9.0162643137656623e-02 0.0000000000000000e+00 0.0000000000000000e+00 0.0000000000000000e+00 0.0000000000000000e+00  -9.0067795107161702e-02 8.6484574974886232e-03 0.0000000000000000e+00 8.6484574974886232e-03 -9.0013462415952622e-02 0.0000000000000000e+00 0.0000000000000000e+00 0.0000000000000000e+00 0.0000000000000000e+00  -8.8002072528593156e-02 8.8375819155612940e-03 0.0000000000000000e+00 8.8375819155612940e-03 -9.1820879371274158e-02 0.0000000000000000e+00 0.0000000000000000e+00 0.0000000000000000e+00 0.0000000000000000e+00  -8.7853217676282985e-02 8.1530349199215885e-03 0.0000000000000000e+00 8.1530349199215885e-03 -9.3143322806798032e-02 0.0000000000000000e+00 0.0000000000000000e+00 0.0000000000000000e+00 0.0000000000000000e+00  -8.7020307898969834e-02 6.2928955452617496e-03 0.0000000000000000e+00 6.2928955452617496e-03 -9.4753506877921279e-02 0.0000000000000000e+00 0.0000000000000000e+00 0.0000000000000000e+00 0.0000000000000000e+00  -8.6771940952961021e-02 3.0006050608241837e-03 0.0000000000000000e+00 3.0006050608241837e-03 -9.5132224607513416e-02 0.0000000000000000e+00 0.0000000000000000e+00 0.0000000000000000e+00 0.0000000000000000e+00  -8.8437511813906466e-02 -6.6346493640537349e-04 0.0000000000000000e+00 -6.6346493640537349e-04 -9.2153724217986913e-02 0.0000000000000000e+00 0.0000000000000000e+00 0.0000000000000000e+00 0.0000000000000000e+00  -9.1693979238129608e-02 -2.5786881810515206e-03 0.0000000000000000e+00 -2.5786881810515206e-03 -8.6222726689440227e-02 0.0000000000000000e+00 0.0000000000000000e+00 0.0000000000000000e+00 0.0000000000000000e+00  -9.5204777681264466e-02 -1.7598067470643703e-03 0.0000000000000000e+00 -1.7598067470643703e-03 -7.9735216251605429e-02 0.0000000000000000e+00 0.0000000000000000e+00 0.0000000000000000e+00 0.0000000000000000e+00  -9.7903717951747515e-02 1.2518017064774495e-03 0.0000000000000000e+00 1.2518017064774495e-03 -7.4897433028897495e-02 0.0000000000000000e+00 0.0000000000000000e+00 0.0000000000000000e+00 0.0000000000000000e+00  -9.9397361765651018e-02 5.3259519205040426e-03 0.0000000000000000e+00 5.3259519205040426e-03 -7.2813159259447341e-02 0.0000000000000000e+00 0.0000000000000000e+00 0.0000000000000000e+00 0.0000000000000000e+00  -9.9649771088890379e-02 9.3891469405302744e-03 0.0000000000000000e+00 9.3891469405302744e-03 -7.3767870752038806e-02 0.0000000000000000e+00 0.0000000000000000e+00 0.0000000000000000e+00 0.0000000000000000e+00  -9.8714206263043641e-02 1.2388540293881058e-02 0.0000000000000000e+00 1.2388540293881058e-02 -7.7557924039057230e-02 0.0000000000000000e+00 0.0000000000000000e+00 0.0000000000000000e+00 0.0000000000000000e+00  -9.6929253394835074e-02 1.3181360477438874e-02 0.0000000000000000e+00 1.3181360477438874e-02 -8.3252602162524988e-02 0.0000000000000000e+00 0.0000000000000000e+00 0.0000000000000000e+00 0.0000000000000000e+00  -9.5285015741595466e-02 1.1042981592614798e-02 0.0000000000000000e+00 1.1042981592614798e-02 -8.8818983598580106e-02 0.0000000000000000e+00 0.0000000000000000e+00 0.0000000000000000e+00 0.0000000000000000e+00  -9.5205970408861390e-02 6.6507960971629735e-03 0.0000000000000000e+00 6.6507960971629735e-03 -9.1747843718048380e-02 0.0000000000000000e+00 0.0000000000000000e+00 0.0000000000000000e+00 0.0000000000000000e+00  -9.7368371316212080e-02 2.0721594506798559e-03 0.0000000000000000e+00 2.0721594506798559e-03 -9.1136931550547542e-02 0.0000000000000000e+00 0.0000000000000000e+00 0.0000000000000000e+00 0.0000000000000000e+00  -1.0078573229997688e-01 -1.2524589083882643e-03 0.0000000000000000e+00 -1.2524589083882643e-03 -8.8846770027130442e-02 0.0000000000000000e+00 0.0000000000000000e+00 0.0000000000000000e+00 0.0000000000000000e+00  -1.0400233369510146e-01 -3.4289985259917080e-03 0.0000000000000000e+00 -3.4289985259917080e-03 -8.6943718979384813e-02 0.0000000000000000e+00 0.0000000000000000e+00 0.0000000000000000e+00 0.0000000000000000e+00  -1.0882957175534168e-01 -4.5182578484914337e-03 0.0000000000000000e+00 -4.5182578484914337e-03 -8.5166326915482302e-02 0.0000000000000000e+00 0.0000000000000000e+00 0.0000000000000000e+00 0.0000000000000000e+00  -1.1533090054918251e-01 -6.8691359694455813e-03 0.0000000000000000e+00 -6.8691359694455813e-03 -8.5555898928093344e-02 0.0000000000000000e+00 0.0000000000000000e+00 0.0000000000000000e+00 0.0000000000000000e+00  -1.0977153366494710e-01 -3.5799654276422372e-03 0.0000000000000000e+00 -3.5799654276422372e-03 -9.2681048024023729e-02 0.0000000000000000e+00 0.0000000000000000e+00 0.0000000000000000e+00 0.0000000000000000e+00  -1.0938602340257776e-01 1.4084132911489932e-03 0.0000000000000000e+00 1.4084132911489932e-03 -1.2056349387281841e-01 0.0000000000000000e+00 0.0000000000000000e+00 0.0000000000000000e+00 0.0000000000000000e+00  -3.8252479839807695e-02 -1.0693124734843545e-01 0.0000000000000000e+00 -1.0693124734843545e-01 -1.2830060252819117e-01 0.0000000000000000e+00 0.0000000000000000e+00 0.0000000000000000e+00 0.0000000000000000e+00  -8.0105983562305944e-02 7.3104298646841495e-02 0.0000000000000000e+00 7.3104298646841495e-02 -5.6866346991255819e-02 0.0000000000000000e+00 0.0000000000000000e+00 0.0000000000000000e+00 0.0000000000000000e+00  -4.0152146487402818e-01 7.7796807705570348e-02 0.0000000000000000e+00 7.7796807705570348e-02 -2.8299998794245512e-01 0.0000000000000000e+00 0.0000000000000000e+00 0.0000000000000000e+00 0.0000000000000000e+00  -2.1863936212202353e-02 -7.8302228679529406e-02 0.0000000000000000e+00 -7.8302228679529406e-02 -2.4363611354439794e-02 0.0000000000000000e+00 0.0000000000000000e+00 0.0000000000000000e+00 0.0000000000000000e+00  -1.1327463387683390e-02 -8.6297734084635365e-04 0.0000000000000000e+00 -8.6297734084635365e-04 -5.5235544536658687e-03 0.0000000000000000e+00 0.0000000000000000e+00 0.0000000000000000e+00 0.0000000000000000e+00  3.5803465808086450e-03 -2.7667388252745171e-03 0.0000000000000000e+00 -2.7667388252745171e-03 3.7157435109850230e-03 0.0000000000000000e+00 0.0000000000000000e+00 0.0000000000000000e+00 0.0000000000000000e+00  1.4381076566949678e-03 -1.1945215543037047e-04 0.0000000000000000e+00 -1.1945215543037047e-04 2.0479575866050800e-03 0.0000000000000000e+00 0.0000000000000000e+00 0.0000000000000000e+00 0.0000000000000000e+00  2.6198336629550561e-03 3.4045246789827225e-05 0.0000000000000000e+00 3.4045246789827225e-05 2.6213132758255873e-03 0.0000000000000000e+00 0.0000000000000000e+00 0.0000000000000000e+00 0.0000000000000000e+00  2.3461668567237894e-03 -6.8453607334232889e-05 0.0000000000000000e+00 -6.8453607334232889e-05 2.3355772112626763e-03 0.0000000000000000e+00 0.0000000000000000e+00 0.0000000000000000e+00 0.0000000000000000e+00  2.4063562519415493e-03 -7.7774340664310542e-07 0.0000000000000000e+00 -7.7774340664310542e-07 2.3502849535157752e-03 0.0000000000000000e+00 0.0000000000000000e+00 0.0000000000000000e+00 0.0000000000000000e+00  2.4111954353417870e-03 1.3870097597424444e-06 0.0000000000000000e+00 1.3870097597424444e-06 2.3529966670351741e-03 0.0000000000000000e+00 0.0000000000000000e+00 0.0000000000000000e+00 0.0000000000000000e+00  2.3443928884517348e-03 6.4972053020977678e-05 0.0000000000000000e+00 6.4972053020977678e-05 2.3318867449029115e-03 0.0000000000000000e+00 0.0000000000000000e+00 0.0000000000000000e+00 0.0000000000000000e+00  2.6141122567843816e-03 -5.1547996928394769e-06 0.0000000000000000e+00 -5.1547996928394871e-06 2.5946942011894187e-03 0.0000000000000000e+00 0.0000000000000000e+00 0.0000000000000000e+00 0.0000000000000000e+00  1.4378243121600763e-03 3.2466588506709752e-05 0.0000000000000000e+00 3.2466588506709792e-05 2.1010287093035473e-03 0.0000000000000000e+00 0.0000000000000000e+00 0.0000000000000000e+00 0.0000000000000000e+00  3.6863261035735813e-03 3.0971548641036432e-03 0.0000000000000000e+00 3.0971548641036432e-03 3.8513416110665297e-03 0.0000000000000000e+00 0.0000000000000000e+00 0.0000000000000000e+00 0.0000000000000000e+00  -1.0019790951660952e-02 2.5993189657684887e-04 0.0000000000000000e+00 2.5993189657684887e-04 -5.0273956362490426e-03 0.0000000000000000e+00 0.0000000000000000e+00 0.0000000000000000e+00 0.0000000000000000e+00  -2.2038831703626340e-02 7.9798589050484550e-02 0.0000000000000000e+00 7.9798589050484550e-02 -2.5834953896840370e-02 0.0000000000000000e+00 0.0000000000000000e+00 0.0000000000000000e+00 0.0000000000000000e+00  -4.0487301935035958e-01 -8.0183967170965556e-02 0.0000000000000000e+00 -8.0183967170965556e-02 -2.7688675483870345e-01 0.0000000000000000e+00 0.0000000000000000e+00 0.0000000000000000e+00 0.0000000000000000e+00  -7.7763615513843601e-02 -7.2712953790874696e-02 0.0000000000000000e+00 -7.2712953790874696e-02 -5.4477642420976913e-02 0.0000000000000000e+00 0.0000000000000000e+00 0.0000000000000000e+00 0.0000000000000000e+00  -3.4675544802283742e-02 1.0723089998184564e-01 0.0000000000000000e+00 1.0723089998184564e-01 -1.2707622103682700e-01 0.0000000000000000e+00 0.0000000000000000e+00 0.0000000000000000e+00 0.0000000000000000e+00  -1.0767823848506974e-01 -5.0617362079431966e-04 0.0000000000000000e+00 -5.0617362079431966e-04 -1.1973637939511973e-01 0.0000000000000000e+00 0.0000000000000000e+00 0.0000000000000000e+00 0.0000000000000000e+00  -1.0829743102946962e-01 4.0034180206364135e-03 0.0000000000000000e+00 4.0034180206364135e-03 -9.2248167258756411e-02 0.0000000000000000e+00 0.0000000000000000e+00 0.0000000000000000e+00 0.0000000000000000e+00  -1.1419713668647395e-01 7.2939446620284287e-03 0.0000000000000000e+00 7.2939446620284287e-03 -8.5534867587429286e-02 0.0000000000000000e+00 0.0000000000000000e+00 0.0000000000000000e+00 0.0000000000000000e+00  -1.0794627034709849e-01 4.7826532008996732e-03 0.0000000000000000e+00 4.7826532008996732e-03 -8.5355734270788436e-02 0.0000000000000000e+00 0.0000000000000000e+00 0.0000000000000000e+00 0.0000000000000000e+00  -1.0327874984689236e-01 3.5891261894950787e-03 0.0000000000000000e+00 3.5891261894950787e-03 -8.7226495338151480e-02 0.0000000000000000e+00 0.0000000000000000e+00 0.0000000000000000e+00 0.0000000000000000e+00  -1.0020775573955422e-01 1.3566156574432555e-03 0.0000000000000000e+00 1.3566156574432555e-03 -8.9140870572366707e-02 0.0000000000000000e+00 0.0000000000000000e+00 0.0000000000000000e+00 0.0000000000000000e+00  -9.6894220499644412e-02 -1.9867485351450598e-03 0.0000000000000000e+00 -1.9867485351450598e-03 -9.1412654735397031e-02 0.0000000000000000e+00 0.0000000000000000e+00 0.0000000000000000e+00 0.0000000000000000e+00  -9.4796465599402455e-02 -6.5631500521673748e-03 0.0000000000000000e+00 -6.5631500521673748e-03 -9.2007641900196196e-02 0.0000000000000000e+00 0.0000000000000000e+00 0.0000000000000000e+00 0.0000000000000000e+00  -9.4918245493525316e-02 -1.0951671265485919e-02 0.0000000000000000e+00 -1.0951671265485919e-02 -8.9061728433344353e-02 0.0000000000000000e+00 0.0000000000000000e+00 0.0000000000000000e+00 0.0000000000000000e+00  -9.6599185246731833e-02 -1.3084598300710340e-02 0.0000000000000000e+00 -1.3084598300710340e-02 -8.3464152331227309e-02 0.0000000000000000e+00 0.0000000000000000e+00 0.0000000000000000e+00 0.0000000000000000e+00  -9.8417332953056533e-02 -1.2274269666749344e-02 0.0000000000000000e+00 -1.2274269666749344e-02 -7.7727063390038056e-02 0.0000000000000000e+00 0.0000000000000000e+00 0.0000000000000000e+00 0.0000000000000000e+00  -9.9375607767852633e-02 -9.2423763331034321e-03 0.0000000000000000e+00 -9.2423763331034321e-03 -7.3899098804523944e-02 0.0000000000000000e+00 0.0000000000000000e+00 0.0000000000000000e+00 0.0000000000000000e+00  -9.9128871678293470e-02 -5.1404552542987552e-03 0.0000000000000000e+00 -5.1404552542987552e-03 -7.2924587496139934e-02 0.0000000000000000e+00 0.0000000000000000e+00 0.0000000000000000e+00 0.0000000000000000e+00  -9.7624183520228419e-02 -1.0355682927868657e-03 0.0000000000000000e+00 -1.0355682927868657e-03 -7.5008647195505346e-02 0.0000000000000000e+00 0.0000000000000000e+00 0.0000000000000000e+00 0.0000000000000000e+00  -9.4905282231359411e-02 1.9880288872093045e-03 0.0000000000000000e+00 1.9880288872093045e-03 -7.9854382493472473e-02 0.0000000000000000e+00 0.0000000000000000e+00 0.0000000000000000e+00 0.0000000000000000e+00  -9.1376932204208339e-02 2.7993162089313506e-03 0.0000000000000000e+00 2.7993162089313506e-03 -8.6340430133683199e-02 0.0000000000000000e+00 0.0000000000000000e+00 0.0000000000000000e+00 0.0000000000000000e+00  -8.8113757637699838e-02 8.6721506635456329e-04 0.0000000000000000e+00 8.6721506635456329e-04 -9.2247647891257584e-02 0.0000000000000000e+00 0.0000000000000000e+00 0.0000000000000000e+00 0.0000000000000000e+00  -8.6451684252908459e-02 -2.8084118568397548e-03 0.0000000000000000e+00 -2.8084118568397548e-03 -9.5182041413010191e-02 0.0000000000000000e+00 0.0000000000000000e+00 0.0000000000000000e+00 0.0000000000000000e+00  -8.6703751721313074e-02 -6.1015678205073309e-03 0.0000000000000000e+00 -6.1015678205073309e-03 -9.4755185958793120e-02 0.0000000000000000e+00 0.0000000000000000e+00 0.0000000000000000e+00 0.0000000000000000e+00  -8.7531934513358917e-02 -7.9598385968092152e-03 0.0000000000000000e+00 -7.9598385968092152e-03 -9.3103555841086386e-02 0.0000000000000000e+00 0.0000000000000000e+00 0.0000000000000000e+00 0.0000000000000000e+00  -8.7675295167940495e-02 -8.6434238385166007e-03 0.0000000000000000e+00 -8.6434238385166007e-03 -9.1736750006080156e-02 0.0000000000000000e+00 0.0000000000000000e+00 0.0000000000000000e+00 0.0000000000000000e+00  -8.9746690101013993e-02 -8.4586059360632904e-03 0.0000000000000000e+00 -8.4586059360632904e-03 -8.9879266251558954e-02 0.0000000000000000e+00 0.0000000000000000e+00 0.0000000000000000e+00 0.0000000000000000e+00  -9.0797782577462627e-02 -1.0200531712761550e-02 0.0000000000000000e+00 -1.0200531712761550e-02 -8.9987362472963753e-02 0.0000000000000000e+00 0.0000000000000000e+00 0.0000000000000000e+00 0.0000000000000000e+00  -7.9432915714156713e-02 -7.4889367078203890e-04 0.0000000000000000e+00 -7.4889367078203890e-04 -9.4597947450482486e-02 0.0000000000000000e+00 0.0000000000000000e+00 0.0000000000000000e+00 0.0000000000000000e+00  -7.5891326800942807e-02 -1.2327185031461544e-02 0.0000000000000000e+00 -1.2327185031461544e-02 -1.2265473075015453e-01 0.0000000000000000e+00 0.0000000000000000e+00 0.0000000000000000e+00 0.0000000000000000e+00  3.9490361057483256e-02 -1.1243460553571052e-01 0.0000000000000000e+00 -1.1243460553571052e-01 -8.8787712133269164e-02 0.0000000000000000e+00 0.0000000000000000e+00 0.0000000000000000e+00 0.0000000000000000e+00  -1.9028974876795629e-01 1.8574860448059677e-01 0.0000000000000000e+00 1.8574860448059677e-01 -9.5289259295249895e-02 0.0000000000000000e+00 0.0000000000000000e+00 0.0000000000000000e+00 0.0000000000000000e+00  -2.7851723238677972e-01 -4.1311344458124108e-02 0.0000000000000000e+00 -4.1311344458124108e-02 -2.1652918576405231e-01 0.0000000000000000e+00 0.0000000000000000e+00 0.0000000000000000e+00 0.0000000000000000e+00  1.9308655858473259e-02 -2.6519392619211386e-02 0.0000000000000000e+00 -2.6519392619211386e-02 1.1229321815576142e-02 0.0000000000000000e+00 0.0000000000000000e+00 0.0000000000000000e+00 0.0000000000000000e+00  -6.5769958262345924e-03 -8.5706547622604861e-03 0.0000000000000000e+00 -8.5706547622604861e-03 -6.3549752035092517e-03 0.0000000000000000e+00 0.0000000000000000e+00 0.0000000000000000e+00 0.0000000000000000e+00  1.0420819011305548e-02 1.5162741162409111e-04 0.0000000000000000e+00 1.5162741162409079e-04 1.0309248098808807e-02 0.0000000000000000e+00 0.0000000000000000e+00 0.0000000000000000e+00 0.0000000000000000e+00  6.7053201489608904e-03 -5.4185398450319188e-04 0.0000000000000000e+00 -5.4185398450319188e-04 6.8583714938119066e-03 0.0000000000000000e+00 0.0000000000000000e+00 0.0000000000000000e+00 0.0000000000000000e+00  7.9324791243083545e-03 1.8400797146540329e-04 0.0000000000000000e+00 1.8400797146540335e-04 7.8760651599650931e-03 0.0000000000000000e+00 0.0000000000000000e+00 0.0000000000000000e+00 0.0000000000000000e+00  7.6312483843491699e-03 -6.2330084996225737e-05 0.0000000000000000e+00 -6.2330084996225737e-05 7.6265393914424010e-03 0.0000000000000000e+00 0.0000000000000000e+00 0.0000000000000000e+00 0.0000000000000000e+00  7.7080123287877602e-03 1.5867437518232610e-05 0.0000000000000000e+00 1.5867437518232610e-05 7.7117334454077004e-03 0.0000000000000000e+00 0.0000000000000000e+00 0.0000000000000000e+00 0.0000000000000000e+00  7.6915005328226094e-03 -6.6949337960147098e-06 0.0000000000000000e+00 -6.6949337960147098e-06 7.7026197221862248e-03 0.0000000000000000e+00 0.0000000000000000e+00 0.0000000000000000e+00 0.0000000000000000e+00  7.6926586392165978e-03 -6.8589852787788723e-06 0.0000000000000000e+00 -6.8589852787788723e-06 7.7103515695776609e-03 0.0000000000000000e+00 0.0000000000000000e+00 0.0000000000000000e+00 0.0000000000000000e+00  7.6923270972831213e-03 -1.3691280175143466e-05 0.0000000000000000e+00 -1.3691280175143466e-05 7.7107297541051598e-03 0.0000000000000000e+00 0.0000000000000000e+00 0.0000000000000000e+00 0.0000000000000000e+00  7.6931706760332485e-03 -2.0590376260759529e-05 0.0000000000000000e+00 -2.0590376260759529e-05 7.7081886456359392e-03 0.0000000000000000e+00 0.0000000000000000e+00 0.0000000000000000e+00 0.0000000000000000e+00  7.6953506178228147e-03 -2.8550141534260626e-05 0.0000000000000000e+00 -2.8550141534260626e-05 7.7016744419049548e-03 0.0000000000000000e+00 0.0000000000000000e+00 0.0000000000000000e+00 0.0000000000000000e+00  7.6691323491147028e-03 3.4452820083845452e-05 0.0000000000000000e+00 3.4452820083845452e-05 7.6754352057029455e-03 0.0000000000000000e+00 0.0000000000000000e+00 0.0000000000000000e+00 0.0000000000000000e+00  7.6672259721493130e-03 2.3757667008073909e-05 0.0000000000000000e+00 2.3757667008073909e-05 7.6813788493033264e-03 0.0000000000000000e+00 0.0000000000000000e+00 0.0000000000000000e+00 0.0000000000000000e+00  7.6666271914580539e-03 1.3869949737933794e-05 0.0000000000000000e+00 1.3869949737933794e-05 7.6826235785504415e-03 0.0000000000000000e+00 0.0000000000000000e+00 0.0000000000000000e+00 0.0000000000000000e+00  7.6685317707721181e-03 6.6848621594303179e-06 0.0000000000000000e+00 6.6848621594303179e-06 7.6791568537627241e-03 0.0000000000000000e+00 0.0000000000000000e+00 0.0000000000000000e+00 0.0000000000000000e+00  7.6712060922709364e-03 -9.7969716343796154e-06 0.0000000000000000e+00 -9.7969716343796154e-06 7.6761202425376183e-03 0.0000000000000000e+00 0.0000000000000000e+00 0.0000000000000000e+00 0.0000000000000000e+00  7.6551350090635758e-03 3.9899353722880602e-05 0.0000000000000000e+00 3.9899353722880602e-05 7.6332687484041289e-03 0.0000000000000000e+00 0.0000000000000000e+00 0.0000000000000000e+00 0.0000000000000000e+00  7.8200382534048471e-03 -1.9682372928253453e-04 0.0000000000000000e+00 -1.9682372928253453e-04 7.8123410341697638e-03 0.0000000000000000e+00 0.0000000000000000e+00 0.0000000000000000e+00 0.0000000000000000e+00  6.8280861165157360e-03 7.6688798263306460e-04 0.0000000000000000e+00 7.6688798263306460e-04 6.9956753671938932e-03 0.0000000000000000e+00 0.0000000000000000e+00 0.0000000000000000e+00 0.0000000000000000e+00  1.0466477726626434e-02 -1.3859621392766468e-03 0.0000000000000000e+00 -1.3859621392766468e-03 1.0583748346126715e-02 0.0000000000000000e+00 0.0000000000000000e+00 0.0000000000000000e+00 0.0000000000000000e+00  -9.2113995673906018e-03 1.0154136317011586e-02 0.0000000000000000e+00 1.0154136317011586e-02 -2.5454882039757064e-03 0.0000000000000000e+00 0.0000000000000000e+00 0.0000000000000000e+00 0.0000000000000000e+00  1.1538772273526506e-02 2.5471391839836804e-02 0.0000000000000000e+00 2.5471391839836804e-02 2.0834354338162393e-02 0.0000000000000000e+00 0.0000000000000000e+00 0.0000000000000000e+00 0.0000000000000000e+00  -2.6766009833473314e-01 9.7793028407200666e-03 0.0000000000000000e+00 9.7793028407200666e-03 -2.7161757097596889e-01 0.0000000000000000e+00 0.0000000000000000e+00 0.0000000000000000e+00 0.0000000000000000e+00  -8.6470485402800570e-02 -1.3663638312453599e-01 0.0000000000000000e+00 -1.3663638312453599e-01 -7.6148064199382040e-02 0.0000000000000000e+00 0.0000000000000000e+00 0.0000000000000000e+00 0.0000000000000000e+00  -1.0314511478131798e-02 1.2848497141748216e-01 0.0000000000000000e+00 1.2848497141748216e-01 -7.1551613655356006e-02 0.0000000000000000e+00 0.0000000000000000e+00 0.0000000000000000e+00 0.0000000000000000e+00  -7.8599035059802716e-02 -1.0868309857396561e-02 0.0000000000000000e+00 -1.0868309857396561e-02 -1.0261654394725009e-01 0.0000000000000000e+00 0.0000000000000000e+00 0.0000000000000000e+00 0.0000000000000000e+00  -8.7860550904108603e-02 5.5344687062677100e-03 0.0000000000000000e+00 5.5344687062677100e-03 -9.2308035398205202e-02 0.0000000000000000e+00 0.0000000000000000e+00 0.0000000000000000e+00 0.0000000000000000e+00  -9.2904156801489474e-02 7.7056883305501086e-03 0.0000000000000000e+00 7.7056883305501086e-03 -9.0486281297390309e-02 0.0000000000000000e+00 0.0000000000000000e+00 0.0000000000000000e+00 0.0000000000000000e+00  -8.9554596606395073e-02 7.1834788182917816e-03 0.0000000000000000e+00 7.1834788182917816e-03 -9.0555926568334610e-02 0.0000000000000000e+00 0.0000000000000000e+00 0.0000000000000000e+00 0.0000000000000000e+00  -8.9807871768904507e-02 7.8660976309333809e-03 0.0000000000000000e+00 7.8660976309333809e-03 -9.0328737034105350e-02 0.0000000000000000e+00 0.0000000000000000e+00 0.0000000000000000e+00 0.0000000000000000e+00  -8.9051495659298208e-02 7.8399858523286649e-03 0.0000000000000000e+00 7.8399858523286649e-03 -9.0979068770481314e-02 0.0000000000000000e+00 0.0000000000000000e+00 0.0000000000000000e+00 0.0000000000000000e+00  -8.8095675028131967e-02 7.2101007432563684e-03 0.0000000000000000e+00 7.2101007432563684e-03 -9.2148172169672027e-02 0.0000000000000000e+00 0.0000000000000000e+00 0.0000000000000000e+00 0.0000000000000000e+00  -8.7633486785885784e-02 5.7584330049187801e-03 0.0000000000000000e+00 5.7584330049187801e-03 -9.2793060189661200e-02 0.0000000000000000e+00 0.0000000000000000e+00 0.0000000000000000e+00 0.0000000000000000e+00  -8.7845767724565191e-02 3.6373056023973008e-03 0.0000000000000000e+00 3.6373056023973008e-03 -9.2286929369966464e-02 0.0000000000000000e+00 0.0000000000000000e+00 0.0000000000000000e+00 0.0000000000000000e+00  -8.9163743981710300e-02 1.5493638620951221e-03 0.0000000000000000e+00 1.5493638620951221e-03 -8.9968211885829055e-02 0.0000000000000000e+00 0.0000000000000000e+00 0.0000000000000000e+00 0.0000000000000000e+00  -9.1460463562158062e-02 5.1229648042153445e-04 0.0000000000000000e+00 5.1229648042153445e-04 -8.6066802895535782e-02 0.0000000000000000e+00 0.0000000000000000e+00 0.0000000000000000e+00 0.0000000000000000e+00  -9.4057761687662528e-02 1.1233062136114032e-03 0.0000000000000000e+00 1.1233062136114032e-03 -8.1749532638594150e-02 0.0000000000000000e+00 0.0000000000000000e+00 0.0000000000000000e+00 0.0000000000000000e+00  -9.6229040478125263e-02 3.2287617364083268e-03 0.0000000000000000e+00 3.2287617364083268e-03 -7.8341650785249711e-02 0.0000000000000000e+00 0.0000000000000000e+00 0.0000000000000000e+00 0.0000000000000000e+00  -9.7535713569490076e-02 6.1674394650860307e-03 0.0000000000000000e+00 6.1674394650860307e-03 -7.6722852494367347e-02 0.0000000000000000e+00 0.0000000000000000e+00 0.0000000000000000e+00 0.0000000000000000e+00  -9.7848100379678685e-02 9.1027392203632800e-03 0.0000000000000000e+00 9.1027392203632800e-03 -7.7202173016778869e-02 0.0000000000000000e+00 0.0000000000000000e+00 0.0000000000000000e+00 0.0000000000000000e+00  -9.7294873520908889e-02 1.1189620056084220e-02 0.0000000000000000e+00 1.1189620056084220e-02 -7.9554939870276883e-02 0.0000000000000000e+00 0.0000000000000000e+00 0.0000000000000000e+00 0.0000000000000000e+00  -9.6303739526452728e-02 1.1719542006371543e-02 0.0000000000000000e+00 1.1719542006371543e-02 -8.2994567599238345e-02 0.0000000000000000e+00 0.0000000000000000e+00 0.0000000000000000e+00 0.0000000000000000e+00  -9.5617706394955509e-02 1.0428284256601665e-02 0.0000000000000000e+00 1.0428284256601665e-02 -8.6242280702023388e-02 0.0000000000000000e+00 0.0000000000000000e+00 0.0000000000000000e+00 0.0000000000000000e+00  -9.6026020651448746e-02 7.7966172030786438e-03 0.0000000000000000e+00 7.7966172030786438e-03 -8.8043448860625748e-02 0.0000000000000000e+00 0.0000000000000000e+00 0.0000000000000000e+00 0.0000000000000000e+00  -9.7853715973986038e-02 4.8499305339969375e-03 0.0000000000000000e+00 4.8499305339969375e-03 -8.7991196152477982e-02 0.0000000000000000e+00 0.0000000000000000e+00 0.0000000000000000e+00 0.0000000000000000e+00  -1.0080307627889036e-01 2.4376073514173137e-03 0.0000000000000000e+00 2.4376073514173137e-03 -8.6720997856735635e-02 0.0000000000000000e+00 0.0000000000000000e+00 0.0000000000000000e+00 0.0000000000000000e+00  -1.0466220817154233e-01 8.5602404450283332e-04 0.0000000000000000e+00 8.5602404450283332e-04 -8.5064667735491456e-02 0.0000000000000000e+00 0.0000000000000000e+00 0.0000000000000000e+00 0.0000000000000000e+00  -1.0908270572876258e-01 -3.4403509711469033e-07 0.0000000000000000e+00 -3.4403509711469033e-07 -8.4172404439437049e-02 0.0000000000000000e+00 0.0000000000000000e+00 0.0000000000000000e+00 0.0000000000000000e+00  -1.1269168763718154e-01 -2.8330880724562171e-04 0.0000000000000000e+00 -2.8330880724562171e-04 -8.5420280764397644e-02 0.0000000000000000e+00 0.0000000000000000e+00 0.0000000000000000e+00 0.0000000000000000e+00  -1.1938418889392143e-01 -8.7615106200075081e-04 0.0000000000000000e+00 -8.7615106200075081e-04 -8.7916454261344409e-02 0.0000000000000000e+00 0.0000000000000000e+00 0.0000000000000000e+00 0.0000000000000000e+00  -1.2294616720650847e-01 -4.8238489347709303e-03 0.0000000000000000e+00 -4.8238489347709303e-03 -9.4464056302721297e-02 0.0000000000000000e+00 0.0000000000000000e+00 0.0000000000000000e+00 0.0000000000000000e+00  -1.1760007902732657e-01 1.4727971417623546e-02 0.0000000000000000e+00 1.4727971417623546e-02 -1.0595184087620303e-01 0.0000000000000000e+00 0.0000000000000000e+00 0.0000000000000000e+00 0.0000000000000000e+00  -9.5182450033430011e-02 -9.8921729398100997e-02 0.0000000000000000e+00 -9.8921729398100997e-02 -1.1024697524984137e-01 0.0000000000000000e+00 0.0000000000000000e+00 0.0000000000000000e+00 0.0000000000000000e+00  -4.8913747486086796e-02 2.7746477870222001e-02 0.0000000000000000e+00 2.7746477870222001e-02 -3.6673672612875761e-02 0.0000000000000000e+00 0.0000000000000000e+00 0.0000000000000000e+00 0.0000000000000000e+00  -3.3029654572821282e-01 9.0205238581508432e-02 0.0000000000000000e+00 9.0205238581508432e-02 -3.8730700461535389e-01 0.0000000000000000e+00 0.0000000000000000e+00 0.0000000000000000e+00 0.0000000000000000e+00  -2.2982820105582853e-02 -6.3226118934509884e-02 0.0000000000000000e+00 -6.3226118934509884e-02 2.6200492906621690e-03 0.0000000000000000e+00 0.0000000000000000e+00 0.0000000000000000e+00 0.0000000000000000e+00  -1.9474776911302994e-02 -6.4189873428928245e-03 0.0000000000000000e+00 -6.4189873428928245e-03 -2.7185705568631507e-03 0.0000000000000000e+00 0.0000000000000000e+00 0.0000000000000000e+00 0.0000000000000000e+00  4.3551538218768188e-03 4.9109346193462842e-04 0.0000000000000000e+00 4.9109346193462842e-04 4.9262874734692990e-03 0.0000000000000000e+00 0.0000000000000000e+00 0.0000000000000000e+00 0.0000000000000000e+00  1.7288175519927661e-03 -6.7379773883037802e-04 0.0000000000000000e+00 -6.7379773883037802e-04 2.0271072515089597e-03 0.0000000000000000e+00 0.0000000000000000e+00 0.0000000000000000e+00 0.0000000000000000e+00  2.3987683633709500e-03 8.9833959032289989e-05 0.0000000000000000e+00 8.9833959032289989e-05 2.4531590739598395e-03 0.0000000000000000e+00 0.0000000000000000e+00 0.0000000000000000e+00 0.0000000000000000e+00  2.3704261804494047e-03 -4.8160060917131060e-05 0.0000000000000000e+00 -4.8160060917131060e-05 2.3064918685088225e-03 0.0000000000000000e+00 0.0000000000000000e+00 0.0000000000000000e+00 0.0000000000000000e+00  2.3647517896782048e-03 4.4891511863318205e-05 0.0000000000000000e+00 4.4891511863318205e-05 2.3000793332158534e-03 0.0000000000000000e+00 0.0000000000000000e+00 0.0000000000000000e+00 0.0000000000000000e+00  2.4405367343862320e-03 -8.5513769219280441e-05 0.0000000000000000e+00 -8.5513769219280441e-05 2.4736263305788976e-03 0.0000000000000000e+00 0.0000000000000000e+00 0.0000000000000000e+00 0.0000000000000000e+00  1.6316566431006129e-03 6.4835355662418116e-04 0.0000000000000000e+00 6.4835355662418116e-04 2.0330785388311371e-03 0.0000000000000000e+00 0.0000000000000000e+00 0.0000000000000000e+00 0.0000000000000000e+00  4.6354507142038091e-03 -2.2341798550367848e-04 0.0000000000000000e+00 -2.2341798550367848e-04 5.2306850162538434e-03 0.0000000000000000e+00 0.0000000000000000e+00 0.0000000000000000e+00 0.0000000000000000e+00  -1.8906112244280317e-02 5.5739700299428669e-03 0.0000000000000000e+00 5.5739700299428669e-03 -1.9847287260718245e-03 0.0000000000000000e+00 0.0000000000000000e+00 0.0000000000000000e+00 0.0000000000000000e+00  -2.5672207107942768e-02 6.7756600351227339e-02 0.0000000000000000e+00 6.7756600351227339e-02 -9.6381358404956099e-04 0.0000000000000000e+00 0.0000000000000000e+00 0.0000000000000000e+00 0.0000000000000000e+00  -3.3875299397991643e-01 -9.8322861847799342e-02 0.0000000000000000e+00 -9.8322861847799342e-02 -3.8449189084165486e-01 0.0000000000000000e+00 0.0000000000000000e+00 0.0000000000000000e+00 0.0000000000000000e+00  -4.5121614342929196e-02 -2.4098592593779559e-02 0.0000000000000000e+00 -2.4098592593779559e-02 -3.3225742284892182e-02 0.0000000000000000e+00 0.0000000000000000e+00 0.0000000000000000e+00 0.0000000000000000e+00  -9.3511725889580649e-02 9.8533329655474858e-02 0.0000000000000000e+00 9.8533329655474858e-02 -1.0956170511372058e-01 0.0000000000000000e+00 0.0000000000000000e+00 0.0000000000000000e+00 0.0000000000000000e+00  -1.1696259289815672e-01 -1.3880002554096139e-02 0.0000000000000000e+00 -1.3880002554096139e-02 -1.0448242068336737e-01 0.0000000000000000e+00 0.0000000000000000e+00 0.0000000000000000e+00 0.0000000000000000e+00  -1.2242802522512365e-01 5.5281529130582693e-03 0.0000000000000000e+00 5.5281529130582693e-03 -9.3370423515044931e-02 0.0000000000000000e+00 0.0000000000000000e+00 0.0000000000000000e+00 0.0000000000000000e+00  -1.1896518888506923e-01 1.5790602035025759e-03 0.0000000000000000e+00 1.5790602035025759e-03 -8.7350907356331539e-02 0.0000000000000000e+00 0.0000000000000000e+00 0.0000000000000000e+00 0.0000000000000000e+00  -1.1226691125202236e-01 8.2043637672477140e-04 0.0000000000000000e+00 8.2043637672477140e-04 -8.5240759251881085e-02 0.0000000000000000e+00 0.0000000000000000e+00 0.0000000000000000e+00 0.0000000000000000e+00  -1.0869811569896935e-01 3.9257520732704284e-04 0.0000000000000000e+00 3.9257520732704284e-04 -8.4234141148503000e-02 0.0000000000000000e+00 0.0000000000000000e+00 0.0000000000000000e+00 0.0000000000000000e+00  -1.0432991762610505e-01 -5.8625381411897190e-04 0.0000000000000000e+00 -5.8625381411897190e-04 -8.5249369377094139e-02 0.0000000000000000e+00 0.0000000000000000e+00 0.0000000000000000e+00 0.0000000000000000e+00  -1.0051529386409172e-01 -2.2490924611621062e-03 0.0000000000000000e+00 -2.2490924611621062e-03 -8.6961627239299788e-02 0.0000000000000000e+00 0.0000000000000000e+00 0.0000000000000000e+00 0.0000000000000000e+00  -9.7603741224129126e-02 -4.7064038493723924e-03 0.0000000000000000e+00 -4.7064038493723924e-03 -8.8247550401357192e-02 0.0000000000000000e+00 0.0000000000000000e+00 0.0000000000000000e+00 0.0000000000000000e+00  -9.5801249230691554e-02 -7.6732950641156044e-03 0.0000000000000000e+00 -7.6732950641156044e-03 -8.8297676680333920e-02 0.0000000000000000e+00 0.0000000000000000e+00 0.0000000000000000e+00 0.0000000000000000e+00  -9.5408827584822539e-02 -1.0311585837721403e-02 0.0000000000000000e+00 -1.0311585837721403e-02 -8.6484009034289488e-02 0.0000000000000000e+00 0.0000000000000000e+00 0.0000000000000000e+00 0.0000000000000000e+00  -9.6106812537830072e-02 -1.1600233763551538e-02 0.0000000000000000e+00 -1.1600233763551538e-02 -8.3213704638110800e-02 0.0000000000000000e+00 0.0000000000000000e+00 0.0000000000000000e+00 0.0000000000000000e+00  -9.7107190508847113e-02 -1.1057838152646380e-02 0.0000000000000000e+00 -1.1057838152646380e-02 -7.9744776966121519e-02 0.0000000000000000e+00 0.0000000000000000e+00 0.0000000000000000e+00 0.0000000000000000e+00  -9.7663944938481864e-02 -8.9495635538745979e-03 0.0000000000000000e+00 -8.9495635538745979e-03 -7.7363826223374912e-02 0.0000000000000000e+00 0.0000000000000000e+00 0.0000000000000000e+00 0.0000000000000000e+00  -9.7346205120283025e-02 -5.9894816625829525e-03 0.0000000000000000e+00 -5.9894816625829525e-03 -7.6864283074809789e-02 0.0000000000000000e+00 0.0000000000000000e+00 0.0000000000000000e+00 0.0000000000000000e+00  -9.6025534762916753e-02 -3.0305925706655252e-03 0.0000000000000000e+00 -3.0305925706655252e-03 -7.8471724929870423e-02 0.0000000000000000e+00 0.0000000000000000e+00 0.0000000000000000e+00 0.0000000000000000e+00  -9.3835887783318889e-02 -9.1545020642082677e-04 0.0000000000000000e+00 -9.1545020642082667e-04 -8.1871374388278170e-02 0.0000000000000000e+00 0.0000000000000000e+00 0.0000000000000000e+00 0.0000000000000000e+00  -9.1221958313370710e-02 -3.0581071892907225e-04 0.0000000000000000e+00 -3.0581071892907225e-04 -8.6174715954615538e-02 0.0000000000000000e+00 0.0000000000000000e+00 0.0000000000000000e+00 0.0000000000000000e+00  -8.8914621692475757e-02 -1.3502789905057374e-03 0.0000000000000000e+00 -1.3502789905057374e-03 -9.0050360050946285e-02 0.0000000000000000e+00 0.0000000000000000e+00 0.0000000000000000e+00 0.0000000000000000e+00  -8.7591689475990081e-02 -3.4449444622218681e-03 0.0000000000000000e+00 -3.4449444622218681e-03 -9.2332271240835470e-02 0.0000000000000000e+00 0.0000000000000000e+00 0.0000000000000000e+00 0.0000000000000000e+00  -8.7376064478723134e-02 -5.5690761252745425e-03 0.0000000000000000e+00 -5.5690761252745425e-03 -9.2796481903548014e-02 0.0000000000000000e+00 0.0000000000000000e+00 0.0000000000000000e+00 0.0000000000000000e+00  -8.7833903962028073e-02 -7.0215446228916742e-03 0.0000000000000000e+00 -7.0215446228916742e-03 -9.2108239058321953e-02 0.0000000000000000e+00 0.0000000000000000e+00 0.0000000000000000e+00 0.0000000000000000e+00  -8.8785026643767403e-02 -7.6521934061738765e-03 0.0000000000000000e+00 -7.6521934061738765e-03 -9.0894157683603052e-02 0.0000000000000000e+00 0.0000000000000000e+00 0.0000000000000000e+00 0.0000000000000000e+00  -8.9531686647340319e-02 -7.6799293625779740e-03 0.0000000000000000e+00 -7.6799293625779740e-03 -9.0198893170980024e-02 0.0000000000000000e+00 0.0000000000000000e+00 0.0000000000000000e+00 0.0000000000000000e+00  -8.9277586492443106e-02 -6.9973448757973955e-03 0.0000000000000000e+00 -6.9973448757973955e-03 -9.0370292601873750e-02 0.0000000000000000e+00 0.0000000000000000e+00 0.0000000000000000e+00 0.0000000000000000e+00  -9.2637414895530484e-02 -7.5300148323029529e-03 0.0000000000000000e+00 -7.5300148323029529e-03 -9.0238277923477578e-02 0.0000000000000000e+00 0.0000000000000000e+00 0.0000000000000000e+00 0.0000000000000000e+00  -8.7558568850259727e-02 -5.2911368060158514e-03 0.0000000000000000e+00 -5.2911368060158514e-03 -9.1995308475049720e-02 0.0000000000000000e+00 0.0000000000000000e+00 0.0000000000000000e+00 0.0000000000000000e+00  -7.8342762798698035e-02 1.1019509714864560e-02 0.0000000000000000e+00 1.1019509714864560e-02 -1.0234451623514265e-01 0.0000000000000000e+00 0.0000000000000000e+00 0.0000000000000000e+00 0.0000000000000000e+00  -9.7914093622068193e-03 -1.2824722415991385e-01 0.0000000000000000e+00 -1.2824722415991385e-01 -7.1200814490064365e-02 0.0000000000000000e+00 0.0000000000000000e+00 0.0000000000000000e+00 0.0000000000000000e+00  -8.6907049391437535e-02 1.3751630513656893e-01 0.0000000000000000e+00 1.3751630513656893e-01 -7.6308461746095277e-02 0.0000000000000000e+00 0.0000000000000000e+00 0.0000000000000000e+00 0.0000000000000000e+00  -2.6745136743171677e-01 -1.0250773511432791e-02 0.0000000000000000e+00 -1.0250773511432791e-02 -2.7116013770554992e-01 0.0000000000000000e+00 0.0000000000000000e+00 0.0000000000000000e+00 0.0000000000000000e+00  1.1210706214109040e-02 -2.5465211765644261e-02 0.0000000000000000e+00 -2.5465211765644261e-02 2.0456527252691047e-02 0.0000000000000000e+00 0.0000000000000000e+00 0.0000000000000000e+00 0.0000000000000000e+00  -9.6290019566328024e-03 -1.0217430479111906e-02 0.0000000000000000e+00 -1.0217430479111906e-02 -2.9240094891472002e-03 0.0000000000000000e+00 0.0000000000000000e+00 0.0000000000000000e+00 0.0000000000000000e+00  1.0405933508532984e-02 1.3725132850586413e-03 0.0000000000000000e+00 1.3725132850586413e-03 1.0490172125323400e-02 0.0000000000000000e+00 0.0000000000000000e+00 0.0000000000000000e+00 0.0000000000000000e+00  6.9357803657273181e-03 -7.4971526509192321e-04 0.0000000000000000e+00 -7.4971526509192321e-04 7.0644831647211108e-03 0.0000000000000000e+00 0.0000000000000000e+00 0.0000000000000000e+00 0.0000000000000000e+00  7.8151392958117748e-03 2.1343440574774376e-04 0.0000000000000000e+00 2.1343440574774376e-04 7.8138761027175194e-03 0.0000000000000000e+00 0.0000000000000000e+00 0.0000000000000000e+00 0.0000000000000000e+00  7.6830980062508993e-03 -5.4995276530473214e-05 0.0000000000000000e+00 -5.4995276530473214e-05 7.6721998371085034e-03 0.0000000000000000e+00 0.0000000000000000e+00 0.0000000000000000e+00 0.0000000000000000e+00  7.7056342217176723e-03 7.0351974613589031e-06 0.0000000000000000e+00 7.0351974613589031e-06 7.7154047291630046e-03 0.0000000000000000e+00 0.0000000000000000e+00 0.0000000000000000e+00 0.0000000000000000e+00  7.7038399908427885e-03 -7.9645627505846490e-06 0.0000000000000000e+00 -7.9645627505846490e-06 7.7150003437154576e-03 0.0000000000000000e+00 0.0000000000000000e+00 0.0000000000000000e+00 0.0000000000000000e+00  7.7022089078279772e-03 -1.3493856288100699e-05 0.0000000000000000e+00 -1.3493856288100699e-05 7.7179756789919375e-03 0.0000000000000000e+00 0.0000000000000000e+00 0.0000000000000000e+00 0.0000000000000000e+00  7.7029876993201102e-03 -2.1949020031034698e-05 0.0000000000000000e+00 -2.1949020031034698e-05 7.7163802309160243e-03 0.0000000000000000e+00 0.0000000000000000e+00 0.0000000000000000e+00 0.0000000000000000e+00  7.7047962374978303e-03 -3.1245096566984935e-05 0.0000000000000000e+00 -3.1245096566984935e-05 7.7106774448780866e-03 0.0000000000000000e+00 0.0000000000000000e+00 0.0000000000000000e+00 0.0000000000000000e+00  7.6812680733115458e-03 3.7095735171694412e-05 0.0000000000000000e+00 3.7095735171694412e-05 7.6872975626197954e-03 0.0000000000000000e+00 0.0000000000000000e+00 0.0000000000000000e+00 0.0000000000000000e+00  7.6794447035358048e-03 2.4859730791761412e-05 0.0000000000000000e+00 2.4859730791761412e-05 7.6923708326005844e-03 0.0000000000000000e+00 0.0000000000000000e+00 0.0000000000000000e+00 0.0000000000000000e+00  7.6798985018716225e-03 1.3296934575260460e-05 0.0000000000000000e+00 1.3296934575260460e-05 7.6929585641466233e-03 0.0000000000000000e+00 0.0000000000000000e+00 0.0000000000000000e+00 0.0000000000000000e+00  7.6776426426337311e-03 3.0786682583858063e-06 0.0000000000000000e+00 3.0786682583858063e-06 7.6868368064321518e-03 0.0000000000000000e+00 0.0000000000000000e+00 0.0000000000000000e+00 0.0000000000000000e+00  7.6941493768044808e-03 6.4265396257740512e-06 0.0000000000000000e+00 6.4265396257740512e-06 7.6793532238031252e-03 0.0000000000000000e+00 0.0000000000000000e+00 0.0000000000000000e+00 0.0000000000000000e+00  7.6697835474080073e-03 -1.0445925242161281e-04 0.0000000000000000e+00 -1.0445925242161281e-04 7.7060512019016172e-03 0.0000000000000000e+00 0.0000000000000000e+00 0.0000000000000000e+00 0.0000000000000000e+00  7.4629460812608720e-03 5.8282734692559140e-04 0.0000000000000000e+00 5.8282734692559140e-04 7.3778028800052632e-03 0.0000000000000000e+00 0.0000000000000000e+00 0.0000000000000000e+00 0.0000000000000000e+00  9.0062950730308237e-03 -2.1073095774949428e-03 0.0000000000000000e+00 -2.1073095774949428e-03 9.8762976846670687e-03 0.0000000000000000e+00 0.0000000000000000e+00 0.0000000000000000e+00 0.0000000000000000e+00  -6.8078056154641416e-03 1.2345323063500668e-02 0.0000000000000000e+00 1.2345323063500668e-02 8.9920796213748531e-04 0.0000000000000000e+00 0.0000000000000000e+00 0.0000000000000000e+00 0.0000000000000000e+00  1.2096953211586511e-02 4.8811183559541414e-03 0.0000000000000000e+00 4.8811183559541414e-03 3.7815822001817337e-02 0.0000000000000000e+00 0.0000000000000000e+00 0.0000000000000000e+00 0.0000000000000000e+00  -2.1017812361594851e-01 4.6624872346819335e-02 0.0000000000000000e+00 4.6624872346819335e-02 -2.7609625757700978e-01 0.0000000000000000e+00 0.0000000000000000e+00 0.0000000000000000e+00 0.0000000000000000e+00  -7.6786440089697844e-02 -1.3952235918313335e-01 0.0000000000000000e+00 -1.3952235918313335e-01 -9.1558688465148613e-02 0.0000000000000000e+00 0.0000000000000000e+00 0.0000000000000000e+00 0.0000000000000000e+00  -4.4783548591491994e-02 1.3012689671024505e-01 0.0000000000000000e+00 1.3012689671024505e-01 -4.2819114485301575e-02 0.0000000000000000e+00 0.0000000000000000e+00 0.0000000000000000e+00 0.0000000000000000e+00  -8.2294720409013714e-02 -1.4694363422276884e-02 0.0000000000000000e+00 -1.4694363422276884e-02 -9.1150167246688202e-02 0.0000000000000000e+00 0.0000000000000000e+00 0.0000000000000000e+00 0.0000000000000000e+00  -9.0054571900976738e-02 1.0103813836462635e-02 0.0000000000000000e+00 1.0103813836462635e-02 -9.3871619125229899e-02 0.0000000000000000e+00 0.0000000000000000e+00 0.0000000000000000e+00 0.0000000000000000e+00  -9.0821432577681660e-02 5.8611377323045753e-03 0.0000000000000000e+00 5.8611377323045753e-03 -9.2752594585512577e-02 0.0000000000000000e+00 0.0000000000000000e+00 0.0000000000000000e+00 0.0000000000000000e+00  -9.0023118878484548e-02 6.2067562245019352e-03 0.0000000000000000e+00 6.2067562245019352e-03 -9.1577986293619656e-02 0.0000000000000000e+00 0.0000000000000000e+00 0.0000000000000000e+00 0.0000000000000000e+00  -9.0420980197654682e-02 6.7075631763736905e-03 0.0000000000000000e+00 6.7075631763736905e-03 -9.0545141737752619e-02 0.0000000000000000e+00 0.0000000000000000e+00 0.0000000000000000e+00 0.0000000000000000e+00  -8.9492362900933320e-02 6.9910333158160459e-03 0.0000000000000000e+00 6.9910333158160459e-03 -9.0698834123216179e-02 0.0000000000000000e+00 0.0000000000000000e+00 0.0000000000000000e+00 0.0000000000000000e+00  -8.8903541348589854e-02 6.9810068989087102e-03 0.0000000000000000e+00 6.9810068989087102e-03 -9.1030356327429340e-02 0.0000000000000000e+00 0.0000000000000000e+00 0.0000000000000000e+00 0.0000000000000000e+00  -8.8349873527358500e-02 6.5124078108459282e-03 0.0000000000000000e+00 6.5124078108459282e-03 -9.1436529624613710e-02 0.0000000000000000e+00 0.0000000000000000e+00 0.0000000000000000e+00 0.0000000000000000e+00  -8.8074102133854165e-02 5.5455764427840481e-03 0.0000000000000000e+00 5.5455764427840481e-03 -9.1518498490047923e-02 0.0000000000000000e+00 0.0000000000000000e+00 0.0000000000000000e+00 0.0000000000000000e+00  -8.8381861114252114e-02 4.2693210610601920e-03 0.0000000000000000e+00 4.2693210610601920e-03 -9.0768665380785596e-02 0.0000000000000000e+00 0.0000000000000000e+00 0.0000000000000000e+00 0.0000000000000000e+00  -8.9411468416387752e-02 3.1337079230153776e-03 0.0000000000000000e+00 3.1337079230153776e-03 -8.8943773734842663e-02 0.0000000000000000e+00 0.0000000000000000e+00 0.0000000000000000e+00 0.0000000000000000e+00  -9.1048476181703725e-02 2.6855644758792714e-03 0.0000000000000000e+00 2.6855644758792714e-03 -8.6240921251518221e-02 0.0000000000000000e+00 0.0000000000000000e+00 0.0000000000000000e+00 0.0000000000000000e+00  -9.2906371647351202e-02 3.2619427015670318e-03 0.0000000000000000e+00 3.2619427015670318e-03 -8.3302621791792014e-02 0.0000000000000000e+00 0.0000000000000000e+00 0.0000000000000000e+00 0.0000000000000000e+00  -9.4525056429299037e-02 4.8065925218232931e-03 0.0000000000000000e+00 4.8065925218232931e-03 -8.0910305051401579e-02 0.0000000000000000e+00 0.0000000000000000e+00 0.0000000000000000e+00 0.0000000000000000e+00  -9.5571571475701431e-02 6.9218078484868679e-03 0.0000000000000000e+00 6.9218078484868679e-03 -7.9654662135189541e-02 0.0000000000000000e+00 0.0000000000000000e+00 0.0000000000000000e+00 0.0000000000000000e+00  -9.5930687102041445e-02 9.0343078141518103e-03 0.0000000000000000e+00 9.0343078141518103e-03 -7.9766655445998508e-02 0.0000000000000000e+00 0.0000000000000000e+00 0.0000000000000000e+00 0.0000000000000000e+00  -9.5721783398611676e-02 1.0559363279033913e-02 0.0000000000000000e+00 1.0559363279033913e-02 -8.1077501593563139e-02 0.0000000000000000e+00 0.0000000000000000e+00 0.0000000000000000e+00 0.0000000000000000e+00  -9.5289740424644317e-02 1.1062205300612620e-02 0.0000000000000000e+00 1.1062205300612620e-02 -8.3047896547810640e-02 0.0000000000000000e+00 0.0000000000000000e+00 0.0000000000000000e+00 0.0000000000000000e+00  -9.5134464793012158e-02 1.0429866958144579e-02 0.0000000000000000e+00 1.0429866958144579e-02 -8.4911618421513374e-02 0.0000000000000000e+00 0.0000000000000000e+00 0.0000000000000000e+00 0.0000000000000000e+00  -9.5728178632929706e-02 8.9580566435873161e-03 0.0000000000000000e+00 8.9580566435873161e-03 -8.5988564560360289e-02 0.0000000000000000e+00 0.0000000000000000e+00 0.0000000000000000e+00 0.0000000000000000e+00  -9.7298672483672868e-02 7.2132442694282199e-03 0.0000000000000000e+00 7.2132442694282199e-03 -8.6030796648222913e-02 0.0000000000000000e+00 0.0000000000000000e+00 0.0000000000000000e+00 0.0000000000000000e+00  -9.9795912664843306e-02 5.7260600928260384e-03 0.0000000000000000e+00 5.7260600928260384e-03 -8.5300955612568147e-02 0.0000000000000000e+00 0.0000000000000000e+00 0.0000000000000000e+00 0.0000000000000000e+00  -1.0299385766759532e-01 4.7795217197067657e-03 0.0000000000000000e+00 4.7795217197067657e-03 -8.4419643017855178e-02 0.0000000000000000e+00 0.0000000000000000e+00 0.0000000000000000e+00 0.0000000000000000e+00  -1.0659730476792276e-01 4.3732605834866265e-03 0.0000000000000000e+00 4.3732605834866265e-03 -8.4113294364012464e-02 0.0000000000000000e+00 0.0000000000000000e+00 0.0000000000000000e+00 0.0000000000000000e+00  -1.1091748274542627e-01 4.3177380760764097e-03 0.0000000000000000e+00 4.3177380760764097e-03 -8.4767881274934301e-02 0.0000000000000000e+00 0.0000000000000000e+00 0.0000000000000000e+00 0.0000000000000000e+00  -1.1490421449630218e-01 4.0819032234478475e-03 0.0000000000000000e+00 4.0819032234478475e-03 -8.7712795581446540e-02 0.0000000000000000e+00 0.0000000000000000e+00 0.0000000000000000e+00 0.0000000000000000e+00  -1.1952751737824795e-01 3.9618297997050262e-03 0.0000000000000000e+00 3.9618297997050262e-03 -9.2435250794698123e-02 0.0000000000000000e+00 0.0000000000000000e+00 0.0000000000000000e+00 0.0000000000000000e+00  -1.2707374709028546e-01 -3.4730085205749422e-03 0.0000000000000000e+00 -3.4730085205749422e-03 -9.9769821289909077e-02 0.0000000000000000e+00 0.0000000000000000e+00 0.0000000000000000e+00 0.0000000000000000e+00  -1.2699773965273814e-01 1.8391563497865759e-02 0.0000000000000000e+00 1.8391563497865759e-02 -1.0282315456493087e-01 0.0000000000000000e+00 0.0000000000000000e+00 0.0000000000000000e+00 0.0000000000000000e+00  -1.3423467336538222e-01 -9.2403863956918270e-02 0.0000000000000000e+00 -9.2403863956918270e-02 -9.0209670220848026e-02 0.0000000000000000e+00 0.0000000000000000e+00 0.0000000000000000e+00 0.0000000000000000e+00  -7.9271018053276243e-02 5.5263275972608550e-02 0.0000000000000000e+00 5.5263275972608550e-02 -6.5568587491539973e-02 0.0000000000000000e+00 0.0000000000000000e+00 0.0000000000000000e+00 0.0000000000000000e+00  -2.0819397713820378e-01 -5.5138749651514199e-03 0.0000000000000000e+00 -5.5138749651514199e-03 -3.8880349246941132e-01 0.0000000000000000e+00 0.0000000000000000e+00 0.0000000000000000e+00 0.0000000000000000e+00  -3.2717177195568676e-03 -1.0159043282291984e-02 0.0000000000000000e+00 -1.0159043282291984e-02 4.5716216041707114e-02 0.0000000000000000e+00 0.0000000000000000e+00 0.0000000000000000e+00 0.0000000000000000e+00  -1.3475334017272749e-02 -1.1693639103163813e-02 0.0000000000000000e+00 -1.1693639103163813e-02 -1.7252297910549848e-03 0.0000000000000000e+00 0.0000000000000000e+00 0.0000000000000000e+00 0.0000000000000000e+00  2.3621987991882271e-03 1.5374467585033485e-03 0.0000000000000000e+00 1.5374467585033485e-03 3.9424009784847416e-03 0.0000000000000000e+00 0.0000000000000000e+00 0.0000000000000000e+00 0.0000000000000000e+00  2.4617069936765834e-03 -4.0248215115130720e-04 0.0000000000000000e+00 -4.0248215115130720e-04 2.3942154392481421e-03 0.0000000000000000e+00 0.0000000000000000e+00 0.0000000000000000e+00 0.0000000000000000e+00  2.2628253343359881e-03 -2.2067193888350114e-06 0.0000000000000000e+00 -2.2067193888350114e-06 2.2378613948073824e-03 0.0000000000000000e+00 0.0000000000000000e+00 0.0000000000000000e+00 0.0000000000000000e+00  2.2895694692735276e-03 -3.0281944080824897e-06 0.0000000000000000e+00 -3.0281944080824897e-06 2.2716477269204885e-03 0.0000000000000000e+00 0.0000000000000000e+00 0.0000000000000000e+00 0.0000000000000000e+00  2.3354069767681312e-03 4.0292503797863607e-04 0.0000000000000000e+00 4.0292503797863607e-04 2.3067869750529168e-03 0.0000000000000000e+00 0.0000000000000000e+00 0.0000000000000000e+00 0.0000000000000000e+00  2.6143492914381316e-03 -1.5843395145069910e-03 0.0000000000000000e+00 -1.5843395145069910e-03 4.2642057539215650e-03 0.0000000000000000e+00 0.0000000000000000e+00 0.0000000000000000e+00 0.0000000000000000e+00  -1.3933255240481396e-02 1.1519651691006286e-02 0.0000000000000000e+00 1.1519651691006286e-02 -1.2685357438549151e-03 0.0000000000000000e+00 0.0000000000000000e+00 0.0000000000000000e+00 0.0000000000000000e+00  -4.2313244904357127e-03 1.4452155681646187e-02 0.0000000000000000e+00 1.4452155681646187e-02 4.5114029954538885e-02 0.0000000000000000e+00 0.0000000000000000e+00 0.0000000000000000e+00 0.0000000000000000e+00  -2.1571077426956639e-01 -7.0717142561436139e-03 0.0000000000000000e+00 -7.0717142561436139e-03 -3.9874874501559715e-01 0.0000000000000000e+00 0.0000000000000000e+00 0.0000000000000000e+00 0.0000000000000000e+00  -7.7948548095327530e-02 -4.8355336015932386e-02 0.0000000000000000e+00 -4.8355336015932386e-02 -5.6886412013777192e-02 0.0000000000000000e+00 0.0000000000000000e+00 0.0000000000000000e+00 0.0000000000000000e+00  -1.3539061338497793e-01 9.0222367126898725e-02 0.0000000000000000e+00 9.0222367126898725e-02 -9.1114159635295219e-02 0.0000000000000000e+00 0.0000000000000000e+00 0.0000000000000000e+00 0.0000000000000000e+00  -1.2848119809180034e-01 -1.7893483949353556e-02 0.0000000000000000e+00 -1.7893483949353556e-02 -1.0124496032730963e-01 0.0000000000000000e+00 0.0000000000000000e+00 0.0000000000000000e+00 0.0000000000000000e+00  -1.2842377474057792e-01 3.9737609666910230e-03 0.0000000000000000e+00 3.9737609666910230e-03 -9.8217024646540668e-02 0.0000000000000000e+00 0.0000000000000000e+00 0.0000000000000000e+00 0.0000000000000000e+00  -1.2046205119966685e-01 -3.3611984944675317e-03 0.0000000000000000e+00 -3.3611984944675317e-03 -9.1355907718716087e-02 0.0000000000000000e+00 0.0000000000000000e+00 0.0000000000000000e+00 0.0000000000000000e+00  -1.1552156957674309e-01 -3.5305862775089777e-03 0.0000000000000000e+00 -3.5305862775089777e-03 -8.7050731793723579e-02 0.0000000000000000e+00 0.0000000000000000e+00 0.0000000000000000e+00 0.0000000000000000e+00  -1.1130874807869599e-01 -3.8563987655020502e-03 0.0000000000000000e+00 -3.8563987655020502e-03 -8.4450793450996903e-02 0.0000000000000000e+00 0.0000000000000000e+00 0.0000000000000000e+00 0.0000000000000000e+00  -1.0682627017348864e-01 -4.0219098512553871e-03 0.0000000000000000e+00 -4.0219098512553871e-03 -8.4044816175796816e-02 0.0000000000000000e+00 0.0000000000000000e+00 0.0000000000000000e+00 0.0000000000000000e+00  -1.0311994729872968e-01 -4.5242815312099794e-03 0.0000000000000000e+00 -4.5242815312099794e-03 -8.4509128473583980e-02 0.0000000000000000e+00 0.0000000000000000e+00 0.0000000000000000e+00 0.0000000000000000e+00  -9.9857882510708540e-02 -5.5411455192673712e-03 0.0000000000000000e+00 -5.5411455192673712e-03 -8.5479339974009166e-02 0.0000000000000000e+00 0.0000000000000000e+00 0.0000000000000000e+00 0.0000000000000000e+00  -9.7317998922652929e-02 -7.0717793509263108e-03 0.0000000000000000e+00 -7.0717793509263108e-03 -8.6253644837119212e-02 0.0000000000000000e+00 0.0000000000000000e+00 0.0000000000000000e+00 0.0000000000000000e+00  -9.5717027509223535e-02 -8.8386174187142369e-03 0.0000000000000000e+00 -8.8386174187142369e-03 -8.6228044207308743e-02 0.0000000000000000e+00 0.0000000000000000e+00 0.0000000000000000e+00 0.0000000000000000e+00  -9.5099877890907569e-02 -1.0317613563519271e-02 0.0000000000000000e+00 -1.0317613563519271e-02 -8.5150130718926187e-02 0.0000000000000000e+00 0.0000000000000000e+00 0.0000000000000000e+00 0.0000000000000000e+00  -9.5236716193227988e-02 -1.0946730309717946e-02 0.0000000000000000e+00 -1.0946730309717947e-02 -8.3273349348343309e-02 0.0000000000000000e+00 0.0000000000000000e+00 0.0000000000000000e+00 0.0000000000000000e+00  -9.5653275173368649e-02 -1.0432582643984965e-02 0.0000000000000000e+00 -1.0432582643984969e-02 -8.1282542742405928e-02 0.0000000000000000e+00 0.0000000000000000e+00 0.0000000000000000e+00 0.0000000000000000e+00  -9.5846821203516577e-02 -8.8905786957317063e-03 0.0000000000000000e+00 -8.8905786957317063e-03 -7.9949164425861655e-02 0.0000000000000000e+00 0.0000000000000000e+00 0.0000000000000000e+00 0.0000000000000000e+00  -9.5470128610014707e-02 -6.7594191992577822e-03 0.0000000000000000e+00 -6.7594191992577822e-03 -7.9816588865546975e-02 0.0000000000000000e+00 0.0000000000000000e+00 0.0000000000000000e+00 0.0000000000000000e+00  -9.4403442432853424e-02 -4.6284904776595108e-03 0.0000000000000000e+00 -4.6284904776595108e-03 -8.1054489262617213e-02 0.0000000000000000e+00 0.0000000000000000e+00 0.0000000000000000e+00 0.0000000000000000e+00  -9.2763849283032843e-02 -3.0744371126712523e-03 0.0000000000000000e+00 -3.0744371126712523e-03 -8.3429341965098491e-02 0.0000000000000000e+00 0.0000000000000000e+00 0.0000000000000000e+00 0.0000000000000000e+00  -9.0887187589634516e-02 -2.4954353557577399e-03 0.0000000000000000e+00 -2.4954353557577399e-03 -8.6346282822164375e-02 0.0000000000000000e+00 0.0000000000000000e+00 0.0000000000000000e+00 0.0000000000000000e+00  -8.9235564156574632e-02 -2.9453913386360856e-03 0.0000000000000000e+00 -2.9453913386360856e-03 -8.9020903372228344e-02 0.0000000000000000e+00 0.0000000000000000e+00 0.0000000000000000e+00 0.0000000000000000e+00  -8.8195407520426150e-02 -4.0839674279708402e-03 0.0000000000000000e+00 -4.0839674279708402e-03 -9.0810696674992433e-02 0.0000000000000000e+00 0.0000000000000000e+00 0.0000000000000000e+00 0.0000000000000000e+00  -8.7879550964065273e-02 -5.3623321209672423e-03 0.0000000000000000e+00 -5.3623321209672423e-03 -9.1520799483585741e-02 0.0000000000000000e+00 0.0000000000000000e+00 0.0000000000000000e+00 0.0000000000000000e+00  -8.8148228917002303e-02 -6.3302533951147093e-03 0.0000000000000000e+00 -6.3302533951147093e-03 -9.1396616473318620e-02 0.0000000000000000e+00 0.0000000000000000e+00 0.0000000000000000e+00 0.0000000000000000e+00  -8.8694960493457251e-02 -6.7994611718328029e-03 0.0000000000000000e+00 -6.7994611718328029e-03 -9.0946634055097911e-02 0.0000000000000000e+00 0.0000000000000000e+00 0.0000000000000000e+00 0.0000000000000000e+00  -8.9278857980552337e-02 -6.8093966445729607e-03 0.0000000000000000e+00 -6.8093966445729607e-03 -9.0567773177036237e-02 0.0000000000000000e+00 0.0000000000000000e+00 0.0000000000000000e+00 0.0000000000000000e+00  -9.0204325980616631e-02 -6.5240696126322691e-03 0.0000000000000000e+00 -6.5240696126322691e-03 -9.0363862805786330e-02 0.0000000000000000e+00 0.0000000000000000e+00 0.0000000000000000e+00 0.0000000000000000e+00  -8.9801564392347918e-02 -6.0130695419107205e-03 0.0000000000000000e+00 -6.0130695419107205e-03 -9.1344373853556274e-02 0.0000000000000000e+00 0.0000000000000000e+00 0.0000000000000000e+00 0.0000000000000000e+00  -9.0612139462780739e-02 -5.6571941420744684e-03 0.0000000000000000e+00 -5.6571941420744684e-03 -9.2466021034672843e-02 0.0000000000000000e+00 0.0000000000000000e+00 0.0000000000000000e+00 0.0000000000000000e+00  -8.9821392460679564e-02 -9.8411896468390755e-03 0.0000000000000000e+00 -9.8411896468390755e-03 -9.3543036336288771e-02 0.0000000000000000e+00 0.0000000000000000e+00 0.0000000000000000e+00 0.0000000000000000e+00  -8.2055264026699340e-02 1.4949540925440593e-02 0.0000000000000000e+00 1.4949540925440593e-02 -9.0864650010149386e-02 0.0000000000000000e+00 0.0000000000000000e+00 0.0000000000000000e+00 0.0000000000000000e+00  -4.4359514347988800e-02 -1.2992700332978560e-01 0.0000000000000000e+00 -1.2992700332978560e-01 -4.2518023862655650e-02 0.0000000000000000e+00 0.0000000000000000e+00 0.0000000000000000e+00 0.0000000000000000e+00  -7.6905467822207030e-02 1.4020146668041158e-01 0.0000000000000000e+00 1.4020146668041158e-01 -9.1710110864221192e-02 0.0000000000000000e+00 0.0000000000000000e+00 0.0000000000000000e+00 0.0000000000000000e+00  -2.1015915027696466e-01 -4.6894543904305738e-02 0.0000000000000000e+00 -4.6894543904305738e-02 -2.7579349607994963e-01 0.0000000000000000e+00 0.0000000000000000e+00 0.0000000000000000e+00 0.0000000000000000e+00  1.1567408794103513e-02 -4.9312330870874927e-03 0.0000000000000000e+00 -4.9312330870874927e-03 3.7360924428024862e-02 0.0000000000000000e+00 0.0000000000000000e+00 0.0000000000000000e+00 0.0000000000000000e+00  -7.2266191718226716e-03 -1.2387172797347263e-02 0.0000000000000000e+00 -1.2387172797347263e-02 5.6494488025270911e-04 0.0000000000000000e+00 0.0000000000000000e+00 0.0000000000000000e+00 0.0000000000000000e+00  9.0671529256217426e-03 2.0713557723315420e-03 0.0000000000000000e+00 2.0713557723315420e-03 9.8927559126360982e-03 0.0000000000000000e+00 0.0000000000000000e+00 0.0000000000000000e+00 0.0000000000000000e+00  7.5682968875213450e-03 -5.6278674812699873e-04 0.0000000000000000e+00 -5.6278674812699873e-04 7.4921407359730737e-03 0.0000000000000000e+00 0.0000000000000000e+00 0.0000000000000000e+00 0.0000000000000000e+00  7.6990260897447709e-03 1.0039884660320258e-04 0.0000000000000000e+00 1.0039884660320258e-04 7.7274185002230728e-03 0.0000000000000000e+00 0.0000000000000000e+00 0.0000000000000000e+00 0.0000000000000000e+00  7.7260394056003750e-03 -1.5964531442939391e-05 0.0000000000000000e+00 -1.5964531442939391e-05 7.7145338051085527e-03 0.0000000000000000e+00 0.0000000000000000e+00 0.0000000000000000e+00 0.0000000000000000e+00  7.7121930609039390e-03 -4.7358060655446785e-06 0.0000000000000000e+00 -4.7358060655446785e-06 7.7217150591594513e-03 0.0000000000000000e+00 0.0000000000000000e+00 0.0000000000000000e+00 0.0000000000000000e+00  7.7146326861359813e-03 -1.2984596274029158e-05 0.0000000000000000e+00 -1.2984596274029158e-05 7.7266920135053013e-03 0.0000000000000000e+00 0.0000000000000000e+00 0.0000000000000000e+00 0.0000000000000000e+00  7.7139266341484207e-03 -2.2968407016624873e-05 0.0000000000000000e+00 -2.2968407016624873e-05 7.7258736341278365e-03 0.0000000000000000e+00 0.0000000000000000e+00 0.0000000000000000e+00 0.0000000000000000e+00  7.7155786294284528e-03 -3.3699543581433524e-05 0.0000000000000000e+00 -3.3699543581433524e-05 7.7211132383996281e-03 0.0000000000000000e+00 0.0000000000000000e+00 0.0000000000000000e+00 0.0000000000000000e+00  7.6951179769200583e-03 3.9596036554994253e-05 0.0000000000000000e+00 3.9596036554994253e-05 7.7008270685600616e-03 0.0000000000000000e+00 0.0000000000000000e+00 0.0000000000000000e+00 0.0000000000000000e+00  7.6936748517677190e-03 2.5386911520533743e-05 0.0000000000000000e+00 2.5386911520533743e-05 7.7052166744919813e-03 0.0000000000000000e+00 0.0000000000000000e+00 0.0000000000000000e+00 0.0000000000000000e+00  7.6931519672658660e-03 1.3871483324962579e-05 0.0000000000000000e+00 1.3871483324962579e-05 7.7031477401600327e-03 0.0000000000000000e+00 0.0000000000000000e+00 0.0000000000000000e+00 0.0000000000000000e+00  7.7017866812834467e-03 -3.4603538098693315e-06 0.0000000000000000e+00 -3.4603538098693315e-06 7.7036523550047288e-03 0.0000000000000000e+00 0.0000000000000000e+00 0.0000000000000000e+00 0.0000000000000000e+00  7.6507577072559042e-03 3.3467211387081728e-06 0.0000000000000000e+00 3.3467211387081728e-06 7.6636663419511995e-03 0.0000000000000000e+00 0.0000000000000000e+00 0.0000000000000000e+00 0.0000000000000000e+00  7.8800063567293875e-03 8.3396621611524433e-05 0.0000000000000000e+00 8.3396621611524433e-05 7.7518098513632162e-03 0.0000000000000000e+00 0.0000000000000000e+00 0.0000000000000000e+00 0.0000000000000000e+00  6.9707827819059766e-03 -9.0534991169997263e-04 0.0000000000000000e+00 -9.0534991169997263e-04 8.2058436880009175e-03 0.0000000000000000e+00 0.0000000000000000e+00 0.0000000000000000e+00 0.0000000000000000e+00  3.2587956141719881e-03 8.8742423016627287e-03 0.0000000000000000e+00 8.8742423016627287e-03 6.2983795269144112e-03 0.0000000000000000e+00 0.0000000000000000e+00 0.0000000000000000e+00 0.0000000000000000e+00  3.2794786748439994e-04 -1.3891816994627096e-02 0.0000000000000000e+00 -1.3891816994627096e-02 4.0959091648924500e-02 0.0000000000000000e+00 0.0000000000000000e+00 0.0000000000000000e+00 0.0000000000000000e+00  -1.4078932089588428e-01 1.1978828495228554e-01 0.0000000000000000e+00 1.1978828495228554e-01 -1.8729037032310683e-01 0.0000000000000000e+00 0.0000000000000000e+00 0.0000000000000000e+00 0.0000000000000000e+00  -9.5077598243872671e-02 -1.9165094016185891e-01 0.0000000000000000e+00 -1.9165094016185891e-01 -2.0582520711578894e-01 0.0000000000000000e+00 0.0000000000000000e+00 0.0000000000000000e+00 0.0000000000000000e+00  -7.2531108697135083e-02 1.2742322623832700e-01 0.0000000000000000e+00 1.2742322623832700e-01 -6.9796443214138826e-03 0.0000000000000000e+00 0.0000000000000000e+00 0.0000000000000000e+00 0.0000000000000000e+00  -9.0451800617668304e-02 -1.4922809817253257e-02 0.0000000000000000e+00 -1.4922809817253257e-02 -8.2950469940854532e-02 0.0000000000000000e+00 0.0000000000000000e+00 0.0000000000000000e+00 0.0000000000000000e+00  -9.1247059289105009e-02 1.1824086853851607e-02 0.0000000000000000e+00 1.1824086853851607e-02 -9.3023811389670613e-02 0.0000000000000000e+00 0.0000000000000000e+00 0.0000000000000000e+00 0.0000000000000000e+00  -9.0121599394723639e-02 5.8829111741415686e-03 0.0000000000000000e+00 5.8829111741415686e-03 -9.3139962826895004e-02 0.0000000000000000e+00 0.0000000000000000e+00 0.0000000000000000e+00 0.0000000000000000e+00  -8.9937603227153523e-02 6.1520509371572486e-03 0.0000000000000000e+00 6.1520509371572486e-03 -9.2597151834942687e-02 0.0000000000000000e+00 0.0000000000000000e+00 0.0000000000000000e+00 0.0000000000000000e+00  -8.9952515147174214e-02 5.8926187158175065e-03 0.0000000000000000e+00 5.8926187158175065e-03 -9.1658594462525042e-02 0.0000000000000000e+00 0.0000000000000000e+00 0.0000000000000000e+00 0.0000000000000000e+00  -8.9475854702343427e-02 6.0951038558189541e-03 0.0000000000000000e+00 6.0951038558189541e-03 -9.1233538930454189e-02 0.0000000000000000e+00 0.0000000000000000e+00 0.0000000000000000e+00 0.0000000000000000e+00  -8.9140479495808764e-02 6.3010143140016179e-03 0.0000000000000000e+00 6.3010143140016179e-03 -9.1000896895860023e-02 0.0000000000000000e+00 0.0000000000000000e+00 0.0000000000000000e+00 0.0000000000000000e+00  -8.8648038810024046e-02 6.3142861168392229e-03 0.0000000000000000e+00 6.3142861168392229e-03 -9.1071572500854334e-02 0.0000000000000000e+00 0.0000000000000000e+00 0.0000000000000000e+00 0.0000000000000000e+00  -8.8284401588462014e-02 6.0319755446323481e-03 0.0000000000000000e+00 6.0319755446323472e-03 -9.1111147950529311e-02 0.0000000000000000e+00 0.0000000000000000e+00 0.0000000000000000e+00 0.0000000000000000e+00  -8.8174007908452576e-02 5.4723439613989077e-03 0.0000000000000000e+00 5.4723439613989060e-03 -9.0857126497691301e-02 0.0000000000000000e+00 0.0000000000000000e+00 0.0000000000000000e+00 0.0000000000000000e+00  -8.8468543432716956e-02 4.7864706028733599e-03 0.0000000000000000e+00 4.7864706028733599e-03 -9.0061419579098134e-02 0.0000000000000000e+00 0.0000000000000000e+00 0.0000000000000000e+00 0.0000000000000000e+00  -8.9237122927017437e-02 4.2559448865058525e-03 0.0000000000000000e+00 4.2559448865058525e-03 -8.8616264046277274e-02 0.0000000000000000e+00 0.0000000000000000e+00 0.0000000000000000e+00 0.0000000000000000e+00  -9.0387072772786153e-02 4.1895108413884186e-03 0.0000000000000000e+00 4.1895108413884186e-03 -8.6670254809965985e-02 0.0000000000000000e+00 0.0000000000000000e+00 0.0000000000000000e+00 0.0000000000000000e+00  -9.1681194056968909e-02 4.7740443832782788e-03 0.0000000000000000e+00 4.7740443832782788e-03 -8.4603442653544511e-02 0.0000000000000000e+00 0.0000000000000000e+00 0.0000000000000000e+00 0.0000000000000000e+00  -9.2831815930872780e-02 5.9760313325295886e-03 0.0000000000000000e+00 5.9760313325295886e-03 -8.2881553461339796e-02 0.0000000000000000e+00 0.0000000000000000e+00 0.0000000000000000e+00 0.0000000000000000e+00  -9.3616670747159403e-02 7.5492004073533124e-03 0.0000000000000000e+00 7.5492004073533124e-03 -8.1875494490742426e-02 0.0000000000000000e+00 0.0000000000000000e+00 0.0000000000000000e+00 0.0000000000000000e+00  -9.3955670137214564e-02 9.1220147950223842e-03 0.0000000000000000e+00 9.1220147950223842e-03 -8.1737584987589151e-02 0.0000000000000000e+00 0.0000000000000000e+00 0.0000000000000000e+00 0.0000000000000000e+00  -9.3937376243805076e-02 1.0315128136491006e-02 0.0000000000000000e+00 1.0315128136491009e-02 -8.2358481015211718e-02 0.0000000000000000e+00 0.0000000000000000e+00 0.0000000000000000e+00 0.0000000000000000e+00  -9.3800948769773212e-02 1.0860878123915885e-02 0.0000000000000000e+00 1.0860878123915885e-02 -8.3400426151682069e-02 0.0000000000000000e+00 0.0000000000000000e+00 0.0000000000000000e+00 0.0000000000000000e+00  -9.3868572604512479e-02 1.0700168343993524e-02 0.0000000000000000e+00 1.0700168343993524e-02 -8.4411468739461287e-02 0.0000000000000000e+00 0.0000000000000000e+00 0.0000000000000000e+00 0.0000000000000000e+00  -9.4432529340625446e-02 1.0009110635247781e-02 0.0000000000000000e+00 1.0009110635247781e-02 -8.5007278989635199e-02 0.0000000000000000e+00 0.0000000000000000e+00 0.0000000000000000e+00 0.0000000000000000e+00  -9.5648618764615653e-02 9.1179299018666997e-03 0.0000000000000000e+00 9.1179299018666997e-03 -8.5041269759806040e-02 0.0000000000000000e+00 0.0000000000000000e+00 0.0000000000000000e+00 0.0000000000000000e+00  -9.7500465877920175e-02 8.3600271699807768e-03 0.0000000000000000e+00 8.3600271699807768e-03 -8.4666005856620874e-02 0.0000000000000000e+00 0.0000000000000000e+00 0.0000000000000000e+00 0.0000000000000000e+00  -9.9852675009934194e-02 7.9432327013687649e-03 0.0000000000000000e+00 7.9432327013687649e-03 -8.4257316643616492e-02 0.0000000000000000e+00 0.0000000000000000e+00 0.0000000000000000e+00 0.0000000000000000e+00  -1.0258724458951740e-01 7.9106499750798611e-03 0.0000000000000000e+00 7.9106499750798611e-03 -8.4264889203802276e-02 0.0000000000000000e+00 0.0000000000000000e+00 0.0000000000000000e+00 0.0000000000000000e+00  -1.0546589823445210e-01 8.1248780795750482e-03 0.0000000000000000e+00 8.1248780795750482e-03 -8.5275853593776985e-02 0.0000000000000000e+00 0.0000000000000000e+00 0.0000000000000000e+00 0.0000000000000000e+00  -1.0865768293921284e-01 8.3208891680593266e-03 0.0000000000000000e+00 8.3208891680593266e-03 -8.7524098744155260e-02 0.0000000000000000e+00 0.0000000000000000e+00 0.0000000000000000e+00 0.0000000000000000e+00  -1.1223587838105659e-01 7.7931781354724783e-03 0.0000000000000000e+00 7.7931781354724783e-03 -9.1510641913181576e-02 0.0000000000000000e+00 0.0000000000000000e+00 0.0000000000000000e+00 0.0000000000000000e+00  -1.1603622211107999e-01 7.8158678727111349e-03 0.0000000000000000e+00 7.8158678727111349e-03 -9.6708053535087712e-02 0.0000000000000000e+00 0.0000000000000000e+00 0.0000000000000000e+00 0.0000000000000000e+00  -1.2272543476500704e-01 3.7530458927038615e-04 0.0000000000000000e+00 3.7530458927038615e-04 -1.0562466184151080e-01 0.0000000000000000e+00 0.0000000000000000e+00 0.0000000000000000e+00 0.0000000000000000e+00  -1.3076186321108244e-01 2.1897092535872395e-02 0.0000000000000000e+00 2.1897092535872395e-02 -1.0361637656495164e-01 0.0000000000000000e+00 0.0000000000000000e+00 0.0000000000000000e+00 0.0000000000000000e+00  -1.6140205166920091e-01 -9.3965884486078247e-02 0.0000000000000000e+00 -9.3965884486078247e-02 -5.7321655191060687e-02 0.0000000000000000e+00 0.0000000000000000e+00 0.0000000000000000e+00 0.0000000000000000e+00  -6.8146247922841505e-02 1.4607531003892441e-01 0.0000000000000000e+00 1.4607531003892441e-01 -2.5727126408015466e-01 0.0000000000000000e+00 0.0000000000000000e+00 0.0000000000000000e+00 0.0000000000000000e+00  -1.0566368474345518e-01 -1.3048442309470762e-01 0.0000000000000000e+00 -1.3048442309470762e-01 -1.7921729857922103e-01 0.0000000000000000e+00 0.0000000000000000e+00 0.0000000000000000e+00 0.0000000000000000e+00  -2.0260692970681858e-02 1.5391744575990211e-02 0.0000000000000000e+00 1.5391744575990211e-02 3.8700657595049315e-02 0.0000000000000000e+00 0.0000000000000000e+00 0.0000000000000000e+00 0.0000000000000000e+00  9.2852168469908765e-04 -4.9863385350863570e-03 0.0000000000000000e+00 -4.9863385350863570e-03 3.2702962223591465e-03 0.0000000000000000e+00 0.0000000000000000e+00 0.0000000000000000e+00 0.0000000000000000e+00  1.1099679690914242e-03 -1.3266253489347719e-04 0.0000000000000000e+00 -1.3266253489347719e-04 2.0766296043888939e-03 0.0000000000000000e+00 0.0000000000000000e+00 0.0000000000000000e+00 0.0000000000000000e+00  2.4243725058241514e-03 5.8338965057247144e-05 0.0000000000000000e+00 5.8338965057247144e-05 2.3833170496572304e-03 0.0000000000000000e+00 0.0000000000000000e+00 0.0000000000000000e+00 0.0000000000000000e+00  2.3623717881941443e-03 -3.6729658396929898e-05 0.0000000000000000e+00 -3.6729658396929898e-05 2.3022001089840990e-03 0.0000000000000000e+00 0.0000000000000000e+00 0.0000000000000000e+00 0.0000000000000000e+00  1.1938316721564546e-03 4.7049440094694272e-05 0.0000000000000000e+00 4.7049440094694272e-05 2.2186215112780950e-03 0.0000000000000000e+00 0.0000000000000000e+00 0.0000000000000000e+00 0.0000000000000000e+00  9.7436713047704048e-04 5.2414495157808759e-03 0.0000000000000000e+00 5.2414495157808759e-03 3.6058347758820058e-03 0.0000000000000000e+00 0.0000000000000000e+00 0.0000000000000000e+00 0.0000000000000000e+00  -1.9526003615848931e-02 -1.5686558231918137e-02 0.0000000000000000e+00 -1.5686558231918137e-02 4.2039452353711614e-02 0.0000000000000000e+00 0.0000000000000000e+00 0.0000000000000000e+00 0.0000000000000000e+00  -1.1054850327302515e-01 1.2651396105161028e-01 0.0000000000000000e+00 1.2651396105161028e-01 -1.9558408921656595e-01 0.0000000000000000e+00 0.0000000000000000e+00 0.0000000000000000e+00 0.0000000000000000e+00  -7.2756226383712583e-02 -1.3761801757707212e-01 0.0000000000000000e+00 -1.3761801757707212e-01 -2.3833626718205497e-01 0.0000000000000000e+00 0.0000000000000000e+00 0.0000000000000000e+00 0.0000000000000000e+00  -1.6748286484191649e-01 9.0479619411335796e-02 0.0000000000000000e+00 9.0479619411335796e-02 -6.2290122076389454e-02 0.0000000000000000e+00 0.0000000000000000e+00 0.0000000000000000e+00 0.0000000000000000e+00  -1.3522980064323800e-01 -2.2777705115310458e-02 0.0000000000000000e+00 -2.2777705115310458e-02 -1.0266178595584738e-01 0.0000000000000000e+00 0.0000000000000000e+00 0.0000000000000000e+00 0.0000000000000000e+00  -1.2671340199052050e-01 -8.2856574798174270e-04 0.0000000000000000e+00 -8.2856574798174270e-04 -1.0418134237902774e-01 0.0000000000000000e+00 0.0000000000000000e+00 0.0000000000000000e+00 0.0000000000000000e+00  -1.1899156304132347e-01 -7.9372823156865589e-03 0.0000000000000000e+00 -7.9372823156865589e-03 -9.5393084075952039e-02 0.0000000000000000e+00 0.0000000000000000e+00 0.0000000000000000e+00 0.0000000000000000e+00  -1.1444754087675985e-01 -7.7274719137374551e-03 0.0000000000000000e+00 -7.7274719137374551e-03 -9.0479585664774126e-02 0.0000000000000000e+00 0.0000000000000000e+00 0.0000000000000000e+00 0.0000000000000000e+00  -1.1026414615600563e-01 -8.1681797275719951e-03 0.0000000000000000e+00 -8.1681797275719951e-03 -8.6837589693834413e-02 0.0000000000000000e+00 0.0000000000000000e+00 0.0000000000000000e+00 0.0000000000000000e+00  -1.0661754172721129e-01 -7.9580615225239727e-03 0.0000000000000000e+00 -7.9580615225239727e-03 -8.4895769982741356e-02 0.0000000000000000e+00 0.0000000000000000e+00 0.0000000000000000e+00 0.0000000000000000e+00  -1.0340742748909051e-01 -7.7648971690242380e-03 0.0000000000000000e+00 -7.7648971690242380e-03 -8.4123699481710473e-02 0.0000000000000000e+00 0.0000000000000000e+00 0.0000000000000000e+00 0.0000000000000000e+00  -1.0043510814868330e-01 -7.8290234718653099e-03 0.0000000000000000e+00 -7.8290234718653099e-03 -8.4284893913082956e-02 0.0000000000000000e+00 0.0000000000000000e+00 0.0000000000000000e+00 0.0000000000000000e+00  -9.7914514047250739e-02 -8.2725656575389651e-03 0.0000000000000000e+00 -8.2725656575389651e-03 -8.4802287642497892e-02 0.0000000000000000e+00 0.0000000000000000e+00 0.0000000000000000e+00 0.0000000000000000e+00  -9.5942678185676963e-02 -9.0461625738806166e-03 0.0000000000000000e+00 -9.0461625738806166e-03 -8.5240828744745159e-02 0.0000000000000000e+00 0.0000000000000000e+00 0.0000000000000000e+00 0.0000000000000000e+00  -9.4639279523165351e-02 -9.9416701425666942e-03 0.0000000000000000e+00 -9.9416701425666925e-03 -8.5238291786917192e-02 0.0000000000000000e+00 0.0000000000000000e+00 0.0000000000000000e+00 0.0000000000000000e+00  -9.4010267877185610e-02 -1.0627894041295997e-02 0.0000000000000000e+00 -1.0627894041295997e-02 -8.4652033571505733e-02 0.0000000000000000e+00 0.0000000000000000e+00 0.0000000000000000e+00 0.0000000000000000e+00  -9.3892880290910447e-02 -1.0777063772589539e-02 0.0000000000000000e+00 -1.0777063772589539e-02 -8.3635674032164709e-02 0.0000000000000000e+00 0.0000000000000000e+00 0.0000000000000000e+00 0.0000000000000000e+00  -9.3989787126486216e-02 -1.0215132737758066e-02 0.0000000000000000e+00 -1.0215132737758066e-02 -8.2578972667112907e-02 0.0000000000000000e+00 0.0000000000000000e+00 0.0000000000000000e+00 0.0000000000000000e+00  -9.3974805133688194e-02 -9.0033370324978674e-03 0.0000000000000000e+00 -9.0033370324978674e-03 -8.1938387262975448e-02 0.0000000000000000e+00 0.0000000000000000e+00 0.0000000000000000e+00 0.0000000000000000e+00  -9.3605935831977988e-02 -7.4119433869736760e-03 0.0000000000000000e+00 -7.4119433869736760e-03 -8.2054845746999075e-02 0.0000000000000000e+00 0.0000000000000000e+00 0.0000000000000000e+00 0.0000000000000000e+00  -9.2793314874328306e-02 -5.8229846531200717e-03 0.0000000000000000e+00 -5.8229846531200717e-03 -8.3038874772775675e-02 0.0000000000000000e+00 0.0000000000000000e+00 0.0000000000000000e+00 0.0000000000000000e+00  -9.1617195883103131e-02 -4.6098480366604530e-03 0.0000000000000000e+00 -4.6098480366604530e-03 -8.4737387469160194e-02 0.0000000000000000e+00 0.0000000000000000e+00 0.0000000000000000e+00 0.0000000000000000e+00  -9.0300766649405395e-02 -4.0191002951214597e-03 0.0000000000000000e+00 -4.0191002951214597e-03 -8.6777732184623257e-02 0.0000000000000000e+00 0.0000000000000000e+00 0.0000000000000000e+00 0.0000000000000000e+00  -8.9132385921089560e-02 -4.0830705874459472e-03 0.0000000000000000e+00 -4.0830705874459472e-03 -8.8692832073409181e-02 0.0000000000000000e+00 0.0000000000000000e+00 0.0000000000000000e+00 0.0000000000000000e+00  -8.8349088881277821e-02 -4.6130814801354164e-03 0.0000000000000000e+00 -4.6130814801354164e-03 -9.0102537126241236e-02 0.0000000000000000e+00 0.0000000000000000e+00 0.0000000000000000e+00 0.0000000000000000e+00  -8.8042680044299979e-02 -5.2989611370248286e-03 0.0000000000000000e+00 -5.2989611370248286e-03 -9.0859203026291219e-02 0.0000000000000000e+00 0.0000000000000000e+00 0.0000000000000000e+00 0.0000000000000000e+00  -8.8143088040343195e-02 -5.8584245101849118e-03 0.0000000000000000e+00 -5.8584245101849118e-03 -9.1071717835865720e-02 0.0000000000000000e+00 0.0000000000000000e+00 0.0000000000000000e+00 0.0000000000000000e+00  -8.8498307450317823e-02 -6.1400084841681749e-03 0.0000000000000000e+00 -6.1400084841681749e-03 -9.0988666091119011e-02 0.0000000000000000e+00 0.0000000000000000e+00 0.0000000000000000e+00 0.0000000000000000e+00  -8.8983740460892607e-02 -6.1247388441692339e-03 0.0000000000000000e+00 -6.1247388441692339e-03 -9.0873007253519100e-02 0.0000000000000000e+00 0.0000000000000000e+00 0.0000000000000000e+00 0.0000000000000000e+00  -8.9313340120771467e-02 -5.9140432774659408e-03 0.0000000000000000e+00 -5.9140432774659408e-03 -9.1059474551476519e-02 0.0000000000000000e+00 0.0000000000000000e+00 0.0000000000000000e+00 0.0000000000000000e+00  -8.9786493893534269e-02 -5.7020933578239424e-03 0.0000000000000000e+00 -5.7020933578239424e-03 -9.1438050756531261e-02 0.0000000000000000e+00 0.0000000000000000e+00 0.0000000000000000e+00 0.0000000000000000e+00  -8.9761755893262810e-02 -5.9430249210247260e-03 0.0000000000000000e+00 -5.9430249210247260e-03 -9.2336300323122567e-02 0.0000000000000000e+00 0.0000000000000000e+00 0.0000000000000000e+00 0.0000000000000000e+00  -8.9936164351579750e-02 -5.6552249937844258e-03 0.0000000000000000e+00 -5.6552249937844258e-03 -9.2851401943475825e-02 0.0000000000000000e+00 0.0000000000000000e+00 0.0000000000000000e+00 0.0000000000000000e+00  -9.1031222546780005e-02 -1.1561787619130216e-02 0.0000000000000000e+00 -1.1561787619130216e-02 -9.2715086345704870e-02 0.0000000000000000e+00 0.0000000000000000e+00 0.0000000000000000e+00 0.0000000000000000e+00  -9.0210308407385364e-02 1.5177361389151564e-02 0.0000000000000000e+00 1.5177361389151564e-02 -8.2670195500868654e-02 0.0000000000000000e+00 0.0000000000000000e+00 0.0000000000000000e+00 0.0000000000000000e+00  -7.2142415845958638e-02 -1.2721010157149676e-01 0.0000000000000000e+00 -1.2721010157149676e-01 -6.6762879976361789e-03 0.0000000000000000e+00 0.0000000000000000e+00 0.0000000000000000e+00 0.0000000000000000e+00  -9.5055370215634927e-02 1.9209441729029866e-01 0.0000000000000000e+00 1.9209441729029866e-01 -2.0583362889098922e-01 0.0000000000000000e+00 0.0000000000000000e+00 0.0000000000000000e+00 0.0000000000000000e+00  -1.4099068831421052e-01 -1.1981522419910454e-01 0.0000000000000000e+00 -1.1981522419910454e-01 -1.8737347950536787e-01 0.0000000000000000e+00 0.0000000000000000e+00 0.0000000000000000e+00 0.0000000000000000e+00  -4.0186546852547596e-04 1.3801436385012061e-02 0.0000000000000000e+00 1.3801436385012061e-02 4.0446117788510885e-02 0.0000000000000000e+00 0.0000000000000000e+00 0.0000000000000000e+00 0.0000000000000000e+00  2.8651434826487514e-03 -8.8833738194805962e-03 0.0000000000000000e+00 -8.8833738194805962e-03 5.9931721728020970e-03 0.0000000000000000e+00 0.0000000000000000e+00 0.0000000000000000e+00 0.0000000000000000e+00  7.0864161418108919e-03 9.0296625078584408e-04 0.0000000000000000e+00 9.0296625078584408e-04 8.2498092127317648e-03 0.0000000000000000e+00 0.0000000000000000e+00 0.0000000000000000e+00 0.0000000000000000e+00  7.8903148712301703e-03 -5.5598480449831217e-05 0.0000000000000000e+00 -5.5598480449831217e-05 7.7922160128628230e-03 0.0000000000000000e+00 0.0000000000000000e+00 0.0000000000000000e+00 0.0000000000000000e+00  7.6873826412694798e-03 -9.1396759369609765e-06 0.0000000000000000e+00 -9.1396759369609765e-06 7.6968786969591474e-03 0.0000000000000000e+00 0.0000000000000000e+00 0.0000000000000000e+00 0.0000000000000000e+00  7.7354029196015032e-03 3.0975268870513622e-06 0.0000000000000000e+00 3.0975268870513622e-06 7.7371791747961509e-03 0.0000000000000000e+00 0.0000000000000000e+00 0.0000000000000000e+00 0.0000000000000000e+00  7.7258210874919051e-03 -1.3356590993365549e-05 0.0000000000000000e+00 -1.3356590993365549e-05 7.7352451713297455e-03 0.0000000000000000e+00 0.0000000000000000e+00 0.0000000000000000e+00 0.0000000000000000e+00  7.7263651429453212e-03 -2.3451536755048767e-05 0.0000000000000000e+00 -2.3451536755048767e-05 7.7372751498746058e-03 0.0000000000000000e+00 0.0000000000000000e+00 0.0000000000000000e+00 0.0000000000000000e+00  7.7278136734473439e-03 -3.6010514664610790e-05 0.0000000000000000e+00 -3.6010514664610790e-05 7.7330353986312722e-03 0.0000000000000000e+00 0.0000000000000000e+00 0.0000000000000000e+00 0.0000000000000000e+00  7.7108859629118507e-03 4.1817197545377107e-05 0.0000000000000000e+00 4.1817197545377107e-05 7.7162286774477623e-03 0.0000000000000000e+00 0.0000000000000000e+00 0.0000000000000000e+00 0.0000000000000000e+00  7.7099803996313696e-03 2.6096690969863421e-05 0.0000000000000000e+00 2.6096690969863421e-05 7.7195183739383402e-03 0.0000000000000000e+00 0.0000000000000000e+00 0.0000000000000000e+00 0.0000000000000000e+00  7.7098073514751449e-03 9.4456302729892341e-06 0.0000000000000000e+00 9.4456302729892341e-06 7.7174792880620197e-03 0.0000000000000000e+00 0.0000000000000000e+00 0.0000000000000000e+00 0.0000000000000000e+00  7.7099539958697281e-03 1.5702993396894255e-05 0.0000000000000000e+00 1.5702993396894255e-05 7.6994423885332923e-03 0.0000000000000000e+00 0.0000000000000000e+00 0.0000000000000000e+00 0.0000000000000000e+00  7.7824016253103621e-03 -1.0351116425022614e-04 0.0000000000000000e+00 -1.0351116425022614e-04 7.7882592920184932e-03 0.0000000000000000e+00 0.0000000000000000e+00 0.0000000000000000e+00 0.0000000000000000e+00  6.9566722354474607e-03 4.0077266700169441e-04 0.0000000000000000e+00 4.0077266700169441e-04 7.3657330281744395e-03 0.0000000000000000e+00 0.0000000000000000e+00 0.0000000000000000e+00 0.0000000000000000e+00  9.8360525779783211e-03 8.4753273717909469e-04 0.0000000000000000e+00 8.4753273717909469e-04 1.0528716189871211e-02 0.0000000000000000e+00 0.0000000000000000e+00 0.0000000000000000e+00 0.0000000000000000e+00  -1.8876782440552204e-02 -3.9951487038249129e-03 0.0000000000000000e+00 -3.9951487038249129e-03 2.0422408265590629e-02 0.0000000000000000e+00 0.0000000000000000e+00 0.0000000000000000e+00 0.0000000000000000e+00  -5.6199321042383794e-02 1.1794729810095965e-01 0.0000000000000000e+00 1.1794729810095965e-01 -1.7404304112703779e-02 0.0000000000000000e+00 0.0000000000000000e+00 0.0000000000000000e+00 0.0000000000000000e+00  -6.2199956736833088e-02 -2.3245142761928508e-01 0.0000000000000000e+00 -2.3245142761928508e-01 -4.2816505152107709e-01 0.0000000000000000e+00 0.0000000000000000e+00 0.0000000000000000e+00 0.0000000000000000e+00  -8.8328569271113877e-02 1.0890574737562200e-01 0.0000000000000000e+00 1.0890574737562200e-01 4.4467105897503259e-02 0.0000000000000000e+00 0.0000000000000000e+00 0.0000000000000000e+00 0.0000000000000000e+00  -1.0207893714993570e-01 -1.0582753343662087e-02 0.0000000000000000e+00 -1.0582753343662087e-02 -7.9205405273569035e-02 0.0000000000000000e+00 0.0000000000000000e+00 0.0000000000000000e+00 0.0000000000000000e+00  -9.1572789090895390e-02 9.1510868064269141e-03 0.0000000000000000e+00 9.1510868064269141e-03 -9.1410469581114678e-02 0.0000000000000000e+00 0.0000000000000000e+00 0.0000000000000000e+00 0.0000000000000000e+00  -9.0624701255135984e-02 5.5309836428798723e-03 0.0000000000000000e+00 5.5309836428798723e-03 -9.2280491054721941e-02 0.0000000000000000e+00 0.0000000000000000e+00 0.0000000000000000e+00 0.0000000000000000e+00  -8.9832223024416250e-02 6.1407574414579294e-03 0.0000000000000000e+00 6.1407574414579294e-03 -9.2714324817223720e-02 0.0000000000000000e+00 0.0000000000000000e+00 0.0000000000000000e+00 0.0000000000000000e+00  -8.9376210600503950e-02 5.5620090075936294e-03 0.0000000000000000e+00 5.5620090075936294e-03 -9.2415159151414364e-02 0.0000000000000000e+00 0.0000000000000000e+00 0.0000000000000000e+00 0.0000000000000000e+00  -8.9066769622467915e-02 5.5186364790439507e-03 0.0000000000000000e+00 5.5186364790439507e-03 -9.1978557606056222e-02 0.0000000000000000e+00 0.0000000000000000e+00 0.0000000000000000e+00 0.0000000000000000e+00  -8.8839983468648617e-02 5.6216686557527236e-03 0.0000000000000000e+00 5.6216686557527236e-03 -9.1570613648371865e-02 0.0000000000000000e+00 0.0000000000000000e+00 0.0000000000000000e+00 0.0000000000000000e+00  -8.8513927519964966e-02 5.7619636144379078e-03 0.0000000000000000e+00 5.7619636144379078e-03 -9.1363621411951493e-02 0.0000000000000000e+00 0.0000000000000000e+00 0.0000000000000000e+00 0.0000000000000000e+00  -8.8211753905191079e-02 5.8081003470823690e-03 0.0000000000000000e+00 5.8081003470823690e-03 -9.1226871193587758e-02 0.0000000000000000e+00 0.0000000000000000e+00 0.0000000000000000e+00 0.0000000000000000e+00  -8.7979788822183685e-02 5.6959182149606694e-03 0.0000000000000000e+00 5.6959182149606694e-03 -9.1047336533229745e-02 0.0000000000000000e+00 0.0000000000000000e+00 0.0000000000000000e+00 0.0000000000000000e+00  -8.7939936794797766e-02 5.4433807845237006e-03 0.0000000000000000e+00 5.4433807845237006e-03 -9.0643552794821725e-02 0.0000000000000000e+00 0.0000000000000000e+00 0.0000000000000000e+00 0.0000000000000000e+00  -8.8177883403401519e-02 5.1597879845206767e-03 0.0000000000000000e+00 5.1597879845206767e-03 -8.9879192482104325e-02 0.0000000000000000e+00 0.0000000000000000e+00 0.0000000000000000e+00 0.0000000000000000e+00  -8.8718867827115661e-02 5.0183405243286903e-03 0.0000000000000000e+00 5.0183405243286903e-03 -8.8717584466174990e-02 0.0000000000000000e+00 0.0000000000000000e+00 0.0000000000000000e+00 0.0000000000000000e+00  -8.9495870719257659e-02 5.1960857594448269e-03 0.0000000000000000e+00 5.1960857594448269e-03 -8.7264441871176435e-02 0.0000000000000000e+00 0.0000000000000000e+00 0.0000000000000000e+00 0.0000000000000000e+00  -9.0359211797876024e-02 5.7947934287927369e-03 0.0000000000000000e+00 5.7947934287927369e-03 -8.5752343307542875e-02 0.0000000000000000e+00 0.0000000000000000e+00 0.0000000000000000e+00 0.0000000000000000e+00  -9.1129605441331599e-02 6.7875161094390181e-03 0.0000000000000000e+00 6.7875161094390181e-03 -8.4461814584380610e-02 0.0000000000000000e+00 0.0000000000000000e+00 0.0000000000000000e+00 0.0000000000000000e+00  -9.1665572772698781e-02 8.0184643748926702e-03 0.0000000000000000e+00 8.0184643748926702e-03 -8.3620372408494431e-02 0.0000000000000000e+00 0.0000000000000000e+00 0.0000000000000000e+00 0.0000000000000000e+00  -9.1915321213936363e-02 9.2520401583404323e-03 0.0000000000000000e+00 9.2520401583404323e-03 -8.3324350051026966e-02 0.0000000000000000e+00 0.0000000000000000e+00 0.0000000000000000e+00 0.0000000000000000e+00  -9.1936896725850425e-02 1.0248307143960524e-02 0.0000000000000000e+00 1.0248307143960524e-02 -8.3508885668300184e-02 0.0000000000000000e+00 0.0000000000000000e+00 0.0000000000000000e+00 0.0000000000000000e+00  -9.1882888009835642e-02 1.0840661164062531e-02 0.0000000000000000e+00 1.0840661164062531e-02 -8.3972703276969818e-02 0.0000000000000000e+00 0.0000000000000000e+00 0.0000000000000000e+00 0.0000000000000000e+00  -9.1951720802446998e-02 1.0991652524059181e-02 0.0000000000000000e+00 1.0991652524059181e-02 -8.4453819101732566e-02 0.0000000000000000e+00 0.0000000000000000e+00 0.0000000000000000e+00 0.0000000000000000e+00  -9.2318430474403912e-02 1.0802639604251730e-02 0.0000000000000000e+00 1.0802639604251730e-02 -8.4735487114134644e-02 0.0000000000000000e+00 0.0000000000000000e+00 0.0000000000000000e+00 0.0000000000000000e+00  -9.3073025971583040e-02 1.0467262965069531e-02 0.0000000000000000e+00 1.0467262965069531e-02 -8.4740088372833006e-02 0.0000000000000000e+00 0.0000000000000000e+00 0.0000000000000000e+00 0.0000000000000000e+00  -9.4197096926360926e-02 1.0189392963700385e-02 0.0000000000000000e+00 1.0189392963700385e-02 -8.4566282179141958e-02 0.0000000000000000e+00 0.0000000000000000e+00 0.0000000000000000e+00 0.0000000000000000e+00  -9.5588974620532369e-02 1.0108485413219875e-02 0.0000000000000000e+00 1.0108485413219875e-02 -8.4458928962828736e-02 0.0000000000000000e+00 0.0000000000000000e+00 0.0000000000000000e+00 0.0000000000000000e+00  -9.7089200232268524e-02 1.0255567057609797e-02 0.0000000000000000e+00 1.0255567057609797e-02 -8.4760953700831254e-02 0.0000000000000000e+00 0.0000000000000000e+00 0.0000000000000000e+00 0.0000000000000000e+00  -9.8580714199138469e-02 1.0543211516806809e-02 0.0000000000000000e+00 1.0543211516806809e-02 -8.5796438229558625e-02 0.0000000000000000e+00 0.0000000000000000e+00 0.0000000000000000e+00 0.0000000000000000e+00  -9.9941423693873391e-02 1.0780414983090691e-02 0.0000000000000000e+00 1.0780414983090691e-02 -8.7909003699850802e-02 0.0000000000000000e+00 0.0000000000000000e+00 0.0000000000000000e+00 0.0000000000000000e+00  -1.0116499904448033e-01 1.0782764482935124e-02 0.0000000000000000e+00 1.0782764482935124e-02 -9.1238202512673616e-02 0.0000000000000000e+00 0.0000000000000000e+00 0.0000000000000000e+00 0.0000000000000000e+00  -1.0244285116101993e-01 9.9511657694569440e-03 0.0000000000000000e+00 9.9511657694569440e-03 -9.6087229399532750e-02 0.0000000000000000e+00 0.0000000000000000e+00 0.0000000000000000e+00 0.0000000000000000e+00  -1.0360900004905574e-01 9.6076955511801565e-03 0.0000000000000000e+00 9.6076955511801565e-03 -1.0179624761497226e-01 0.0000000000000000e+00 0.0000000000000000e+00 0.0000000000000000e+00 0.0000000000000000e+00  -1.0533963705482834e-01 3.2230590057951711e-03 0.0000000000000000e+00 3.2230590057951711e-03 -1.1055375795524700e-01 0.0000000000000000e+00 0.0000000000000000e+00 0.0000000000000000e+00 0.0000000000000000e+00  -1.3042173312310179e-01 1.1556902543132500e-02 0.0000000000000000e+00 1.1556902543132500e-02 -1.0767106876471670e-01 0.0000000000000000e+00 0.0000000000000000e+00 0.0000000000000000e+00 0.0000000000000000e+00  -1.5452031770139729e-01 -7.6382146461095327e-02 0.0000000000000000e+00 -7.6382146461095327e-02 1.4587411174263010e-02 0.0000000000000000e+00 0.0000000000000000e+00 0.0000000000000000e+00 0.0000000000000000e+00  5.5685977989807706e-02 1.7798025779744936e-01 0.0000000000000000e+00 1.7798025779744936e-01 -5.4501202128797710e-01 0.0000000000000000e+00 0.0000000000000000e+00 0.0000000000000000e+00 0.0000000000000000e+00  9.9055006997980709e-04 -6.0921352000764019e-02 0.0000000000000000e+00 -6.0921352000764019e-02 6.3181337258057232e-02 0.0000000000000000e+00 0.0000000000000000e+00 0.0000000000000000e+00 0.0000000000000000e+00  -2.3386427595982737e-02 -6.3098524527993444e-03 0.0000000000000000e+00 -6.3098524527993444e-03 5.1324565132042504e-03 0.0000000000000000e+00 0.0000000000000000e+00 0.0000000000000000e+00 0.0000000000000000e+00  3.0464331012119176e-03 1.1964021911266740e-03 0.0000000000000000e+00 1.1964021911266740e-03 4.0506793497570234e-03 0.0000000000000000e+00 0.0000000000000000e+00 0.0000000000000000e+00 0.0000000000000000e+00  1.8471172359734245e-03 -6.1361735746783940e-04 0.0000000000000000e+00 -6.1361735746783940e-04 1.9314256896687308e-03 0.0000000000000000e+00 0.0000000000000000e+00 0.0000000000000000e+00 0.0000000000000000e+00  1.9939741678862322e-03 5.3443992410062431e-04 0.0000000000000000e+00 5.3443992410062431e-04 2.0439687144279315e-03 0.0000000000000000e+00 0.0000000000000000e+00 0.0000000000000000e+00 0.0000000000000000e+00  2.8885340317905198e-03 -1.1080421615530921e-03 0.0000000000000000e+00 -1.1080421615530921e-03 4.1780441746970993e-03 0.0000000000000000e+00 0.0000000000000000e+00 0.0000000000000000e+00 0.0000000000000000e+00  -2.3270849320580753e-02 5.8595406503424274e-03 0.0000000000000000e+00 5.8595406503424274e-03 6.4911505558352019e-03 0.0000000000000000e+00 0.0000000000000000e+00 0.0000000000000000e+00 0.0000000000000000e+00  4.4061285977646379e-04 6.3302632575899007e-02 0.0000000000000000e+00 6.3302632575899007e-02 6.5757687400010534e-02 0.0000000000000000e+00 0.0000000000000000e+00 0.0000000000000000e+00 0.0000000000000000e+00  6.2372484955231754e-02 -1.7886720830357153e-01 0.0000000000000000e+00 -1.7886720830357153e-01 -5.4154387826287786e-01 0.0000000000000000e+00 0.0000000000000000e+00 0.0000000000000000e+00 0.0000000000000000e+00  -1.6795792664797884e-01 7.0581971638187788e-02 0.0000000000000000e+00 7.0581971638187788e-02 5.0803993681126595e-03 0.0000000000000000e+00 0.0000000000000000e+00 0.0000000000000000e+00 0.0000000000000000e+00  -1.3859371091679698e-01 -1.6045963651329764e-02 0.0000000000000000e+00 -1.6045963651329764e-02 -1.0827834384716709e-01 0.0000000000000000e+00 0.0000000000000000e+00 0.0000000000000000e+00 0.0000000000000000e+00  -1.1231438667467440e-01 -5.5505578078745574e-03 0.0000000000000000e+00 -5.5505578078745574e-03 -1.1028803815119335e-01 0.0000000000000000e+00 0.0000000000000000e+00 0.0000000000000000e+00 0.0000000000000000e+00  -1.0895090477606056e-01 -1.1328486644674007e-02 0.0000000000000000e+00 -1.1328486644674007e-02 -1.0084101058133252e-01 0.0000000000000000e+00 0.0000000000000000e+00 0.0000000000000000e+00 0.0000000000000000e+00  -1.0654789105375462e-01 -1.1076640755756664e-02 0.0000000000000000e+00 -1.1076640755756664e-02 -9.5117558995781767e-02 0.0000000000000000e+00 0.0000000000000000e+00 0.0000000000000000e+00 0.0000000000000000e+00  -1.0427443292022774e-01 -1.1504548122124144e-02 0.0000000000000000e+00 -1.1504548122124144e-02 -9.0430111781719474e-02 0.0000000000000000e+00 0.0000000000000000e+00 0.0000000000000000e+00 0.0000000000000000e+00  -1.0227961875307570e-01 -1.1235778104336428e-02 0.0000000000000000e+00 -1.1235778104336428e-02 -8.7340304298515289e-02 0.0000000000000000e+00 0.0000000000000000e+00 0.0000000000000000e+00 0.0000000000000000e+00  -1.0032548140475843e-01 -1.0833276966325090e-02 0.0000000000000000e+00 -1.0833276966325090e-02 -8.5468307724146500e-02 0.0000000000000000e+00 0.0000000000000000e+00 0.0000000000000000e+00 0.0000000000000000e+00  -9.8386028446854540e-02 -1.0446789037089045e-02 0.0000000000000000e+00 -1.0446789037089045e-02 -8.4637317864031877e-02 0.0000000000000000e+00 0.0000000000000000e+00 0.0000000000000000e+00 0.0000000000000000e+00  -9.6552791645197908e-02 -1.0239656229468061e-02 0.0000000000000000e+00 -1.0239656229468061e-02 -8.4490737572690280e-02 0.0000000000000000e+00 0.0000000000000000e+00 0.0000000000000000e+00 0.0000000000000000e+00  -9.4915357136870479e-02 -1.0280240451256573e-02 0.0000000000000000e+00 -1.0280240451256573e-02 -8.4705848196109892e-02 0.0000000000000000e+00 0.0000000000000000e+00 0.0000000000000000e+00 0.0000000000000000e+00  -9.3610429064659620e-02 -1.0526245474660658e-02 0.0000000000000000e+00 -1.0526245474660658e-02 -8.4947274001960268e-02 0.0000000000000000e+00 0.0000000000000000e+00 0.0000000000000000e+00 0.0000000000000000e+00  -9.2721771979060216e-02 -1.0832625665404830e-02 0.0000000000000000e+00 -1.0832625665404830e-02 -8.4979253536825838e-02 0.0000000000000000e+00 0.0000000000000000e+00 0.0000000000000000e+00 0.0000000000000000e+00  -9.2254451537433169e-02 -1.0993387683824478e-02 0.0000000000000000e+00 -1.0993387683824478e-02 -8.4711379093333844e-02 0.0000000000000000e+00 0.0000000000000000e+00 0.0000000000000000e+00 0.0000000000000000e+00  -9.2108794293692814e-02 -1.0814452909210197e-02 0.0000000000000000e+00 -1.0814452909210197e-02 -8.4227939311065619e-02 0.0000000000000000e+00 0.0000000000000000e+00 0.0000000000000000e+00 0.0000000000000000e+00  -9.2102691045228280e-02 -1.0194791460630121e-02 0.0000000000000000e+00 -1.0194791460630121e-02 -8.3750978571319454e-02 0.0000000000000000e+00 0.0000000000000000e+00 0.0000000000000000e+00 0.0000000000000000e+00  -9.2032509096639417e-02 -9.1726698414397786e-03 0.0000000000000000e+00 -9.1726698414397786e-03 -8.3546604294927537e-02 0.0000000000000000e+00 0.0000000000000000e+00 0.0000000000000000e+00 0.0000000000000000e+00  -9.1742014903278615e-02 -7.9158669634820916e-03 0.0000000000000000e+00 -7.9158669634820916e-03 -8.3818961211046400e-02 0.0000000000000000e+00 0.0000000000000000e+00 0.0000000000000000e+00 0.0000000000000000e+00  -9.1170961726742550e-02 -6.6655266867053737e-03 0.0000000000000000e+00 -6.6655266867053737e-03 -8.4634381373298942e-02 0.0000000000000000e+00 0.0000000000000000e+00 0.0000000000000000e+00 0.0000000000000000e+00  -9.0370137149196991e-02 -5.6580033913802346e-03 0.0000000000000000e+00 -5.6580033913802346e-03 -8.5896754770624736e-02 0.0000000000000000e+00 0.0000000000000000e+00 0.0000000000000000e+00 0.0000000000000000e+00  -8.9480722710559429e-02 -5.0490385553327169e-03 0.0000000000000000e+00 -5.0490385553327169e-03 -8.7378091952199588e-02 0.0000000000000000e+00 0.0000000000000000e+00 0.0000000000000000e+00 0.0000000000000000e+00  -8.8681842997883537e-02 -4.8647539010285229e-03 0.0000000000000000e+00 -4.8647539010285229e-03 -8.8797406951381580e-02 0.0000000000000000e+00 0.0000000000000000e+00 0.0000000000000000e+00 0.0000000000000000e+00  -8.8122777575829314e-02 -5.0021630873088056e-03 0.0000000000000000e+00 -5.0021630873088056e-03 -8.9922143804564619e-02 0.0000000000000000e+00 0.0000000000000000e+00 0.0000000000000000e+00 0.0000000000000000e+00  -8.7869879881033355e-02 -5.2830684891970554e-03 0.0000000000000000e+00 -5.2830684891970554e-03 -9.0647101652254508e-02 0.0000000000000000e+00 0.0000000000000000e+00 0.0000000000000000e+00 0.0000000000000000e+00  -8.7897215243368285e-02 -5.5333872302922938e-03 0.0000000000000000e+00 -5.5333872302922938e-03 -9.1009624038022721e-02 0.0000000000000000e+00 0.0000000000000000e+00 0.0000000000000000e+00 0.0000000000000000e+00  -8.8118504867212122e-02 -5.6430774871371533e-03 0.0000000000000000e+00 -5.6430774871371533e-03 -9.1146661855733058e-02 0.0000000000000000e+00 0.0000000000000000e+00 0.0000000000000000e+00 0.0000000000000000e+00  -8.8411375369541828e-02 -5.5933305746994535e-03 0.0000000000000000e+00 -5.5933305746994535e-03 -9.1240244567640835e-02 0.0000000000000000e+00 0.0000000000000000e+00 0.0000000000000000e+00 0.0000000000000000e+00  -8.8729021531912880e-02 -5.4471662546880179e-03 0.0000000000000000e+00 -5.4471662546880179e-03 -9.1404331938949673e-02 0.0000000000000000e+00 0.0000000000000000e+00 0.0000000000000000e+00 0.0000000000000000e+00  -8.8946404308656427e-02 -5.3347847932154052e-03 0.0000000000000000e+00 -5.3347847932154052e-03 -9.1771873971803239e-02 0.0000000000000000e+00 0.0000000000000000e+00 0.0000000000000000e+00 0.0000000000000000e+00  -8.9244396855040542e-02 -5.3653802349617587e-03 0.0000000000000000e+00 -5.3653802349617587e-03 -9.2173069377008338e-02 0.0000000000000000e+00 0.0000000000000000e+00 0.0000000000000000e+00 0.0000000000000000e+00  -8.9681214371811729e-02 -5.9283869244985262e-03 0.0000000000000000e+00 -5.9283869244985262e-03 -9.2445136244476950e-02 0.0000000000000000e+00 0.0000000000000000e+00 0.0000000000000000e+00 0.0000000000000000e+00  -9.0447858376509926e-02 -5.3084133024302897e-03 0.0000000000000000e+00 -5.3084133024302897e-03 -9.1995944113167111e-02 0.0000000000000000e+00 0.0000000000000000e+00 0.0000000000000000e+00 0.0000000000000000e+00  -9.1359023648295332e-02 -8.9139490757625412e-03 0.0000000000000000e+00 -8.9139490757625412e-03 -9.1105307317869991e-02 0.0000000000000000e+00 0.0000000000000000e+00 0.0000000000000000e+00 0.0000000000000000e+00  -1.0183311263696432e-01 1.0795804821984814e-02 0.0000000000000000e+00 1.0795804821984814e-02 -7.8907242649797829e-02 0.0000000000000000e+00 0.0000000000000000e+00 0.0000000000000000e+00 0.0000000000000000e+00  -8.7962333973378895e-02 -1.0868198805430931e-01 0.0000000000000000e+00 -1.0868198805430931e-01 4.4780240289944262e-02 0.0000000000000000e+00 0.0000000000000000e+00 0.0000000000000000e+00 0.0000000000000000e+00  -6.2265275230157104e-02 2.3260470430049832e-01 0.0000000000000000e+00 2.3260470430049832e-01 -4.2798747508441765e-01 0.0000000000000000e+00 0.0000000000000000e+00 0.0000000000000000e+00 0.0000000000000000e+00  -5.6725796164337219e-02 -1.1782937620648294e-01 0.0000000000000000e+00 -1.1782937620648294e-01 -1.8008306369865154e-02 0.0000000000000000e+00 0.0000000000000000e+00 0.0000000000000000e+00 0.0000000000000000e+00  -1.9546908738298542e-02 3.9031796566012323e-03 0.0000000000000000e+00 3.9031796566012323e-03 2.0002665434767211e-02 0.0000000000000000e+00 0.0000000000000000e+00 0.0000000000000000e+00 0.0000000000000000e+00  9.7484315426565049e-03 -8.9927311853683315e-04 0.0000000000000000e+00 -8.9927311853683315e-04 1.0448929345749666e-02 0.0000000000000000e+00 0.0000000000000000e+00 0.0000000000000000e+00 0.0000000000000000e+00  7.0840310056274110e-03 -3.8947654487321402e-04 0.0000000000000000e+00 -3.8947654487321402e-04 7.4464167153338598e-03 0.0000000000000000e+00 0.0000000000000000e+00 0.0000000000000000e+00 0.0000000000000000e+00  7.7877810797698883e-03 1.0507258836382871e-04 0.0000000000000000e+00 1.0507258836382871e-04 7.7940400698907281e-03 0.0000000000000000e+00 0.0000000000000000e+00 0.0000000000000000e+00 0.0000000000000000e+00  7.7320029818217723e-03 -2.3130822831037210e-05 0.0000000000000000e+00 -2.3130822831037210e-05 7.7319168524359987e-03 0.0000000000000000e+00 0.0000000000000000e+00 0.0000000000000000e+00 0.0000000000000000e+00  7.7394486200844711e-03 -1.0162645318756811e-05 0.0000000000000000e+00 -1.0162645318756811e-05 7.7491346391147416e-03 0.0000000000000000e+00 0.0000000000000000e+00 0.0000000000000000e+00 0.0000000000000000e+00  7.7409521817091986e-03 -2.4350754149608199e-05 0.0000000000000000e+00 -2.4350754149608199e-05 7.7497181608206884e-03 0.0000000000000000e+00 0.0000000000000000e+00 0.0000000000000000e+00 0.0000000000000000e+00  7.7417440021387259e-03 -3.8051377623094732e-05 0.0000000000000000e+00 -3.8051377623094732e-05 7.7466155774548471e-03 0.0000000000000000e+00 0.0000000000000000e+00 0.0000000000000000e+00 0.0000000000000000e+00  7.7289282834453483e-03 4.3757181614829771e-05 0.0000000000000000e+00 4.3757181614829771e-05 7.7336999382664855e-03 0.0000000000000000e+00 0.0000000000000000e+00 0.0000000000000000e+00 0.0000000000000000e+00  7.7276122440673115e-03 2.6224920390280905e-05 0.0000000000000000e+00 2.6224920390280905e-05 7.7353828333865905e-03 0.0000000000000000e+00 0.0000000000000000e+00 0.0000000000000000e+00 0.0000000000000000e+00  7.7328212989893584e-03 9.2530934471130467e-06 0.0000000000000000e+00 9.2530934471130467e-06 7.7339992789868528e-03 0.0000000000000000e+00 0.0000000000000000e+00 0.0000000000000000e+00 0.0000000000000000e+00  7.7039890423391579e-03 -1.9378015244551654e-05 0.0000000000000000e+00 -1.9378015244551654e-05 7.7191432880437325e-03 0.0000000000000000e+00 0.0000000000000000e+00 0.0000000000000000e+00 0.0000000000000000e+00  7.7675993707680500e-03 2.0418750294955292e-04 0.0000000000000000e+00 2.0418750294955292e-04 7.6743863265614914e-03 0.0000000000000000e+00 0.0000000000000000e+00 0.0000000000000000e+00 0.0000000000000000e+00  7.8682264954397126e-03 -1.4477660400644282e-03 0.0000000000000000e+00 -1.4477660400644282e-03 9.4056052039094874e-03 0.0000000000000000e+00 0.0000000000000000e+00 0.0000000000000000e+00 0.0000000000000000e+00  -7.6201355745739354e-03 1.0308410770376961e-02 0.0000000000000000e+00 1.0308410770376961e-02 6.9802665826632394e-03 0.0000000000000000e+00 0.0000000000000000e+00 0.0000000000000000e+00 0.0000000000000000e+00  8.8274239740424257e-03 1.2635079303896801e-02 0.0000000000000000e+00 1.2635079303896801e-02 8.1644967044033026e-02 0.0000000000000000e+00 0.0000000000000000e+00 0.0000000000000000e+00 0.0000000000000000e+00  -1.1633218531421408e-02 -9.8353385457585360e-02 0.0000000000000000e+00 -9.8353385457585360e-02 -4.7591853490206265e-01 0.0000000000000000e+00 0.0000000000000000e+00 0.0000000000000000e+00 0.0000000000000000e+00  -7.7721445925695118e-02 5.0863208713544210e-02 0.0000000000000000e+00 5.0863208713544210e-02 7.8577029757696759e-02 0.0000000000000000e+00 0.0000000000000000e+00 0.0000000000000000e+00 0.0000000000000000e+00  -1.2352908974479018e-01 1.4632187195343045e-02 0.0000000000000000e+00 1.4632187195343045e-02 -7.5486928282253771e-02 0.0000000000000000e+00 0.0000000000000000e+00 0.0000000000000000e+00 0.0000000000000000e+00  -8.9714524503480358e-02 3.9154593930561983e-03 0.0000000000000000e+00 3.9154593930561983e-03 -8.8284366511683754e-02 0.0000000000000000e+00 0.0000000000000000e+00 0.0000000000000000e+00 0.0000000000000000e+00  -8.9772103038464127e-02 4.9853206367550355e-03 0.0000000000000000e+00 4.9853206367550355e-03 -9.2683277875849082e-02 0.0000000000000000e+00 0.0000000000000000e+00 0.0000000000000000e+00 0.0000000000000000e+00  -8.9351290496245475e-02 5.4472005991529574e-03 0.0000000000000000e+00 5.4472005991529574e-03 -9.2412700303709239e-02 0.0000000000000000e+00 0.0000000000000000e+00 0.0000000000000000e+00 0.0000000000000000e+00  -8.8822024596278082e-02 5.2048410849429450e-03 0.0000000000000000e+00 5.2048410849429450e-03 -9.2621039437582958e-02 0.0000000000000000e+00 0.0000000000000000e+00 0.0000000000000000e+00 0.0000000000000000e+00  -8.8503979788143727e-02 5.1378015894194412e-03 0.0000000000000000e+00 5.1378015894194412e-03 -9.2456381812393990e-02 0.0000000000000000e+00 0.0000000000000000e+00 0.0000000000000000e+00 0.0000000000000000e+00  -8.8272296397859593e-02 5.1170669954384860e-03 0.0000000000000000e+00 5.1170669954384860e-03 -9.2191628359283351e-02 0.0000000000000000e+00 0.0000000000000000e+00 0.0000000000000000e+00 0.0000000000000000e+00  -8.8054623466776658e-02 5.2030662138087009e-03 0.0000000000000000e+00 5.2030662138087009e-03 -9.1927249149232754e-02 0.0000000000000000e+00 0.0000000000000000e+00 0.0000000000000000e+00 0.0000000000000000e+00  -8.7835466920813163e-02 5.3269565513328569e-03 0.0000000000000000e+00 5.3269565513328569e-03 -9.1695226358782689e-02 0.0000000000000000e+00 0.0000000000000000e+00 0.0000000000000000e+00 0.0000000000000000e+00  -8.7616551508078760e-02 5.4162885011897017e-03 0.0000000000000000e+00 5.4162885011897017e-03 -9.1479522667684970e-02 0.0000000000000000e+00 0.0000000000000000e+00 0.0000000000000000e+00 0.0000000000000000e+00  -8.7463367708923240e-02 5.4356189808911085e-03 0.0000000000000000e+00 5.4356189808911085e-03 -9.1189499165265794e-02 0.0000000000000000e+00 0.0000000000000000e+00 0.0000000000000000e+00 0.0000000000000000e+00  -8.7438593138954177e-02 5.4020831327050928e-03 0.0000000000000000e+00 5.4020831327050928e-03 -9.0730534191346329e-02 0.0000000000000000e+00 0.0000000000000000e+00 0.0000000000000000e+00 0.0000000000000000e+00  -8.7593792671619347e-02 5.3861609542553354e-03 0.0000000000000000e+00 5.3861609542553354e-03 -9.0029738527717604e-02 0.0000000000000000e+00 0.0000000000000000e+00 0.0000000000000000e+00 0.0000000000000000e+00  -8.7936583170794655e-02 5.4928343249407274e-03 0.0000000000000000e+00 5.4928343249407274e-03 -8.9079066727065559e-02 0.0000000000000000e+00 0.0000000000000000e+00 0.0000000000000000e+00 0.0000000000000000e+00  -8.8418701706537817e-02 5.8231119292294145e-03 0.0000000000000000e+00 5.8231119292294145e-03 -8.7953617285404212e-02 0.0000000000000000e+00 0.0000000000000000e+00 0.0000000000000000e+00 0.0000000000000000e+00  -8.8944606513932933e-02 6.4304715908290776e-03 0.0000000000000000e+00 6.4304715908290776e-03 -8.6798530141324631e-02 0.0000000000000000e+00 0.0000000000000000e+00 0.0000000000000000e+00 0.0000000000000000e+00  -8.9402009856365122e-02 7.2915167327012413e-03 0.0000000000000000e+00 7.2915167327012413e-03 -8.5784673167160527e-02 0.0000000000000000e+00 0.0000000000000000e+00 0.0000000000000000e+00 0.0000000000000000e+00  -8.9701608186483109e-02 8.3054997955218784e-03 0.0000000000000000e+00 8.3054997955218784e-03 -8.5051131079949396e-02 0.0000000000000000e+00 0.0000000000000000e+00 0.0000000000000000e+00 0.0000000000000000e+00  -8.9809112734096364e-02 9.3228886356938497e-03 0.0000000000000000e+00 9.3228886356938497e-03 -8.4658745555511380e-02 0.0000000000000000e+00 0.0000000000000000e+00 0.0000000000000000e+00 0.0000000000000000e+00  -8.9757829361413577e-02 1.0191590557306444e-02 0.0000000000000000e+00 1.0191590557306444e-02 -8.4571935512491023e-02 0.0000000000000000e+00 0.0000000000000000e+00 0.0000000000000000e+00 0.0000000000000000e+00  -8.9637405996854547e-02 1.0804596801383530e-02 0.0000000000000000e+00 1.0804596801383530e-02 -8.4675245848129868e-02 0.0000000000000000e+00 0.0000000000000000e+00 0.0000000000000000e+00 0.0000000000000000e+00  -8.9561442951635581e-02 1.1132379694784781e-02 0.0000000000000000e+00 1.1132379694784781e-02 -8.4820437909160176e-02 0.0000000000000000e+00 0.0000000000000000e+00 0.0000000000000000e+00 0.0000000000000000e+00  -8.9624104442032032e-02 1.1226946826224018e-02 0.0000000000000000e+00 1.1226946826224018e-02 -8.4888959854053841e-02 0.0000000000000000e+00 0.0000000000000000e+00 0.0000000000000000e+00 0.0000000000000000e+00  -8.9861964001408348e-02 1.1194572482513937e-02 0.0000000000000000e+00 1.1194572482513937e-02 -8.4846068986373396e-02 0.0000000000000000e+00 0.0000000000000000e+00 0.0000000000000000e+00 0.0000000000000000e+00  -9.0236010949066220e-02 1.1148782446586994e-02 0.0000000000000000e+00 1.1148782446586994e-02 -8.4765291757516376e-02 0.0000000000000000e+00 0.0000000000000000e+00 0.0000000000000000e+00 0.0000000000000000e+00  -9.0635023736293618e-02 1.1163036026103457e-02 0.0000000000000000e+00 1.1163036026103457e-02 -8.4819148230376951e-02 0.0000000000000000e+00 0.0000000000000000e+00 0.0000000000000000e+00 0.0000000000000000e+00  -9.0901297038340989e-02 1.1238689089340739e-02 0.0000000000000000e+00 1.1238689089340739e-02 -8.5238527624591678e-02 0.0000000000000000e+00 0.0000000000000000e+00 0.0000000000000000e+00 0.0000000000000000e+00  -9.0843356523201635e-02 1.1295931456412564e-02 0.0000000000000000e+00 1.1295931456412564e-02 -8.6279081160559046e-02 0.0000000000000000e+00 0.0000000000000000e+00 0.0000000000000000e+00 0.0000000000000000e+00  -9.0268617342567983e-02 1.1176217752241806e-02 0.0000000000000000e+00 1.1176217752241806e-02 -8.8156892523076583e-02 0.0000000000000000e+00 0.0000000000000000e+00 0.0000000000000000e+00 0.0000000000000000e+00  -8.8978533755135120e-02 1.0663155877787088e-02 0.0000000000000000e+00 1.0663155877787088e-02 -9.1054791215374131e-02 0.0000000000000000e+00 0.0000000000000000e+00 0.0000000000000000e+00 0.0000000000000000e+00  -8.6661419455900224e-02 9.5479005424107862e-03 0.0000000000000000e+00 9.5479005424107862e-03 -9.5078447245508541e-02 0.0000000000000000e+00 0.0000000000000000e+00 0.0000000000000000e+00 0.0000000000000000e+00  -8.3192178338704709e-02 7.2553003800355309e-03 0.0000000000000000e+00 7.2553003800355309e-03 -1.0013760317695271e-01 0.0000000000000000e+00 0.0000000000000000e+00 0.0000000000000000e+00 0.0000000000000000e+00  -7.7493021454503139e-02 3.6136703224025676e-03 0.0000000000000000e+00 3.6136703224025676e-03 -1.0721151941914986e-01 0.0000000000000000e+00 0.0000000000000000e+00 0.0000000000000000e+00 0.0000000000000000e+00  -7.3951272910418614e-02 -1.9895122434440576e-03 0.0000000000000000e+00 -1.9895122434440576e-03 -1.0539594877369617e-01 0.0000000000000000e+00 0.0000000000000000e+00 0.0000000000000000e+00 0.0000000000000000e+00  -1.3050781419580523e-01 -3.7839700944877978e-02 0.0000000000000000e+00 -3.7839700944877978e-02 -9.8714331344148740e-02 0.0000000000000000e+00 0.0000000000000000e+00 0.0000000000000000e+00 0.0000000000000000e+00  -4.4703224337631998e-02 -8.5139610519769857e-03 0.0000000000000000e+00 -8.5139610519769857e-03 -2.7756905057118572e-02 0.0000000000000000e+00 0.0000000000000000e+00 0.0000000000000000e+00 0.0000000000000000e+00  2.8615735914055720e-02 -5.9466837895824499e-02 0.0000000000000000e+00 -5.9466837895824499e-02 -3.2111940296546387e-01 0.0000000000000000e+00 0.0000000000000000e+00 0.0000000000000000e+00 0.0000000000000000e+00  7.3816081572370068e-04 2.3153561901738045e-02 0.0000000000000000e+00 2.3153561901738045e-02 6.1548221249220145e-02 0.0000000000000000e+00 0.0000000000000000e+00 0.0000000000000000e+00 0.0000000000000000e+00  -2.9192107700638618e-03 -8.1255132655617887e-03 0.0000000000000000e+00 -8.1255132655617887e-03 1.4013825747898974e-03 0.0000000000000000e+00 0.0000000000000000e+00 0.0000000000000000e+00 0.0000000000000000e+00  6.5301071764078294e-04 3.8836542044525028e-04 0.0000000000000000e+00 3.8836542044525028e-04 1.2723040127472598e-03 0.0000000000000000e+00 0.0000000000000000e+00 0.0000000000000000e+00 0.0000000000000000e+00  4.6392914370675914e-04 -1.9061726767053970e-04 0.0000000000000000e+00 -1.9061726767053970e-04 1.3184951555375122e-03 0.0000000000000000e+00 0.0000000000000000e+00 0.0000000000000000e+00 0.0000000000000000e+00  -1.1874618208620271e-03 6.8817642368681591e-03 0.0000000000000000e+00 6.8817642368681591e-03 2.4289429297242376e-03 0.0000000000000000e+00 0.0000000000000000e+00 0.0000000000000000e+00 0.0000000000000000e+00  -2.4563416817962704e-03 -2.3975731158959332e-02 0.0000000000000000e+00 -2.3975731158959332e-02 6.5229372473531444e-02 0.0000000000000000e+00 0.0000000000000000e+00 0.0000000000000000e+00 0.0000000000000000e+00  4.4094579054807702e-02 6.1095037598819325e-02 0.0000000000000000e+00 6.1095037598819325e-02 -3.1080280393239168e-01 0.0000000000000000e+00 0.0000000000000000e+00 0.0000000000000000e+00 0.0000000000000000e+00  -5.3558843397275527e-02 4.1111307888927256e-03 0.0000000000000000e+00 4.1111307888927256e-03 -3.6777247513026183e-02 0.0000000000000000e+00 0.0000000000000000e+00 0.0000000000000000e+00 0.0000000000000000e+00  -1.4487499791709099e-01 2.7570181932611695e-02 0.0000000000000000e+00 2.7570181932611695e-02 -1.0608290580392414e-01 0.0000000000000000e+00 0.0000000000000000e+00 0.0000000000000000e+00 0.0000000000000000e+00  -8.3500392643095403e-02 -3.0484909558979906e-03 0.0000000000000000e+00 -3.0484909558979906e-03 -1.0727378872855119e-01 0.0000000000000000e+00 0.0000000000000000e+00 0.0000000000000000e+00 0.0000000000000000e+00  -8.4720102112733675e-02 -7.9115984867861155e-03 0.0000000000000000e+00 -7.9115984867861155e-03 -1.0769352462026287e-01 0.0000000000000000e+00 0.0000000000000000e+00 0.0000000000000000e+00 0.0000000000000000e+00  -8.8927874044455651e-02 -1.0354994822752877e-02 0.0000000000000000e+00 -1.0354994822752877e-02 -1.0003975385244475e-01 0.0000000000000000e+00 0.0000000000000000e+00 0.0000000000000000e+00 0.0000000000000000e+00  -9.1178557498512877e-02 -1.1803580879776508e-02 0.0000000000000000e+00 -1.1803580879776508e-02 -9.4700130884801947e-02 0.0000000000000000e+00 0.0000000000000000e+00 0.0000000000000000e+00 0.0000000000000000e+00  -9.2497636612115186e-02 -1.2280933900931910e-02 0.0000000000000000e+00 -1.2280933900931910e-02 -9.0671047351717604e-02 0.0000000000000000e+00 0.0000000000000000e+00 0.0000000000000000e+00 0.0000000000000000e+00  -9.2988877949085710e-02 -1.2334901879771787e-02 0.0000000000000000e+00 -1.2334901879771787e-02 -8.7876851855990798e-02 0.0000000000000000e+00 0.0000000000000000e+00 0.0000000000000000e+00 0.0000000000000000e+00  -9.2932485231459958e-02 -1.2129348065037855e-02 0.0000000000000000e+00 -1.2129348065037855e-02 -8.6143085303960393e-02 0.0000000000000000e+00 0.0000000000000000e+00 0.0000000000000000e+00 0.0000000000000000e+00  -9.2499679054765360e-02 -1.1843478472536296e-02 0.0000000000000000e+00 -1.1843478472536296e-02 -8.5242872977059181e-02 0.0000000000000000e+00 0.0000000000000000e+00 0.0000000000000000e+00 0.0000000000000000e+00  -9.1857007181822437e-02 -1.1605485148390490e-02 0.0000000000000000e+00 -1.1605485148390490e-02 -8.4939510070482130e-02 0.0000000000000000e+00 0.0000000000000000e+00 0.0000000000000000e+00 0.0000000000000000e+00  -9.1172196845603015e-02 -1.1472665755184873e-02 0.0000000000000000e+00 -1.1472665755184873e-02 -8.4970476775827017e-02 0.0000000000000000e+00 0.0000000000000000e+00 0.0000000000000000e+00 0.0000000000000000e+00  -9.0582203522009144e-02 -1.1428170653738820e-02 0.0000000000000000e+00 -1.1428170653738820e-02 -8.5105914544730710e-02 0.0000000000000000e+00 0.0000000000000000e+00 0.0000000000000000e+00 0.0000000000000000e+00  -9.0181100471919962e-02 -1.1388656075775614e-02 0.0000000000000000e+00 -1.1388656075775614e-02 -8.5177830087984560e-02 0.0000000000000000e+00 0.0000000000000000e+00 0.0000000000000000e+00 0.0000000000000000e+00  -8.9994324951853014e-02 -1.1234641361528061e-02 0.0000000000000000e+00 -1.1234641361528061e-02 -8.5118170633050397e-02 0.0000000000000000e+00 0.0000000000000000e+00 0.0000000000000000e+00 0.0000000000000000e+00  -8.9974883430041411e-02 -1.0856414829669880e-02 0.0000000000000000e+00 -1.0856414829669880e-02 -8.4966866583087178e-02 0.0000000000000000e+00 0.0000000000000000e+00 0.0000000000000000e+00 0.0000000000000000e+00  -9.0020750256547738e-02 -1.0200074630217845e-02 0.0000000000000000e+00 -1.0200074630217845e-02 -8.4846909894650990e-02 0.0000000000000000e+00 0.0000000000000000e+00 0.0000000000000000e+00 0.0000000000000000e+00  -9.0012485744800336e-02 -9.2942236712202607e-03 0.0000000000000000e+00 -9.2942236712202607e-03 -8.4910083760855390e-02 0.0000000000000000e+00 0.0000000000000000e+00 0.0000000000000000e+00 0.0000000000000000e+00  -8.9856255348682579e-02 -8.2455361929023325e-03 0.0000000000000000e+00 -8.2455361929023325e-03 -8.5274403546482025e-02 0.0000000000000000e+00 0.0000000000000000e+00 0.0000000000000000e+00 0.0000000000000000e+00  -8.9515944545811951e-02 -7.2060097666316134e-03 0.0000000000000000e+00 -7.2060097666316134e-03 -8.5977004970887949e-02 0.0000000000000000e+00 0.0000000000000000e+00 0.0000000000000000e+00 0.0000000000000000e+00  -8.9024112295269908e-02 -6.3249821197014135e-03 0.0000000000000000e+00 -6.3249821197014135e-03 -8.6957737918249331e-02 0.0000000000000000e+00 0.0000000000000000e+00 0.0000000000000000e+00 0.0000000000000000e+00  -8.8469040134238161e-02 -5.7026793991229313e-03 0.0000000000000000e+00 -5.7026793991229313e-03 -8.8077672185157704e-02 0.0000000000000000e+00 0.0000000000000000e+00 0.0000000000000000e+00 0.0000000000000000e+00  -8.7962323711708437e-02 -5.3616234908959665e-03 0.0000000000000000e+00 -5.3616234908959665e-03 -8.9165950021133256e-02 0.0000000000000000e+00 0.0000000000000000e+00 0.0000000000000000e+00 0.0000000000000000e+00  -8.7598874377011138e-02 -5.2472638692600878e-03 0.0000000000000000e+00 -5.2472638692600878e-03 -9.0077580563544410e-02 0.0000000000000000e+00 0.0000000000000000e+00 0.0000000000000000e+00 0.0000000000000000e+00  -8.7426293396340213e-02 -5.2575266288877563e-03 0.0000000000000000e+00 -5.2575266288877563e-03 -9.0737827811422575e-02 0.0000000000000000e+00 0.0000000000000000e+00 0.0000000000000000e+00 0.0000000000000000e+00  -8.7436297282211861e-02 -5.2864863805868771e-03 0.0000000000000000e+00 -5.2864863805868771e-03 -9.1155244480684280e-02 0.0000000000000000e+00 0.0000000000000000e+00 0.0000000000000000e+00 0.0000000000000000e+00  -8.7576688752159487e-02 -5.2628273093078158e-03 0.0000000000000000e+00 -5.2628273093078158e-03 -9.1403294821023912e-02 0.0000000000000000e+00 0.0000000000000000e+00 0.0000000000000000e+00 0.0000000000000000e+00  -8.7784121185315728e-02 -5.1686069661879717e-03 0.0000000000000000e+00 -5.1686069661879717e-03 -9.1577293702409274e-02 0.0000000000000000e+00 0.0000000000000000e+00 0.0000000000000000e+00 0.0000000000000000e+00  -8.7992137511337276e-02 -5.0385317393530039e-03 0.0000000000000000e+00 -5.0385317393530039e-03 -9.1768902488489276e-02 0.0000000000000000e+00 0.0000000000000000e+00 0.0000000000000000e+00 0.0000000000000000e+00  -8.8197851826178245e-02 -4.9446183166076104e-03 0.0000000000000000e+00 -4.9446183166076104e-03 -9.1995579566732349e-02 0.0000000000000000e+00 0.0000000000000000e+00 0.0000000000000000e+00 0.0000000000000000e+00  -8.8414730782282888e-02 -4.9560110419296461e-03 0.0000000000000000e+00 -4.9560110419296461e-03 -9.2227328718785903e-02 0.0000000000000000e+00 0.0000000000000000e+00 0.0000000000000000e+00 0.0000000000000000e+00  -8.8713823209496667e-02 -5.0141344771877355e-03 0.0000000000000000e+00 -5.0141344771877355e-03 -9.2365057332800454e-02 0.0000000000000000e+00 0.0000000000000000e+00 0.0000000000000000e+00 0.0000000000000000e+00  -8.9218305975824128e-02 -5.2498975668540081e-03 0.0000000000000000e+00 -5.2498975668540081e-03 -9.2134240311294954e-02 0.0000000000000000e+00 0.0000000000000000e+00 0.0000000000000000e+00 0.0000000000000000e+00  -8.9609917238526404e-02 -4.7890283683034848e-03 0.0000000000000000e+00 -4.7890283683034848e-03 -9.2385948539947887e-02 0.0000000000000000e+00 0.0000000000000000e+00 0.0000000000000000e+00 0.0000000000000000e+00  -8.9515290480160437e-02 -3.7139645360566419e-03 0.0000000000000000e+00 -3.7139645360566419e-03 -8.7959658072347777e-02 0.0000000000000000e+00 0.0000000000000000e+00 0.0000000000000000e+00 0.0000000000000000e+00  -1.2328486096396810e-01 -1.4456222079487758e-02 0.0000000000000000e+00 -1.4456222079487758e-02 -7.5150430660416573e-02 0.0000000000000000e+00 0.0000000000000000e+00 0.0000000000000000e+00 0.0000000000000000e+00  -7.7458467297610134e-02 -5.0642554642785872e-02 0.0000000000000000e+00 -5.0642554642785872e-02 7.8942213381564125e-02 0.0000000000000000e+00 0.0000000000000000e+00 0.0000000000000000e+00 0.0000000000000000e+00  -1.2024605469445412e-02 9.8433374720577463e-02 0.0000000000000000e+00 9.8433374720577463e-02 -4.7615805172211145e-01 0.0000000000000000e+00 0.0000000000000000e+00 0.0000000000000000e+00 0.0000000000000000e+00  7.9159689129205766e-03 -1.2660057712406707e-02 0.0000000000000000e+00 -1.2660057712406707e-02 8.0954027028695932e-02 0.0000000000000000e+00 0.0000000000000000e+00 0.0000000000000000e+00 0.0000000000000000e+00  -8.2416833475633371e-03 -1.0330748516276696e-02 0.0000000000000000e+00 -1.0330748516276696e-02 6.6214905096697993e-03 0.0000000000000000e+00 0.0000000000000000e+00 0.0000000000000000e+00 0.0000000000000000e+00  7.9653359829300989e-03 1.4224388547588039e-03 0.0000000000000000e+00 1.4224388547588039e-03 9.4524635854899060e-03 0.0000000000000000e+00 0.0000000000000000e+00 0.0000000000000000e+00 0.0000000000000000e+00  7.7847013920000945e-03 -1.8367786601915619e-04 0.0000000000000000e+00 -1.8367786601915619e-04 7.7251598215231556e-03 0.0000000000000000e+00 0.0000000000000000e+00 0.0000000000000000e+00 0.0000000000000000e+00  7.7394883137593979e-03 1.0809135214443515e-05 0.0000000000000000e+00 1.0809135214443515e-05 7.7484828615743450e-03 0.0000000000000000e+00 0.0000000000000000e+00 0.0000000000000000e+00 0.0000000000000000e+00  7.7632977589900632e-03 -1.0026241986874180e-05 0.0000000000000000e+00 -1.0026241986874180e-05 7.7618057840266961e-03 0.0000000000000000e+00 0.0000000000000000e+00 0.0000000000000000e+00 0.0000000000000000e+00  7.7566129243049420e-03 -2.4248992423742441e-05 0.0000000000000000e+00 -2.4248992423742441e-05 7.7633742559246252e-03 0.0000000000000000e+00 0.0000000000000000e+00 0.0000000000000000e+00 0.0000000000000000e+00  7.7576593441448715e-03 -3.9806065951666489e-05 0.0000000000000000e+00 -3.9806065951666489e-05 7.7621008845265588e-03 0.0000000000000000e+00 0.0000000000000000e+00 0.0000000000000000e+00 0.0000000000000000e+00  7.7492699114018017e-03 4.5449122179333441e-05 0.0000000000000000e+00 4.5449122179333441e-05 7.7531931629569095e-03 0.0000000000000000e+00 0.0000000000000000e+00 0.0000000000000000e+00 0.0000000000000000e+00  7.7489663015436827e-03 2.4744067608777056e-05 0.0000000000000000e+00 2.4744067608777056e-05 7.7542147108094952e-03 0.0000000000000000e+00 0.0000000000000000e+00 0.0000000000000000e+00 0.0000000000000000e+00  7.7470749840606642e-03 1.4871905295434852e-05 0.0000000000000000e+00 1.4871905295434852e-05 7.7428222243652407e-03 0.0000000000000000e+00 0.0000000000000000e+00 0.0000000000000000e+00 0.0000000000000000e+00  7.8006273386326003e-03 -4.6426798775566110e-05 0.0000000000000000e+00 -4.6426798775566110e-05 7.7983602162298906e-03 0.0000000000000000e+00 0.0000000000000000e+00 0.0000000000000000e+00 0.0000000000000000e+00  7.0904449183447063e-03 1.1301583323078983e-04 0.0000000000000000e+00 1.1301583323078983e-04 7.6130691274763577e-03 0.0000000000000000e+00 0.0000000000000000e+00 0.0000000000000000e+00 0.0000000000000000e+00  8.6169198050210366e-03 2.7980668090272828e-03 0.0000000000000000e+00 2.7980668090272828e-03 1.0484414747423640e-02 0.0000000000000000e+00 0.0000000000000000e+00 0.0000000000000000e+00 0.0000000000000000e+00  -1.6904149162623734e-02 -1.6829084825028085e-02 0.0000000000000000e+00 -1.6829084825028085e-02 4.8311261855578415e-02 0.0000000000000000e+00 0.0000000000000000e+00 0.0000000000000000e+00 0.0000000000000000e+00  -2.5623523034241993e-02 1.1933250343273057e-01 0.0000000000000000e+00 1.1933250343273057e-01 -1.3155607313046053e-01 0.0000000000000000e+00 0.0000000000000000e+00 0.0000000000000000e+00 0.0000000000000000e+00  2.0831396395269375e-02 -9.1912723075562447e-02 0.0000000000000000e+00 -9.1912723075562447e-02 -1.4165065315178293e-01 0.0000000000000000e+00 0.0000000000000000e+00 0.0000000000000000e+00 0.0000000000000000e+00  -1.6010857033058701e-01 5.0645527216517015e-02 0.0000000000000000e+00 5.0645527216517015e-02 -3.9377727721545623e-02 0.0000000000000000e+00 0.0000000000000000e+00 0.0000000000000000e+00 0.0000000000000000e+00  -9.3254975611202828e-02 -9.5774635243139363e-04 0.0000000000000000e+00 -9.5774635243139363e-04 -7.9019793235701852e-02 0.0000000000000000e+00 0.0000000000000000e+00 0.0000000000000000e+00 0.0000000000000000e+00  -8.7298443186301977e-02 6.4779624371303106e-03 0.0000000000000000e+00 6.4779624371303106e-03 -9.4094220241412146e-02 0.0000000000000000e+00 0.0000000000000000e+00 0.0000000000000000e+00 0.0000000000000000e+00  -8.8091496179640266e-02 4.9403716777427272e-03 0.0000000000000000e+00 4.9403716777427272e-03 -9.1919184946943192e-02 0.0000000000000000e+00 0.0000000000000000e+00 0.0000000000000000e+00 0.0000000000000000e+00  -8.7797276661315010e-02 4.8780899075847517e-03 0.0000000000000000e+00 4.8780899075847517e-03 -9.2750719069389836e-02 0.0000000000000000e+00 0.0000000000000000e+00 0.0000000000000000e+00 0.0000000000000000e+00  -8.7764320541141597e-02 4.7926292399026781e-03 0.0000000000000000e+00 4.7926292399026781e-03 -9.2634801047048188e-02 0.0000000000000000e+00 0.0000000000000000e+00 0.0000000000000000e+00 0.0000000000000000e+00  -8.7585234821050198e-02 4.7326446400986159e-03 0.0000000000000000e+00 4.7326446400986159e-03 -9.2591195526251752e-02 0.0000000000000000e+00 0.0000000000000000e+00 0.0000000000000000e+00 0.0000000000000000e+00  -8.7429631944625788e-02 4.7432284491062690e-03 0.0000000000000000e+00 4.7432284491062690e-03 -9.2437862344399477e-02 0.0000000000000000e+00 0.0000000000000000e+00 0.0000000000000000e+00 0.0000000000000000e+00  -8.7264501729682517e-02 4.8272228615747334e-03 0.0000000000000000e+00 4.8272228615747334e-03 -9.2249380740703338e-02 0.0000000000000000e+00 0.0000000000000000e+00 0.0000000000000000e+00 0.0000000000000000e+00  -8.7087063575509036e-02 4.9522709072137494e-03 0.0000000000000000e+00 4.9522709072137494e-03 -9.2041973056380830e-02 0.0000000000000000e+00 0.0000000000000000e+00 0.0000000000000000e+00 0.0000000000000000e+00  -8.6916695347278389e-02 5.0827332391363790e-03 0.0000000000000000e+00 5.0827332391363790e-03 -9.1797095188638281e-02 0.0000000000000000e+00 0.0000000000000000e+00 0.0000000000000000e+00 0.0000000000000000e+00  -8.6786678920915447e-02 5.1990759556708194e-03 0.0000000000000000e+00 5.1990759556708194e-03 -9.1471325098005665e-02 0.0000000000000000e+00 0.0000000000000000e+00 0.0000000000000000e+00 0.0000000000000000e+00  -8.6737976491228261e-02 5.3138005939990371e-03 0.0000000000000000e+00 5.3138005939990371e-03 -9.1011316806388867e-02 0.0000000000000000e+00 0.0000000000000000e+00 0.0000000000000000e+00 0.0000000000000000e+00  -8.6797497252221564e-02 5.4705587659713319e-03 0.0000000000000000e+00 5.4705587659713319e-03 -9.0382762200945599e-02 0.0000000000000000e+00 0.0000000000000000e+00 0.0000000000000000e+00 0.0000000000000000e+00  -8.6965029829506504e-02 5.7308569061302874e-03 0.0000000000000000e+00 5.7308569061302874e-03 -8.9590262454939312e-02 0.0000000000000000e+00 0.0000000000000000e+00 0.0000000000000000e+00 0.0000000000000000e+00  -8.7206169118835650e-02 6.1509132617088014e-03 0.0000000000000000e+00 6.1509132617088014e-03 -8.8686844421392019e-02 0.0000000000000000e+00 0.0000000000000000e+00 0.0000000000000000e+00 0.0000000000000000e+00  -8.7458865642108863e-02 6.7565962415004916e-03 0.0000000000000000e+00 6.7565962415004916e-03 -8.7764649009368159e-02 0.0000000000000000e+00 0.0000000000000000e+00 0.0000000000000000e+00 0.0000000000000000e+00  -8.7651692510681264e-02 7.5271443363369881e-03 0.0000000000000000e+00 7.5271443363369881e-03 -8.6929002125384069e-02 0.0000000000000000e+00 0.0000000000000000e+00 0.0000000000000000e+00 0.0000000000000000e+00  -8.7727094228021454e-02 8.3951301374241873e-03 0.0000000000000000e+00 8.3951301374241873e-03 -8.6265474776185555e-02 0.0000000000000000e+00 0.0000000000000000e+00 0.0000000000000000e+00 0.0000000000000000e+00  -8.7660252738029340e-02 9.2632885868282663e-03 0.0000000000000000e+00 9.2632885868282663e-03 -8.5813011196496550e-02 0.0000000000000000e+00 0.0000000000000000e+00 0.0000000000000000e+00 0.0000000000000000e+00  -8.7466031881293996e-02 1.0032026663549168e-02 0.0000000000000000e+00 1.0032026663549168e-02 -8.5553664458671921e-02 0.0000000000000000e+00 0.0000000000000000e+00 0.0000000000000000e+00 0.0000000000000000e+00  -8.7190858000926311e-02 1.0627608896887948e-02 0.0000000000000000e+00 1.0627608896887948e-02 -8.5423251453465993e-02 0.0000000000000000e+00 0.0000000000000000e+00 0.0000000000000000e+00 0.0000000000000000e+00  -8.6891448516163955e-02 1.1020611316671597e-02 0.0000000000000000e+00 1.1020611316671597e-02 -8.5339995501341956e-02 0.0000000000000000e+00 0.0000000000000000e+00 0.0000000000000000e+00 0.0000000000000000e+00  -8.6606967103520963e-02 1.1227250788667206e-02 0.0000000000000000e+00 1.1227250788667206e-02 -8.5241555349079248e-02 0.0000000000000000e+00 0.0000000000000000e+00 0.0000000000000000e+00 0.0000000000000000e+00  -8.6333807002848151e-02 1.1292437761992893e-02 0.0000000000000000e+00 1.1292437761992893e-02 -8.5117113834014449e-02 0.0000000000000000e+00 0.0000000000000000e+00 0.0000000000000000e+00 0.0000000000000000e+00  -8.6010453437510917e-02 1.1260576830822979e-02 0.0000000000000000e+00 1.1260576830822979e-02 -8.5023302876557572e-02 0.0000000000000000e+00 0.0000000000000000e+00 0.0000000000000000e+00 0.0000000000000000e+00  -8.5515434932137299e-02 1.1144241137444106e-02 0.0000000000000000e+00 1.1144241137444106e-02 -8.5079092013650479e-02 0.0000000000000000e+00 0.0000000000000000e+00 0.0000000000000000e+00 0.0000000000000000e+00  -8.4672053015239890e-02 1.0899956543206893e-02 0.0000000000000000e+00 1.0899956543206893e-02 -8.5445677847718976e-02 0.0000000000000000e+00 0.0000000000000000e+00 0.0000000000000000e+00 0.0000000000000000e+00  -8.3257111182508711e-02 1.0412849047948829e-02 0.0000000000000000e+00 1.0412849047948829e-02 -8.6293891662937883e-02 0.0000000000000000e+00 0.0000000000000000e+00 0.0000000000000000e+00 0.0000000000000000e+00  -8.0998786551096810e-02 9.4946007421495004e-03 0.0000000000000000e+00 9.4946007421495004e-03 -8.7775682252905440e-02 0.0000000000000000e+00 0.0000000000000000e+00 0.0000000000000000e+00 0.0000000000000000e+00  -7.7548010335494758e-02 7.8707476800203152e-03 0.0000000000000000e+00 7.8707476800203152e-03 -8.9997740865727344e-02 0.0000000000000000e+00 0.0000000000000000e+00 0.0000000000000000e+00 0.0000000000000000e+00  -7.2507964363997812e-02 5.1666299928463796e-03 0.0000000000000000e+00 5.1666299928463796e-03 -9.2935639828236077e-02 0.0000000000000000e+00 0.0000000000000000e+00 0.0000000000000000e+00 0.0000000000000000e+00  -6.5037215972463397e-02 8.3461428273364727e-04 0.0000000000000000e+00 8.3461428273364727e-04 -9.6708738608619185e-02 0.0000000000000000e+00 0.0000000000000000e+00 0.0000000000000000e+00 0.0000000000000000e+00  -5.5388460653507048e-02 -5.9164389808408682e-03 0.0000000000000000e+00 -5.9164389808408682e-03 -9.9329139635322805e-02 0.0000000000000000e+00 0.0000000000000000e+00 0.0000000000000000e+00 0.0000000000000000e+00  -4.0857497976809196e-02 -1.7962026706904593e-02 0.0000000000000000e+00 -1.7962026706904593e-02 -1.0464579758368403e-01 0.0000000000000000e+00 0.0000000000000000e+00 0.0000000000000000e+00 0.0000000000000000e+00  -4.2283785925692263e-02 -2.9199219789656866e-02 0.0000000000000000e+00 -2.9199219789656866e-02 -8.7123759924048333e-02 0.0000000000000000e+00 0.0000000000000000e+00 0.0000000000000000e+00 0.0000000000000000e+00  -1.0908522739627227e-01 -1.0395025932087994e-01 0.0000000000000000e+00 -1.0395025932087994e-01 2.3191905320643025e-02 0.0000000000000000e+00 0.0000000000000000e+00 0.0000000000000000e+00 0.0000000000000000e+00  1.1016624275081549e-01 1.5811646203170751e-01 0.0000000000000000e+00 1.5811646203170751e-01 -4.1178104645511826e-01 0.0000000000000000e+00 0.0000000000000000e+00 0.0000000000000000e+00 0.0000000000000000e+00  9.2837358787692097e-03 -1.0003423926058717e-01 0.0000000000000000e+00 -1.0003423926058717e-01 5.1998296909852790e-03 0.0000000000000000e+00 0.0000000000000000e+00 0.0000000000000000e+00 0.0000000000000000e+00  -2.1809480700262146e-02 2.7064580739361178e-03 0.0000000000000000e+00 2.7064580739361178e-03 3.7180358508274673e-03 0.0000000000000000e+00 0.0000000000000000e+00 0.0000000000000000e+00 0.0000000000000000e+00  2.3868457290475093e-03 -3.8176105079086001e-04 0.0000000000000000e+00 -3.8176105079086001e-04 2.9564783834642966e-03 0.0000000000000000e+00 0.0000000000000000e+00 0.0000000000000000e+00 0.0000000000000000e+00  3.7417773058027693e-03 -9.4301589250591602e-04 0.0000000000000000e+00 -9.4301589250591602e-04 3.1173137778276704e-03 0.0000000000000000e+00 0.0000000000000000e+00 0.0000000000000000e+00 0.0000000000000000e+00  -2.3485701498817433e-02 1.4084437965980459e-03 0.0000000000000000e+00 1.4084437965980459e-03 3.8193664650175013e-03 0.0000000000000000e+00 0.0000000000000000e+00 0.0000000000000000e+00 0.0000000000000000e+00  2.9737863092100924e-02 8.4710351202535270e-02 0.0000000000000000e+00 8.4710351202535270e-02 4.3074935948842714e-02 0.0000000000000000e+00 0.0000000000000000e+00 0.0000000000000000e+00 0.0000000000000000e+00  1.5425608179282613e-01 -1.5903953117126751e-01 0.0000000000000000e+00 -1.5903953117126751e-01 -4.4132605426950905e-01 0.0000000000000000e+00 0.0000000000000000e+00 0.0000000000000000e+00 0.0000000000000000e+00  -1.3242780585672217e-01 7.9927124385055420e-02 0.0000000000000000e+00 7.9927124385055420e-02 9.0931151977780931e-03 0.0000000000000000e+00 0.0000000000000000e+00 0.0000000000000000e+00 0.0000000000000000e+00  -5.5228616332212446e-02 2.1944500506408782e-02 0.0000000000000000e+00 2.1944500506408782e-02 -9.1850155882597553e-02 0.0000000000000000e+00 0.0000000000000000e+00 0.0000000000000000e+00 0.0000000000000000e+00  -4.8283343649041653e-02 1.0657674318252857e-02 0.0000000000000000e+00 1.0657674318252857e-02 -1.0801548160799114e-01 0.0000000000000000e+00 0.0000000000000000e+00 0.0000000000000000e+00 0.0000000000000000e+00  -6.1625671666031966e-02 3.6848419289992659e-04 0.0000000000000000e+00 3.6848419289992659e-04 -1.0120056808238387e-01 0.0000000000000000e+00 0.0000000000000000e+00 0.0000000000000000e+00 0.0000000000000000e+00  -7.0227456188826171e-02 -5.1395109044291886e-03 0.0000000000000000e+00 -5.1395109044291886e-03 -9.7628773265129878e-02 0.0000000000000000e+00 0.0000000000000000e+00 0.0000000000000000e+00 0.0000000000000000e+00  -7.6757027147659890e-02 -8.4294693792431406e-03 0.0000000000000000e+00 -8.4294693792431406e-03 -9.3380258930037000e-02 0.0000000000000000e+00 0.0000000000000000e+00 0.0000000000000000e+00 0.0000000000000000e+00  -8.0978701265420699e-02 -1.0327411013608401e-02 0.0000000000000000e+00 -1.0327411013608401e-02 -9.0225053933582766e-02 0.0000000000000000e+00 0.0000000000000000e+00 0.0000000000000000e+00 0.0000000000000000e+00  -8.3734074838812192e-02 -1.1335782887927952e-02 0.0000000000000000e+00 -1.1335782887927952e-02 -8.7946854004127953e-02 0.0000000000000000e+00 0.0000000000000000e+00 0.0000000000000000e+00 0.0000000000000000e+00  -8.5419230072491165e-02 -1.1791453718613008e-02 0.0000000000000000e+00 -1.1791453718613008e-02 -8.6486543084756479e-02 0.0000000000000000e+00 0.0000000000000000e+00 0.0000000000000000e+00 0.0000000000000000e+00  -8.6371665110946252e-02 -1.1932996874694457e-02 0.0000000000000000e+00 -1.1932996874694457e-02 -8.5689702524575029e-02 0.0000000000000000e+00 0.0000000000000000e+00 0.0000000000000000e+00 0.0000000000000000e+00  -8.6848566817072731e-02 -1.1918685034308870e-02 0.0000000000000000e+00 -1.1918685034308870e-02 -8.5376434157476963e-02 0.0000000000000000e+00 0.0000000000000000e+00 0.0000000000000000e+00 0.0000000000000000e+00  -8.7057104208741340e-02 -1.1839583698264785e-02 0.0000000000000000e+00 -1.1839583698264785e-02 -8.5362271360738248e-02 0.0000000000000000e+00 0.0000000000000000e+00 0.0000000000000000e+00 0.0000000000000000e+00  -8.7158488680562085e-02 -1.1721355442666814e-02 0.0000000000000000e+00 -1.1721355442666814e-02 -8.5481068481092229e-02 0.0000000000000000e+00 0.0000000000000000e+00 0.0000000000000000e+00 0.0000000000000000e+00  -8.7260321160678597e-02 -1.1538687542428760e-02 0.0000000000000000e+00 -1.1538687542428760e-02 -8.5613791976442921e-02 0.0000000000000000e+00 0.0000000000000000e+00 0.0000000000000000e+00 0.0000000000000000e+00  -8.7412400576313304e-02 -1.1238371014187613e-02 0.0000000000000000e+00 -1.1238371014187613e-02 -8.5706065821600036e-02 0.0000000000000000e+00 0.0000000000000000e+00 0.0000000000000000e+00 0.0000000000000000e+00  -8.7608841915622904e-02 -1.0769534270028460e-02 0.0000000000000000e+00 -1.0769534270028460e-02 -8.5771767508861299e-02 0.0000000000000000e+00 0.0000000000000000e+00 0.0000000000000000e+00 0.0000000000000000e+00  -8.7803023659879229e-02 -1.0111972255591191e-02 0.0000000000000000e+00 -1.0111972255591191e-02 -8.5876292520052161e-02 0.0000000000000000e+00 0.0000000000000000e+00 0.0000000000000000e+00 0.0000000000000000e+00  -8.7932525602463008e-02 -9.2924597629079758e-03 0.0000000000000000e+00 -9.2924597629079758e-03 -8.6104057763015079e-02 0.0000000000000000e+00 0.0000000000000000e+00 0.0000000000000000e+00 0.0000000000000000e+00  -8.7946699780073953e-02 -8.3829567791966989e-03 0.0000000000000000e+00 -8.3829567791966989e-03 -8.6521277025829735e-02 0.0000000000000000e+00 0.0000000000000000e+00 0.0000000000000000e+00 0.0000000000000000e+00  -8.7827685478638076e-02 -7.4817839900242914e-03 0.0000000000000000e+00 -7.4817839900242914e-03 -8.7147263367343478e-02 0.0000000000000000e+00 0.0000000000000000e+00 0.0000000000000000e+00 0.0000000000000000e+00  -8.7598262381659311e-02 -6.6851405210356244e-03 0.0000000000000000e+00 -6.6851405210356244e-03 -8.7943850529864254e-02 0.0000000000000000e+00 0.0000000000000000e+00 0.0000000000000000e+00 0.0000000000000000e+00  -8.7314621544634735e-02 -6.0593974689814459e-03 0.0000000000000000e+00 -6.0593974689814459e-03 -8.8825841890802046e-02 0.0000000000000000e+00 0.0000000000000000e+00 0.0000000000000000e+00 0.0000000000000000e+00  -8.7047228703935414e-02 -5.6241981167033227e-03 0.0000000000000000e+00 -5.6241981167033227e-03 -8.9688107102747633e-02 0.0000000000000000e+00 0.0000000000000000e+00 0.0000000000000000e+00 0.0000000000000000e+00  -8.6857369752699379e-02 -5.3525292652707203e-03 0.0000000000000000e+00 -5.3525292652707203e-03 -9.0438701569721003e-02 0.0000000000000000e+00 0.0000000000000000e+00 0.0000000000000000e+00 0.0000000000000000e+00  -8.6778768737220360e-02 -5.1870811790792762e-03 0.0000000000000000e+00 -5.1870811790792762e-03 -9.1024882505895868e-02 0.0000000000000000e+00 0.0000000000000000e+00 0.0000000000000000e+00 0.0000000000000000e+00  -8.6810993099182332e-02 -5.0653691719048837e-03 0.0000000000000000e+00 -5.0653691719048837e-03 -9.1442431409977987e-02 0.0000000000000000e+00 0.0000000000000000e+00 0.0000000000000000e+00 0.0000000000000000e+00  -8.6926495088196568e-02 -4.9428934227735543e-03 0.0000000000000000e+00 -4.9428934227735543e-03 -9.1726137053163598e-02 0.0000000000000000e+00 0.0000000000000000e+00 0.0000000000000000e+00 0.0000000000000000e+00  -8.7083616202858483e-02 -4.8064495479507637e-03 0.0000000000000000e+00 -4.8064495479507637e-03 -9.1929963637978812e-02 0.0000000000000000e+00 0.0000000000000000e+00 0.0000000000000000e+00 0.0000000000000000e+00  -8.7248256135293939e-02 -4.6750768481423309e-03 0.0000000000000000e+00 -4.6750768481423309e-03 -9.2098129860986852e-02 0.0000000000000000e+00 0.0000000000000000e+00 0.0000000000000000e+00 0.0000000000000000e+00  -8.7399961724717937e-02 -4.5843050946157704e-03 0.0000000000000000e+00 -4.5843050946157704e-03 -9.2250165461864264e-02 0.0000000000000000e+00 0.0000000000000000e+00 0.0000000000000000e+00 0.0000000000000000e+00  -8.7540453884164121e-02 -4.5669951774222192e-03 0.0000000000000000e+00 -4.5669951774222192e-03 -9.2370766862400519e-02 0.0000000000000000e+00 0.0000000000000000e+00 0.0000000000000000e+00 0.0000000000000000e+00  -8.7701796793110534e-02 -4.6214530428805804e-03 0.0000000000000000e+00 -4.6214530428805804e-03 -9.2385718726068530e-02 0.0000000000000000e+00 0.0000000000000000e+00 0.0000000000000000e+00 0.0000000000000000e+00  -8.7714430356016421e-02 -4.7042460209724525e-03 0.0000000000000000e+00 -4.7042460209724525e-03 -9.2476391453896717e-02 0.0000000000000000e+00 0.0000000000000000e+00 0.0000000000000000e+00 0.0000000000000000e+00  -8.7985934478814615e-02 -4.7668896904696232e-03 0.0000000000000000e+00 -4.7668896904696232e-03 -9.1619960474856488e-02 0.0000000000000000e+00 0.0000000000000000e+00 0.0000000000000000e+00 0.0000000000000000e+00  -8.7170621750210772e-02 -6.3093604984117320e-03 0.0000000000000000e+00 -6.3093604984117320e-03 -9.3767311908237547e-02 0.0000000000000000e+00 0.0000000000000000e+00 0.0000000000000000e+00 0.0000000000000000e+00  -9.3083433432468332e-02 1.1373097675383536e-03 0.0000000000000000e+00 1.1373097675383536e-03 -7.8673614196968944e-02 0.0000000000000000e+00 0.0000000000000000e+00 0.0000000000000000e+00 0.0000000000000000e+00  -1.5987585080468775e-01 -5.0510551643363558e-02 0.0000000000000000e+00 -5.0510551643363558e-02 -3.9062176178297610e-02 0.0000000000000000e+00 0.0000000000000000e+00 0.0000000000000000e+00 0.0000000000000000e+00  2.0759132740979579e-02 9.1981095506804486e-02 0.0000000000000000e+00 9.1981095506804486e-02 -1.4092208978030746e-01 0.0000000000000000e+00 0.0000000000000000e+00 0.0000000000000000e+00 0.0000000000000000e+00  -2.6461077100977597e-02 -1.1913354653286315e-01 0.0000000000000000e+00 -1.1913354653286315e-01 -1.3278416599495160e-01 0.0000000000000000e+00 0.0000000000000000e+00 0.0000000000000000e+00 0.0000000000000000e+00  -1.7881270596376262e-02 1.6798505502804807e-02 0.0000000000000000e+00 1.6798505502804807e-02 4.7739848881901081e-02 0.0000000000000000e+00 0.0000000000000000e+00 0.0000000000000000e+00 0.0000000000000000e+00  8.4376009372990005e-03 -2.8751907273047391e-03 0.0000000000000000e+00 -2.8751907273047391e-03 1.0400341313631047e-02 0.0000000000000000e+00 0.0000000000000000e+00 0.0000000000000000e+00 0.0000000000000000e+00  7.2067501527904197e-03 -9.7410558407326717e-05 0.0000000000000000e+00 -9.7410558407326717e-05 7.6935252942125906e-03 0.0000000000000000e+00 0.0000000000000000e+00 0.0000000000000000e+00 0.0000000000000000e+00  7.8105097583679459e-03 4.1271518477411597e-05 0.0000000000000000e+00 4.1271518477411597e-05 7.8025284619047102e-03 0.0000000000000000e+00 0.0000000000000000e+00 0.0000000000000000e+00 0.0000000000000000e+00  7.7675835955547902e-03 -1.6704075452938346e-05 0.0000000000000000e+00 -1.6704075452938346e-05 7.7689905779879786e-03 0.0000000000000000e+00 0.0000000000000000e+00 0.0000000000000000e+00 0.0000000000000000e+00  7.7744929929094847e-03 -2.3346088058814323e-05 0.0000000000000000e+00 -2.3346088058814323e-05 7.7808254529392442e-03 0.0000000000000000e+00 0.0000000000000000e+00 0.0000000000000000e+00 0.0000000000000000e+00  7.7758343458200338e-03 -4.1443133195111525e-05 0.0000000000000000e+00 -4.1443133195111525e-05 7.7793863003268269e-03 0.0000000000000000e+00 0.0000000000000000e+00 0.0000000000000000e+00 0.0000000000000000e+00  7.7721297639309428e-03 4.6518175160785870e-05 0.0000000000000000e+00 4.6518175160785870e-05 7.7749709980324396e-03 0.0000000000000000e+00 0.0000000000000000e+00 0.0000000000000000e+00 0.0000000000000000e+00  7.7729963947198106e-03 2.4726286884703405e-05 0.0000000000000000e+00 2.4726286884703405e-05 7.7744150426919748e-03 0.0000000000000000e+00 0.0000000000000000e+00 0.0000000000000000e+00 0.0000000000000000e+00  7.7635865653363457e-03 -1.8541500364654850e-06 0.0000000000000000e+00 -1.8541500364654850e-06 7.7657978293918647e-03 0.0000000000000000e+00 0.0000000000000000e+00 0.0000000000000000e+00 0.0000000000000000e+00  7.7850995364588471e-03 9.9664418281278158e-05 0.0000000000000000e+00 9.9664418281278158e-05 7.7483970906462706e-03 0.0000000000000000e+00 0.0000000000000000e+00 0.0000000000000000e+00 0.0000000000000000e+00  7.7684972125730920e-03 -9.7640629543153837e-04 0.0000000000000000e+00 -9.7640629543153837e-04 9.2327912192941008e-03 0.0000000000000000e+00 0.0000000000000000e+00 0.0000000000000000e+00 0.0000000000000000e+00  -7.7978040616356803e-03 7.7930611959364212e-03 0.0000000000000000e+00 7.7930611959364212e-03 1.0213182597422118e-02 0.0000000000000000e+00 0.0000000000000000e+00 0.0000000000000000e+00 0.0000000000000000e+00  2.5875071085759333e-02 2.1719836383333885e-02 0.0000000000000000e+00 2.1719836383333885e-02 1.1626987482463758e-01 0.0000000000000000e+00 0.0000000000000000e+00 0.0000000000000000e+00 0.0000000000000000e+00  1.6932876134518776e-01 -1.4060424457595708e-01 0.0000000000000000e+00 -1.4060424457595708e-01 -4.7660805583001092e-01 0.0000000000000000e+00 0.0000000000000000e+00 0.0000000000000000e+00 0.0000000000000000e+00  -1.7454530718765224e-01 4.4337814587042265e-02 0.0000000000000000e+00 4.4337814587042265e-02 6.0021335154735615e-02 0.0000000000000000e+00 0.0000000000000000e+00 0.0000000000000000e+00 0.0000000000000000e+00  -1.2322114496129234e-01 3.8067281921510864e-03 0.0000000000000000e+00 3.8067281921510864e-03 -7.5921948840550146e-02 0.0000000000000000e+00 0.0000000000000000e+00 0.0000000000000000e+00 0.0000000000000000e+00  -8.7369947509034096e-02 8.4234156407468792e-03 0.0000000000000000e+00 8.4234156407468792e-03 -9.0722841090643228e-02 0.0000000000000000e+00 0.0000000000000000e+00 0.0000000000000000e+00 0.0000000000000000e+00  -8.6987641363132001e-02 5.3995978235697089e-03 0.0000000000000000e+00 5.3995978235697089e-03 -9.0746362821200466e-02 0.0000000000000000e+00 0.0000000000000000e+00 0.0000000000000000e+00 0.0000000000000000e+00  -8.6580863774903358e-02 5.1097235146264795e-03 0.0000000000000000e+00 5.1097235146264795e-03 -9.2568127377523707e-02 0.0000000000000000e+00 0.0000000000000000e+00 0.0000000000000000e+00 0.0000000000000000e+00  -8.6891021122807222e-02 4.7084789833425405e-03 0.0000000000000000e+00 4.7084789833425405e-03 -9.2503879091133764e-02 0.0000000000000000e+00 0.0000000000000000e+00 0.0000000000000000e+00 0.0000000000000000e+00  -8.6823497222481658e-02 4.4995713437859528e-03 0.0000000000000000e+00 4.4995713437859528e-03 -9.2714849140956429e-02 0.0000000000000000e+00 0.0000000000000000e+00 0.0000000000000000e+00 0.0000000000000000e+00  -8.6753517072270955e-02 4.3977140580061542e-03 0.0000000000000000e+00 4.3977140580061542e-03 -9.2723155281288064e-02 0.0000000000000000e+00 0.0000000000000000e+00 0.0000000000000000e+00 0.0000000000000000e+00  -8.6625527824407328e-02 4.3940132978495788e-03 0.0000000000000000e+00 4.3940132978495788e-03 -9.2675526962480950e-02 0.0000000000000000e+00 0.0000000000000000e+00 0.0000000000000000e+00 0.0000000000000000e+00  -8.6476331776354456e-02 4.4692371301682729e-03 0.0000000000000000e+00 4.4692371301682729e-03 -9.2561028479950819e-02 0.0000000000000000e+00 0.0000000000000000e+00 0.0000000000000000e+00 0.0000000000000000e+00  -8.6311442631860275e-02 4.6007392643604766e-03 0.0000000000000000e+00 4.6007392643604766e-03 -9.2391973883773876e-02 0.0000000000000000e+00 0.0000000000000000e+00 0.0000000000000000e+00 0.0000000000000000e+00  -8.6146118438531649e-02 4.7639621568406950e-03 0.0000000000000000e+00 4.7639621568406950e-03 -9.2158943586579112e-02 0.0000000000000000e+00 0.0000000000000000e+00 0.0000000000000000e+00 0.0000000000000000e+00  -8.6002583246481260e-02 4.9472595422091576e-03 0.0000000000000000e+00 4.9472595422091576e-03 -9.1839063915169161e-02 0.0000000000000000e+00 0.0000000000000000e+00 0.0000000000000000e+00 0.0000000000000000e+00  -8.5903052858622528e-02 5.1576336983904019e-03 0.0000000000000000e+00 5.1576336983904019e-03 -9.1407253108774913e-02 0.0000000000000000e+00 0.0000000000000000e+00 0.0000000000000000e+00 0.0000000000000000e+00  -8.5860819019100004e-02 5.4202538803589904e-03 0.0000000000000000e+00 5.4202538803589904e-03 -9.0849922159993449e-02 0.0000000000000000e+00 0.0000000000000000e+00 0.0000000000000000e+00 0.0000000000000000e+00  -8.5871454975326958e-02 5.7695296162855710e-03 0.0000000000000000e+00 5.7695296162855710e-03 -9.0177167223530058e-02 0.0000000000000000e+00 0.0000000000000000e+00 0.0000000000000000e+00 0.0000000000000000e+00  -8.5909918469811344e-02 6.2349239898036304e-03 0.0000000000000000e+00 6.2349239898036304e-03 -8.9426814530829513e-02 0.0000000000000000e+00 0.0000000000000000e+00 0.0000000000000000e+00 0.0000000000000000e+00  -8.5934855789823447e-02 6.8263433523436884e-03 0.0000000000000000e+00 6.8263433523436884e-03 -8.8658250277193179e-02 0.0000000000000000e+00 0.0000000000000000e+00 0.0000000000000000e+00 0.0000000000000000e+00  -8.5899509039925381e-02 7.5248513924467842e-03 0.0000000000000000e+00 7.5248513924467842e-03 -8.7937114245930190e-02 0.0000000000000000e+00 0.0000000000000000e+00 0.0000000000000000e+00 0.0000000000000000e+00  -8.5765200331740357e-02 8.2827470536939261e-03 0.0000000000000000e+00 8.2827470536939261e-03 -8.7316329801715928e-02 0.0000000000000000e+00 0.0000000000000000e+00 0.0000000000000000e+00 0.0000000000000000e+00  -8.5512029598402955e-02 9.0333210747953856e-03 0.0000000000000000e+00 9.0333210747953856e-03 -8.6820773093021927e-02 0.0000000000000000e+00 0.0000000000000000e+00 0.0000000000000000e+00 0.0000000000000000e+00  -8.5142252519640374e-02 9.7067449862655204e-03 0.0000000000000000e+00 9.7067449862655204e-03 -8.6441687511182683e-02 0.0000000000000000e+00 0.0000000000000000e+00 0.0000000000000000e+00 0.0000000000000000e+00  -8.4674336434035130e-02 1.0246100194622413e-02 0.0000000000000000e+00 1.0246100194622413e-02 -8.6143420235046175e-02 0.0000000000000000e+00 0.0000000000000000e+00 0.0000000000000000e+00 0.0000000000000000e+00  -8.4128873610227015e-02 1.0617275286868951e-02 0.0000000000000000e+00 1.0617275286868951e-02 -8.5880610140412733e-02 0.0000000000000000e+00 0.0000000000000000e+00 0.0000000000000000e+00 0.0000000000000000e+00  -8.3510300995443973e-02 1.0808406165986032e-02 0.0000000000000000e+00 1.0808406165986032e-02 -8.5620054947304763e-02 0.0000000000000000e+00 0.0000000000000000e+00 0.0000000000000000e+00 0.0000000000000000e+00  -8.2789637463164312e-02 1.0818132696960938e-02 0.0000000000000000e+00 1.0818132696960938e-02 -8.5359596420423664e-02 0.0000000000000000e+00 0.0000000000000000e+00 0.0000000000000000e+00 0.0000000000000000e+00  -8.1892576121940980e-02 1.0635759226648077e-02 0.0000000000000000e+00 1.0635759226648077e-02 -8.5137360096787018e-02 0.0000000000000000e+00 0.0000000000000000e+00 0.0000000000000000e+00 0.0000000000000000e+00  -8.0694070436320084e-02 1.0218612814417754e-02 0.0000000000000000e+00 1.0218612814417754e-02 -8.5028521458098597e-02 0.0000000000000000e+00 0.0000000000000000e+00 0.0000000000000000e+00 0.0000000000000000e+00  -7.9017870643581414e-02 9.4709837107079323e-03 0.0000000000000000e+00 9.4709837107079323e-03 -8.5130021903737418e-02 0.0000000000000000e+00 0.0000000000000000e+00 0.0000000000000000e+00 0.0000000000000000e+00  -7.6635954083468905e-02 8.2273620496025688e-03 0.0000000000000000e+00 8.2273620496025688e-03 -8.5537232706522554e-02 0.0000000000000000e+00 0.0000000000000000e+00 0.0000000000000000e+00 0.0000000000000000e+00  -7.3261860991084629e-02 6.2348526339876973e-03 0.0000000000000000e+00 6.2348526339876973e-03 -8.6314918228215201e-02 0.0000000000000000e+00 0.0000000000000000e+00 0.0000000000000000e+00 0.0000000000000000e+00  -6.8545876516235490e-02 3.1348669762988001e-03 0.0000000000000000e+00 3.1348669762988001e-03 -8.7451096143824500e-02 0.0000000000000000e+00 0.0000000000000000e+00 0.0000000000000000e+00 0.0000000000000000e+00  -6.2007050923061989e-02 -1.5804454969322555e-03 0.0000000000000000e+00 -1.5804454969322555e-03 -8.8843501938539321e-02 0.0000000000000000e+00 0.0000000000000000e+00 0.0000000000000000e+00 0.0000000000000000e+00  -5.3215570465198495e-02 -8.6259350720642412e-03 0.0000000000000000e+00 -8.6259350720642412e-03 -8.9954708921871754e-02 0.0000000000000000e+00 0.0000000000000000e+00 0.0000000000000000e+00 0.0000000000000000e+00  -4.1153547444245576e-02 -1.8974009479864492e-02 0.0000000000000000e+00 -1.8974009479864492e-02 -9.0480808933216292e-02 0.0000000000000000e+00 0.0000000000000000e+00 0.0000000000000000e+00 0.0000000000000000e+00  -2.6179611074320853e-02 -3.3798146282754363e-02 0.0000000000000000e+00 -3.3798146282754363e-02 -8.7331696321545693e-02 0.0000000000000000e+00 0.0000000000000000e+00 0.0000000000000000e+00 0.0000000000000000e+00  -7.0559557760725726e-03 -5.5075608887163570e-02 0.0000000000000000e+00 -5.5075608887163570e-02 -7.7233860650191749e-02 0.0000000000000000e+00 0.0000000000000000e+00 0.0000000000000000e+00 0.0000000000000000e+00  -1.7572125698527976e-02 -1.0196692915353292e-01 0.0000000000000000e+00 -1.0196692915353292e-01 -5.4110697178236675e-02 0.0000000000000000e+00 0.0000000000000000e+00 0.0000000000000000e+00 0.0000000000000000e+00  -1.8561730972956310e-03 -1.7926852256282658e-01 0.0000000000000000e+00 -1.7926852256282658e-01 1.5310532710997951e-01 0.0000000000000000e+00 0.0000000000000000e+00 0.0000000000000000e+00 0.0000000000000000e+00  -5.5576020522940167e-02 5.4837837891163872e-02 0.0000000000000000e+00 5.4837837891163872e-02 -4.2921358082838057e-01 0.0000000000000000e+00 0.0000000000000000e+00 0.0000000000000000e+00 0.0000000000000000e+00  1.3107784582971327e-02 -1.4458633720181699e-02 0.0000000000000000e+00 -1.4458633720181699e-02 2.8495381560028697e-02 0.0000000000000000e+00 0.0000000000000000e+00 0.0000000000000000e+00 0.0000000000000000e+00  -1.8708323583946182e-02 -8.8384042826781233e-03 0.0000000000000000e+00 -8.8384042826781233e-03 -1.3489631705724744e-02 0.0000000000000000e+00 0.0000000000000000e+00 0.0000000000000000e+00 0.0000000000000000e+00  -2.3760201670990598e-02 1.1574580095790767e-02 0.0000000000000000e+00 1.1574580095790767e-02 -1.0485831634837498e-02 0.0000000000000000e+00 0.0000000000000000e+00 0.0000000000000000e+00 0.0000000000000000e+00  2.2664010301706661e-02 -9.4698553015854694e-03 0.0000000000000000e+00 -9.4698553015854694e-03 4.5114184329805566e-02 0.0000000000000000e+00 0.0000000000000000e+00 0.0000000000000000e+00 0.0000000000000000e+00  5.0603101172450411e-03 -7.6406956390565632e-03 0.0000000000000000e+00 -7.6406956390565632e-03 -4.0085713128301859e-01 0.0000000000000000e+00 0.0000000000000000e+00 0.0000000000000000e+00 0.0000000000000000e+00  -2.5434165380870812e-02 1.2965290685833977e-01 0.0000000000000000e+00 1.2965290685833977e-01 1.1043693491371884e-01 0.0000000000000000e+00 0.0000000000000000e+00 0.0000000000000000e+00 0.0000000000000000e+00  -3.7404133997343485e-02 9.7601418668654474e-02 0.0000000000000000e+00 9.7601418668654474e-02 -6.3609194384692841e-02 0.0000000000000000e+00 0.0000000000000000e+00 0.0000000000000000e+00 0.0000000000000000e+00  -1.3054852166168689e-02 4.5997203106154662e-02 0.0000000000000000e+00 4.5997203106154662e-02 -8.3403481816813868e-02 0.0000000000000000e+00 0.0000000000000000e+00 0.0000000000000000e+00 0.0000000000000000e+00  -3.0887936722562997e-02 2.6235272065399221e-02 0.0000000000000000e+00 2.6235272065399221e-02 -9.2339921601062344e-02 0.0000000000000000e+00 0.0000000000000000e+00 0.0000000000000000e+00 0.0000000000000000e+00  -4.5629286314951466e-02 1.2654987318984756e-02 0.0000000000000000e+00 1.2654987318984756e-02 -9.3669756342405999e-02 0.0000000000000000e+00 0.0000000000000000e+00 0.0000000000000000e+00 0.0000000000000000e+00  -5.7232602478914006e-02 3.5686644915889965e-03 0.0000000000000000e+00 3.5686644915889965e-03 -9.2034654976785910e-02 0.0000000000000000e+00 0.0000000000000000e+00 0.0000000000000000e+00 0.0000000000000000e+00  -6.5489781126297983e-02 -2.4130696948041755e-03 0.0000000000000000e+00 -2.4130696948041755e-03 -9.0217110055298005e-02 0.0000000000000000e+00 0.0000000000000000e+00 0.0000000000000000e+00 0.0000000000000000e+00  -7.1483322278144398e-02 -6.2483870241420965e-03 0.0000000000000000e+00 -6.2483870241420965e-03 -8.8417586019157904e-02 0.0000000000000000e+00 0.0000000000000000e+00 0.0000000000000000e+00 0.0000000000000000e+00  -7.5693597003873375e-02 -8.6429042539148664e-03 0.0000000000000000e+00 -8.6429042539148664e-03 -8.7058582262274892e-02 0.0000000000000000e+00 0.0000000000000000e+00 0.0000000000000000e+00 0.0000000000000000e+00  -7.8622179347961896e-02 -1.0079712779637266e-02 0.0000000000000000e+00 -1.0079712779637266e-02 -8.6169010746498215e-02 0.0000000000000000e+00 0.0000000000000000e+00 0.0000000000000000e+00 0.0000000000000000e+00  -8.0626494872282239e-02 -1.0890420638832662e-02 0.0000000000000000e+00 -1.0890420638832662e-02 -8.5709179634399058e-02 0.0000000000000000e+00 0.0000000000000000e+00 0.0000000000000000e+00 0.0000000000000000e+00  -8.1991292132152990e-02 -1.1302383075153990e-02 0.0000000000000000e+00 -1.1302383075153990e-02 -8.5582247090230087e-02 0.0000000000000000e+00 0.0000000000000000e+00 0.0000000000000000e+00 0.0000000000000000e+00  -8.2938136468775861e-02 -1.1459122398615296e-02 0.0000000000000000e+00 -1.1459122398615296e-02 -8.5674023829771892e-02 0.0000000000000000e+00 0.0000000000000000e+00 0.0000000000000000e+00 0.0000000000000000e+00  -8.3634632557627958e-02 -1.1438522996710937e-02 0.0000000000000000e+00 -1.1438522996710937e-02 -8.5877782222738772e-02 0.0000000000000000e+00 0.0000000000000000e+00 0.0000000000000000e+00 0.0000000000000000e+00  -8.4196760713757368e-02 -1.1269434081322671e-02 0.0000000000000000e+00 -1.1269434081322671e-02 -8.6114183316320314e-02 0.0000000000000000e+00 0.0000000000000000e+00 0.0000000000000000e+00 0.0000000000000000e+00  -8.4690355893055888e-02 -1.0952157000686047e-02 0.0000000000000000e+00 -1.0952157000686047e-02 -8.6344170007198573e-02 0.0000000000000000e+00 0.0000000000000000e+00 0.0000000000000000e+00 0.0000000000000000e+00  -8.5137028965486264e-02 -1.0480390285676046e-02 0.0000000000000000e+00 -1.0480390285676046e-02 -8.6570613664636933e-02 0.0000000000000000e+00 0.0000000000000000e+00 0.0000000000000000e+00 0.0000000000000000e+00  -8.5526241877076373e-02 -9.8604095424500333e-03 0.0000000000000000e+00 -9.8604095424500333e-03 -8.6828095846889095e-02 0.0000000000000000e+00 0.0000000000000000e+00 0.0000000000000000e+00 0.0000000000000000e+00  -8.5832547837580930e-02 -9.1222576857556796e-03 0.0000000000000000e+00 -9.1222576857556796e-03 -8.7163453798275059e-02 0.0000000000000000e+00 0.0000000000000000e+00 0.0000000000000000e+00 0.0000000000000000e+00  -8.6033756732498620e-02 -8.3198598603406535e-03 0.0000000000000000e+00 -8.3198598603406535e-03 -8.7613605932047603e-02 0.0000000000000000e+00 0.0000000000000000e+00 0.0000000000000000e+00 0.0000000000000000e+00  -8.6124861678083087e-02 -7.5207704025612677e-03 0.0000000000000000e+00 -7.5207704025612677e-03 -8.8188231938505848e-02 0.0000000000000000e+00 0.0000000000000000e+00 0.0000000000000000e+00 0.0000000000000000e+00  -8.6123795028155925e-02 -6.7898679272895644e-03 0.0000000000000000e+00 -6.7898679272895644e-03 -8.8863031806323170e-02 0.0000000000000000e+00 0.0000000000000000e+00 0.0000000000000000e+00 0.0000000000000000e+00  -8.6067848391322824e-02 -6.1732753358622874e-03 0.0000000000000000e+00 -6.1732753358622874e-03 -8.9585394123706516e-02 0.0000000000000000e+00 0.0000000000000000e+00 0.0000000000000000e+00 0.0000000000000000e+00  -8.6002782384978466e-02 -5.6885002929919918e-03 0.0000000000000000e+00 -5.6885002929919918e-03 -9.0289847916735264e-02 0.0000000000000000e+00 0.0000000000000000e+00 0.0000000000000000e+00 0.0000000000000000e+00  -8.5969186224057303e-02 -5.3243277678771319e-03 0.0000000000000000e+00 -5.3243277678771319e-03 -9.0917143027280684e-02 0.0000000000000000e+00 0.0000000000000000e+00 0.0000000000000000e+00 0.0000000000000000e+00  -8.5991464227506365e-02 -5.0501180798816275e-03 0.0000000000000000e+00 -5.0501180798816275e-03 -9.1429626997024407e-02 0.0000000000000000e+00 0.0000000000000000e+00 0.0000000000000000e+00 0.0000000000000000e+00  -8.6073467408382398e-02 -4.8304389481551259e-03 0.0000000000000000e+00 -4.8304389481551259e-03 -9.1817447679934910e-02 0.0000000000000000e+00 0.0000000000000000e+00 0.0000000000000000e+00 0.0000000000000000e+00  -8.6201345905051366e-02 -4.6392719288987274e-03 0.0000000000000000e+00 -4.6392719288987274e-03 -9.2094523395027911e-02 0.0000000000000000e+00 0.0000000000000000e+00 0.0000000000000000e+00 0.0000000000000000e+00  -8.6352304488716017e-02 -4.4689665436064155e-03 0.0000000000000000e+00 -4.4689665436064155e-03 -9.2286360330926562e-02 0.0000000000000000e+00 0.0000000000000000e+00 0.0000000000000000e+00 0.0000000000000000e+00  -8.6503484721128718e-02 -4.3307823882644684e-03 0.0000000000000000e+00 -4.3307823882644684e-03 -9.2416352356659723e-02 0.0000000000000000e+00 0.0000000000000000e+00 0.0000000000000000e+00 0.0000000000000000e+00  -8.6638975876629554e-02 -4.2492385141288166e-03 0.0000000000000000e+00 -4.2492385141288166e-03 -9.2494461450869120e-02 0.0000000000000000e+00 0.0000000000000000e+00 0.0000000000000000e+00 0.0000000000000000e+00  -8.6752658986652201e-02 -4.2473599395476290e-03 0.0000000000000000e+00 -4.2473599395476290e-03 -9.2508753253649059e-02 0.0000000000000000e+00 0.0000000000000000e+00 0.0000000000000000e+00 0.0000000000000000e+00  -8.6807460972233769e-02 -4.3451092505187999e-03 0.0000000000000000e+00 -4.3451092505187999e-03 -9.2470114203175566e-02 0.0000000000000000e+00 0.0000000000000000e+00 0.0000000000000000e+00 0.0000000000000000e+00  -8.6859110875776052e-02 -4.5520758353220564e-03 0.0000000000000000e+00 -4.5520758353220564e-03 -9.2231060551384345e-02 0.0000000000000000e+00 0.0000000000000000e+00 0.0000000000000000e+00 0.0000000000000000e+00  -8.6533462738738631e-02 -4.9538327056464901e-03 0.0000000000000000e+00 -4.9538327056464901e-03 -9.2268293628691836e-02 0.0000000000000000e+00 0.0000000000000000e+00 0.0000000000000000e+00 0.0000000000000000e+00  -8.6925122868801927e-02 -5.2443741208113171e-03 0.0000000000000000e+00 -5.2443741208113171e-03 -9.0418947044019191e-02 0.0000000000000000e+00 0.0000000000000000e+00 0.0000000000000000e+00 0.0000000000000000e+00  -8.7288134234823345e-02 -8.2697858601408526e-03 0.0000000000000000e+00 -8.2697858601408526e-03 -9.0374625869564143e-02 0.0000000000000000e+00 0.0000000000000000e+00 0.0000000000000000e+00 0.0000000000000000e+00  -1.2305969163348617e-01 -3.6102580040847949e-03 0.0000000000000000e+00 -3.6102580040847949e-03 -7.5549491666088500e-02 0.0000000000000000e+00 0.0000000000000000e+00 0.0000000000000000e+00 0.0000000000000000e+00  -1.7448412903312899e-01 -4.4206511653527555e-02 0.0000000000000000e+00 -4.4206511653527555e-02 6.0290977286727075e-02 0.0000000000000000e+00 0.0000000000000000e+00 0.0000000000000000e+00 0.0000000000000000e+00  1.6895014125163355e-01 1.4078723789699407e-01 0.0000000000000000e+00 1.4078723789699407e-01 -4.7679483023503044e-01 0.0000000000000000e+00 0.0000000000000000e+00 0.0000000000000000e+00 0.0000000000000000e+00  2.4713248144382808e-02 -2.1774491078337382e-02 0.0000000000000000e+00 -2.1774491078337382e-02 1.1526035272615998e-01 0.0000000000000000e+00 0.0000000000000000e+00 0.0000000000000000e+00 0.0000000000000000e+00  -8.4989220706113630e-03 -7.8009999143212995e-03 0.0000000000000000e+00 -7.8009999143212995e-03 9.8574723613583572e-03 0.0000000000000000e+00 0.0000000000000000e+00 0.0000000000000000e+00 0.0000000000000000e+00  7.8560124524719235e-03 9.6046348821747236e-04 0.0000000000000000e+00 9.6046348821747236e-04 9.2893414293833652e-03 0.0000000000000000e+00 0.0000000000000000e+00 0.0000000000000000e+00 0.0000000000000000e+00  7.7670433419024520e-03 -7.9834170778979522e-05 0.0000000000000000e+00 -7.9834170778979522e-05 7.7574811152785169e-03 0.0000000000000000e+00 0.0000000000000000e+00 0.0000000000000000e+00 0.0000000000000000e+00  7.7853130622196464e-03 -1.3116611378555562e-06 0.0000000000000000e+00 -1.3116611378555562e-06 7.7938076936942876e-03 0.0000000000000000e+00 0.0000000000000000e+00 0.0000000000000000e+00 0.0000000000000000e+00  7.7978403456984762e-03 -2.4331541685561475e-05 0.0000000000000000e+00 -2.4331541685561475e-05 7.7976477912653714e-03 0.0000000000000000e+00 0.0000000000000000e+00 0.0000000000000000e+00 0.0000000000000000e+00  7.7969237316367814e-03 -4.2272152070501107e-05 0.0000000000000000e+00 -4.2272152070501107e-05 7.7982586872375219e-03 0.0000000000000000e+00 0.0000000000000000e+00 0.0000000000000000e+00 0.0000000000000000e+00  7.7978631389888694e-03 4.6838492258893303e-05 0.0000000000000000e+00 4.6838492258893303e-05 7.7988115762412736e-03 0.0000000000000000e+00 0.0000000000000000e+00 0.0000000000000000e+00 0.0000000000000000e+00  7.7986073033991530e-03 2.5045818605845383e-05 0.0000000000000000e+00 2.5045818605845383e-05 7.7951088009869272e-03 0.0000000000000000e+00 0.0000000000000000e+00 0.0000000000000000e+00 0.0000000000000000e+00  7.8067670876680404e-03 -9.7750073872825552e-06 0.0000000000000000e+00 -9.7750073872825552e-06 7.8050317451856021e-03 0.0000000000000000e+00 0.0000000000000000e+00 0.0000000000000000e+00 0.0000000000000000e+00  7.5083955798081045e-03 9.9581500146170241e-05 0.0000000000000000e+00 9.9581500146170241e-05 7.7117756943243312e-03 0.0000000000000000e+00 0.0000000000000000e+00 0.0000000000000000e+00 0.0000000000000000e+00  8.5144281205766573e-03 1.0932944355247353e-03 0.0000000000000000e+00 1.0932944355247353e-03 1.0765500360941073e-02 0.0000000000000000e+00 0.0000000000000000e+00 0.0000000000000000e+00 0.0000000000000000e+00  -1.6992872332008097e-02 -1.4981802647712298e-02 0.0000000000000000e+00 -1.4981802647712298e-02 4.8462491645617022e-02 0.0000000000000000e+00 0.0000000000000000e+00 0.0000000000000000e+00 0.0000000000000000e+00  6.1782496934848184e-02 1.0591005669520782e-01 0.0000000000000000e+00 1.0591005669520782e-01 -6.8898371272850784e-02 0.0000000000000000e+00 0.0000000000000000e+00 0.0000000000000000e+00 0.0000000000000000e+00  3.8835923392165891e-02 -3.9088171212811246e-02 0.0000000000000000e+00 -3.9088171212811246e-02 -1.0904449568837260e-01 0.0000000000000000e+00 0.0000000000000000e+00 0.0000000000000000e+00 0.0000000000000000e+00  -1.8514878394514425e-01 2.2039604447153690e-02 0.0000000000000000e+00 2.2039604447153690e-02 -7.6629181191474188e-02 0.0000000000000000e+00 0.0000000000000000e+00 0.0000000000000000e+00 0.0000000000000000e+00  -9.7482263455556453e-02 6.5195267159895110e-03 0.0000000000000000e+00 6.5195267159895110e-03 -7.6474489287770883e-02 0.0000000000000000e+00 0.0000000000000000e+00 0.0000000000000000e+00 0.0000000000000000e+00  -8.6362157256611491e-02 6.3380808708292432e-03 0.0000000000000000e+00 6.3380808708292432e-03 -9.0641431043150159e-02 0.0000000000000000e+00 0.0000000000000000e+00 0.0000000000000000e+00 0.0000000000000000e+00  -8.6403713557161060e-02 5.6983640217265945e-03 0.0000000000000000e+00 5.6983640217265945e-03 -9.1092660252966473e-02 0.0000000000000000e+00 0.0000000000000000e+00 0.0000000000000000e+00 0.0000000000000000e+00  -8.6348725453922567e-02 5.0101577247296915e-03 0.0000000000000000e+00 5.0101577247296915e-03 -9.1826696525705728e-02 0.0000000000000000e+00 0.0000000000000000e+00 0.0000000000000000e+00 0.0000000000000000e+00  -8.6263344135904307e-02 4.5133270585589009e-03 0.0000000000000000e+00 4.5133270585589009e-03 -9.2394859875187724e-02 0.0000000000000000e+00 0.0000000000000000e+00 0.0000000000000000e+00 0.0000000000000000e+00  -8.6192746753979782e-02 4.2055795680384367e-03 0.0000000000000000e+00 4.2055795680384367e-03 -9.2657776984857457e-02 0.0000000000000000e+00 0.0000000000000000e+00 0.0000000000000000e+00 0.0000000000000000e+00  -8.6052229027745286e-02 4.0550831242428314e-03 0.0000000000000000e+00 4.0550831242428314e-03 -9.2831540508325025e-02 0.0000000000000000e+00 0.0000000000000000e+00 0.0000000000000000e+00 0.0000000000000000e+00  -8.5894628910050355e-02 4.0295596001416615e-03 0.0000000000000000e+00 4.0295596001416615e-03 -9.2888300591709813e-02 0.0000000000000000e+00 0.0000000000000000e+00 0.0000000000000000e+00 0.0000000000000000e+00  -8.5718043526119600e-02 4.0997811657665509e-03 0.0000000000000000e+00 4.0997811657665509e-03 -9.2856769023195368e-02 0.0000000000000000e+00 0.0000000000000000e+00 0.0000000000000000e+00 0.0000000000000000e+00  -8.5530811085769098e-02 4.2390444520153175e-03 0.0000000000000000e+00 4.2390444520153175e-03 -9.2741805317984150e-02 0.0000000000000000e+00 0.0000000000000000e+00 0.0000000000000000e+00 0.0000000000000000e+00  -8.5340192465994474e-02 4.4272620779656317e-03 0.0000000000000000e+00 4.4272620779656317e-03 -9.2543152135733081e-02 0.0000000000000000e+00 0.0000000000000000e+00 0.0000000000000000e+00 0.0000000000000000e+00  -8.5156791930775161e-02 4.6541175664670306e-03 0.0000000000000000e+00 4.6541175664670306e-03 -9.2252995200001700e-02 0.0000000000000000e+00 0.0000000000000000e+00 0.0000000000000000e+00 0.0000000000000000e+00  -8.4990649146978056e-02 4.9218809890703777e-03 0.0000000000000000e+00 4.9218809890703777e-03 -9.1862708578365107e-02 0.0000000000000000e+00 0.0000000000000000e+00 0.0000000000000000e+00 0.0000000000000000e+00  -8.4845717241753590e-02 5.2435348128591509e-03 0.0000000000000000e+00 5.2435348128591509e-03 -9.1370817738658211e-02 0.0000000000000000e+00 0.0000000000000000e+00 0.0000000000000000e+00 0.0000000000000000e+00  -8.4715232817627981e-02 5.6367661744792527e-03 0.0000000000000000e+00 5.6367661744792527e-03 -9.0789340833271004e-02 0.0000000000000000e+00 0.0000000000000000e+00 0.0000000000000000e+00 0.0000000000000000e+00  -8.4580130029554404e-02 6.1151042958357956e-03 0.0000000000000000e+00 6.1151042958357956e-03 -9.0145693838969421e-02 0.0000000000000000e+00 0.0000000000000000e+00 0.0000000000000000e+00 0.0000000000000000e+00  -8.4411806988847052e-02 6.6791504503446930e-03 0.0000000000000000e+00 6.6791504503446930e-03 -8.9478611692209595e-02 0.0000000000000000e+00 0.0000000000000000e+00 0.0000000000000000e+00 0.0000000000000000e+00  -8.4178505544155527e-02 7.3110718970452980e-03 0.0000000000000000e+00 7.3110718970452980e-03 -8.8829079275791117e-02 0.0000000000000000e+00 0.0000000000000000e+00 0.0000000000000000e+00 0.0000000000000000e+00  -8.3852995749902973e-02 7.9744981943856326e-03 0.0000000000000000e+00 7.9744981943856326e-03 -8.8229364168064039e-02 0.0000000000000000e+00 0.0000000000000000e+00 0.0000000000000000e+00 0.0000000000000000e+00  -8.3418433355822275e-02 8.6199034712935423e-03 0.0000000000000000e+00 8.6199034712935423e-03 -8.7694277298804552e-02 0.0000000000000000e+00 0.0000000000000000e+00 0.0000000000000000e+00 0.0000000000000000e+00  -8.2869715529643465e-02 9.1933543141139093e-03 0.0000000000000000e+00 9.1933543141139093e-03 -8.7218131462652032e-02 0.0000000000000000e+00 0.0000000000000000e+00 0.0000000000000000e+00 0.0000000000000000e+00  -8.2209130983840084e-02 9.6450509893600597e-03 0.0000000000000000e+00 9.6450509893600597e-03 -8.6778838469635217e-02 0.0000000000000000e+00 0.0000000000000000e+00 0.0000000000000000e+00 0.0000000000000000e+00  -8.1437005589735087e-02 9.9339103083335191e-03 0.0000000000000000e+00 9.9339103083335191e-03 -8.6347960630958925e-02 0.0000000000000000e+00 0.0000000000000000e+00 0.0000000000000000e+00 0.0000000000000000e+00  -8.0539675834399777e-02 1.0025581870597620e-02 0.0000000000000000e+00 1.0025581870597620e-02 -8.5903250120880931e-02 0.0000000000000000e+00 0.0000000000000000e+00 0.0000000000000000e+00 0.0000000000000000e+00  -7.9477857660649437e-02 9.8833230089360961e-03 0.0000000000000000e+00 9.8833230089360961e-03 -8.5439096405086429e-02 0.0000000000000000e+00 0.0000000000000000e+00 0.0000000000000000e+00 0.0000000000000000e+00  -7.8177952928531094e-02 9.4532378790579737e-03 0.0000000000000000e+00 9.4532378790579737e-03 -8.4970799403136330e-02 0.0000000000000000e+00 0.0000000000000000e+00 0.0000000000000000e+00 0.0000000000000000e+00  -7.6527419008881811e-02 8.6465060912467636e-03 0.0000000000000000e+00 8.6465060912467636e-03 -8.4530214421742356e-02 0.0000000000000000e+00 0.0000000000000000e+00 0.0000000000000000e+00 0.0000000000000000e+00  -7.4373509075707014e-02 7.3210565191927863e-03 0.0000000000000000e+00 7.3210565191927863e-03 -8.4152301513505695e-02 0.0000000000000000e+00 0.0000000000000000e+00 0.0000000000000000e+00 0.0000000000000000e+00  -7.1523612905621453e-02 5.2630298988999126e-03 0.0000000000000000e+00 5.2630298988999126e-03 -8.3852852280547813e-02 0.0000000000000000e+00 0.0000000000000000e+00 0.0000000000000000e+00 0.0000000000000000e+00  -6.7747128432800549e-02 2.1672957040575589e-03 0.0000000000000000e+00 2.1672957040575589e-03 -8.3595277618275524e-02 0.0000000000000000e+00 0.0000000000000000e+00 0.0000000000000000e+00 0.0000000000000000e+00  -6.2772677075110375e-02 -2.3886444123996510e-03 0.0000000000000000e+00 -2.3886444123996510e-03 -8.3248204243743434e-02 0.0000000000000000e+00 0.0000000000000000e+00 0.0000000000000000e+00 0.0000000000000000e+00  -5.6316937342345212e-02 -8.9790534672334332e-03 0.0000000000000000e+00 -8.9790534672334332e-03 -8.2488410539652890e-02 0.0000000000000000e+00 0.0000000000000000e+00 0.0000000000000000e+00 0.0000000000000000e+00  -4.8053594288374218e-02 -1.8359151889517648e-02 0.0000000000000000e+00 -1.8359151889517648e-02 -8.0751478679301228e-02 0.0000000000000000e+00 0.0000000000000000e+00 0.0000000000000000e+00 0.0000000000000000e+00  -3.7771485432619004e-02 -3.1553668454860323e-02 0.0000000000000000e+00 -3.1553668454860323e-02 -7.6871363754639502e-02 0.0000000000000000e+00 0.0000000000000000e+00 0.0000000000000000e+00 0.0000000000000000e+00  -2.5690763480326482e-02 -4.9584808409321030e-02 0.0000000000000000e+00 -4.9584808409321030e-02 -6.8592012361708948e-02 0.0000000000000000e+00 0.0000000000000000e+00 0.0000000000000000e+00 0.0000000000000000e+00  -1.1196004885480173e-02 -7.5477930204118374e-02 0.0000000000000000e+00 -7.5477930204118374e-02 -5.5678868896118457e-02 0.0000000000000000e+00 0.0000000000000000e+00 0.0000000000000000e+00 0.0000000000000000e+00  5.7565741880984851e-03 -9.8876992841689409e-02 0.0000000000000000e+00 -9.8876992841689409e-02 -2.2669202996271030e-02 0.0000000000000000e+00 0.0000000000000000e+00 0.0000000000000000e+00 0.0000000000000000e+00  1.2279657428402275e-02 -2.1777347486408127e-01 0.0000000000000000e+00 -2.1777347486408127e-01 7.1212840270154870e-02 0.0000000000000000e+00 0.0000000000000000e+00 0.0000000000000000e+00 0.0000000000000000e+00  5.0710518990987295e-02 -1.7652689019176135e-01 0.0000000000000000e+00 -1.7652689019176135e-01 1.1902786631750242e-01 0.0000000000000000e+00 0.0000000000000000e+00 0.0000000000000000e+00 0.0000000000000000e+00  -3.0312602292469965e-01 -5.9162682835559290e-02 0.0000000000000000e+00 -5.9162682835559290e-02 -1.7997548166382263e-01 0.0000000000000000e+00 0.0000000000000000e+00 0.0000000000000000e+00 0.0000000000000000e+00  8.2030850440598643e-02 -6.2213485581049888e-02 0.0000000000000000e+00 -6.2213485581049888e-02 4.7910484903676422e-02 0.0000000000000000e+00 0.0000000000000000e+00 0.0000000000000000e+00 0.0000000000000000e+00  8.0030065411142298e-02 7.4035849688817131e-03 0.0000000000000000e+00 7.4035849688817131e-03 6.7461673697793378e-02 0.0000000000000000e+00 0.0000000000000000e+00 0.0000000000000000e+00 0.0000000000000000e+00  -1.5430725419466976e-01 1.4461385997700119e-01 0.0000000000000000e+00 1.4461385997700119e-01 -1.7911235194427089e-01 0.0000000000000000e+00 0.0000000000000000e+00 0.0000000000000000e+00 0.0000000000000000e+00  -2.6693903708320699e-02 5.3003306433030799e-02 0.0000000000000000e+00 5.3003306433030799e-02 -1.6691260342205611e-02 0.0000000000000000e+00 0.0000000000000000e+00 0.0000000000000000e+00 0.0000000000000000e+00  -1.3861294374990629e-02 2.2498844652519198e-01 0.0000000000000000e+00 2.2498844652519198e-01 8.3309172548005281e-02 0.0000000000000000e+00 0.0000000000000000e+00 0.0000000000000000e+00 0.0000000000000000e+00  1.5116196933980292e-03 9.1710510521643016e-02 0.0000000000000000e+00 9.1710510521643016e-02 -3.2003700414105184e-02 0.0000000000000000e+00 0.0000000000000000e+00 0.0000000000000000e+00 0.0000000000000000e+00  -1.2874379217194365e-02 6.7673156139244864e-02 0.0000000000000000e+00 6.7673156139244864e-02 -6.4071232726051475e-02 0.0000000000000000e+00 0.0000000000000000e+00 0.0000000000000000e+00 0.0000000000000000e+00  -2.8046934136199957e-02 4.2194023616363867e-02 0.0000000000000000e+00 4.2194023616363867e-02 -7.4500626092752348e-02 0.0000000000000000e+00 0.0000000000000000e+00 0.0000000000000000e+00 0.0000000000000000e+00  -4.0326397384010226e-02 2.5156096630142292e-02 0.0000000000000000e+00 2.5156096630142292e-02 -8.1247945478316042e-02 0.0000000000000000e+00 0.0000000000000000e+00 0.0000000000000000e+00 0.0000000000000000e+00  -5.0643637046189287e-02 1.2992431334399137e-02 0.0000000000000000e+00 1.2992431334399137e-02 -8.3902598926890212e-02 0.0000000000000000e+00 0.0000000000000000e+00 0.0000000000000000e+00 0.0000000000000000e+00  -5.8745276525559824e-02 4.5906381377360935e-03 0.0000000000000000e+00 4.5906381377360935e-03 -8.4803141356308689e-02 0.0000000000000000e+00 0.0000000000000000e+00 0.0000000000000000e+00 0.0000000000000000e+00  -6.4950901873821812e-02 -1.1396800914903369e-03 0.0000000000000000e+00 -1.1396800914903369e-03 -8.4998929423771616e-02 0.0000000000000000e+00 0.0000000000000000e+00 0.0000000000000000e+00 0.0000000000000000e+00  -6.9641632022832925e-02 -4.9689398717615678e-03 0.0000000000000000e+00 -4.9689398717615678e-03 -8.4977165606933289e-02 0.0000000000000000e+00 0.0000000000000000e+00 0.0000000000000000e+00 0.0000000000000000e+00  -7.3137892323758891e-02 -7.4670732782480334e-03 0.0000000000000000e+00 -7.4670732782480334e-03 -8.4994440939130070e-02 0.0000000000000000e+00 0.0000000000000000e+00 0.0000000000000000e+00 0.0000000000000000e+00  -7.5730847620110259e-02 -9.0422068944430844e-03 0.0000000000000000e+00 -9.0422068944430844e-03 -8.5134551671391584e-02 0.0000000000000000e+00 0.0000000000000000e+00 0.0000000000000000e+00 0.0000000000000000e+00  -7.7660298319670959e-02 -9.9817437404342534e-03 0.0000000000000000e+00 -9.9817437404342534e-03 -8.5401060725162209e-02 0.0000000000000000e+00 0.0000000000000000e+00 0.0000000000000000e+00 0.0000000000000000e+00  -7.9121069324563517e-02 -1.0481947230554312e-02 0.0000000000000000e+00 -1.0481947230554312e-02 -8.5756812672170016e-02 0.0000000000000000e+00 0.0000000000000000e+00 0.0000000000000000e+00 0.0000000000000000e+00  -8.0264091093027318e-02 -1.0669145048929010e-02 0.0000000000000000e+00 -1.0669145048929010e-02 -8.6153841187905991e-02 0.0000000000000000e+00 0.0000000000000000e+00 0.0000000000000000e+00 0.0000000000000000e+00  -8.1198027421484603e-02 -1.0618914130997491e-02 0.0000000000000000e+00 -1.0618914130997491e-02 -8.6552986652651584e-02 0.0000000000000000e+00 0.0000000000000000e+00 0.0000000000000000e+00 0.0000000000000000e+00  -8.1991843342593657e-02 -1.0374447781849127e-02 0.0000000000000000e+00 -1.0374447781849127e-02 -8.6935283350100090e-02 0.0000000000000000e+00 0.0000000000000000e+00 0.0000000000000000e+00 0.0000000000000000e+00  -8.2680224816813877e-02 -9.9640621094932331e-03 0.0000000000000000e+00 -9.9640621094932331e-03 -8.7304838608862470e-02 0.0000000000000000e+00 0.0000000000000000e+00 0.0000000000000000e+00 0.0000000000000000e+00  -8.3272699745919276e-02 -9.4155766870632571e-03 0.0000000000000000e+00 -9.4155766870632571e-03 -8.7683562766638856e-02 0.0000000000000000e+00 0.0000000000000000e+00 0.0000000000000000e+00 0.0000000000000000e+00  -8.3765458557323785e-02 -8.7650479375800776e-03 0.0000000000000000e+00 -8.7650479375800776e-03 -8.8100085950596291e-02 0.0000000000000000e+00 0.0000000000000000e+00 0.0000000000000000e+00 0.0000000000000000e+00  -8.4153424142507455e-02 -8.0583965938645589e-03 0.0000000000000000e+00 -8.0583965938645589e-03 -8.8576839266197763e-02 0.0000000000000000e+00 0.0000000000000000e+00 0.0000000000000000e+00 0.0000000000000000e+00  -8.4439562554648462e-02 -7.3465205016768525e-03 0.0000000000000000e+00 -7.3465205016768525e-03 -8.9119803206632570e-02 0.0000000000000000e+00 0.0000000000000000e+00 0.0000000000000000e+00 0.0000000000000000e+00  -8.4639137922608673e-02 -6.6765080031161664e-03 0.0000000000000000e+00 -6.6765080031161664e-03 -8.9714335523786673e-02 0.0000000000000000e+00 0.0000000000000000e+00 0.0000000000000000e+00 0.0000000000000000e+00  -8.4778235916880051e-02 -6.0827083322181333e-03 0.0000000000000000e+00 -6.0827083322181333e-03 -9.0328219618669200e-02 0.0000000000000000e+00 0.0000000000000000e+00 0.0000000000000000e+00 0.0000000000000000e+00  -8.4887782151325877e-02 -5.5812311886363538e-03 0.0000000000000000e+00 -5.5812311886363538e-03 -9.0920453167524742e-02 0.0000000000000000e+00 0.0000000000000000e+00 0.0000000000000000e+00 0.0000000000000000e+00  -8.4995749415502947e-02 -5.1699866128882103e-03 0.0000000000000000e+00 -5.1699866128882103e-03 -9.1452273149445595e-02 0.0000000000000000e+00 0.0000000000000000e+00 0.0000000000000000e+00 0.0000000000000000e+00  -8.5120696064746246e-02 -4.8341646566695340e-03 0.0000000000000000e+00 -4.8341646566695340e-03 -9.1896269636350711e-02 0.0000000000000000e+00 0.0000000000000000e+00 0.0000000000000000e+00 0.0000000000000000e+00  -8.5268944161529470e-02 -4.5549995951981569e-03 0.0000000000000000e+00 -4.5549995951981569e-03 -9.2240490130587216e-02 0.0000000000000000e+00 0.0000000000000000e+00 0.0000000000000000e+00 0.0000000000000000e+00  -8.5436130187426185e-02 -4.3186380883103283e-03 0.0000000000000000e+00 -4.3186380883103283e-03 -9.2486543941399879e-02 0.0000000000000000e+00 0.0000000000000000e+00 0.0000000000000000e+00 0.0000000000000000e+00  -8.5611815618432147e-02 -4.1221646651597114e-03 0.0000000000000000e+00 -4.1221646651597114e-03 -9.2643256952677805e-02 0.0000000000000000e+00 0.0000000000000000e+00 0.0000000000000000e+00 0.0000000000000000e+00  -8.5785013390530976e-02 -3.9755056658195547e-03 0.0000000000000000e+00 -3.9755056658195547e-03 -9.2718679383141239e-02 0.0000000000000000e+00 0.0000000000000000e+00 0.0000000000000000e+00 0.0000000000000000e+00  -8.5948134383484642e-02 -3.8986450182048275e-03 0.0000000000000000e+00 -3.8986450182048275e-03 -9.2713275439478632e-02 0.0000000000000000e+00 0.0000000000000000e+00 0.0000000000000000e+00 0.0000000000000000e+00  -8.6092663958167892e-02 -3.9184602201713077e-03 0.0000000000000000e+00 -3.9184602201713077e-03 -9.2622250751046631e-02 0.0000000000000000e+00 0.0000000000000000e+00 0.0000000000000000e+00 0.0000000000000000e+00  -8.6220575179134756e-02 -4.0645242979829872e-03 0.0000000000000000e+00 -4.0645242979829872e-03 -9.2416686255369446e-02 0.0000000000000000e+00 0.0000000000000000e+00 0.0000000000000000e+00 0.0000000000000000e+00  -8.6279458461185288e-02 -4.3693895020394417e-03 0.0000000000000000e+00 -4.3693895020394417e-03 -9.2123965680460454e-02 0.0000000000000000e+00 0.0000000000000000e+00 0.0000000000000000e+00 0.0000000000000000e+00  -8.6354719528508983e-02 -4.8646296145305398e-03 0.0000000000000000e+00 -4.8646296145305398e-03 -9.1527397592777254e-02 0.0000000000000000e+00 0.0000000000000000e+00 0.0000000000000000e+00 0.0000000000000000e+00  -8.6401296612142006e-02 -5.5517339698113221e-03 0.0000000000000000e+00 -5.5517339698113221e-03 -9.0767507016537283e-02 0.0000000000000000e+00 0.0000000000000000e+00 0.0000000000000000e+00 0.0000000000000000e+00  -8.6353899063588632e-02 -6.1875660686874154e-03 0.0000000000000000e+00 -6.1875660686874154e-03 -9.0289669953117435e-02 0.0000000000000000e+00 0.0000000000000000e+00 0.0000000000000000e+00 0.0000000000000000e+00  -9.7432579343730064e-02 -6.3640767094778833e-03 0.0000000000000000e+00 -6.3640767094778833e-03 -7.6129112448647326e-02 0.0000000000000000e+00 0.0000000000000000e+00 0.0000000000000000e+00 0.0000000000000000e+00  -1.8504185729437259e-01 -2.1888251053139234e-02 0.0000000000000000e+00 -2.1888251053139234e-02 -7.6358698350679946e-02 0.0000000000000000e+00 0.0000000000000000e+00 0.0000000000000000e+00 0.0000000000000000e+00  3.8241286779783695e-02 3.8981569652169312e-02 0.0000000000000000e+00 3.8981569652169312e-02 -1.0801674652889273e-01 0.0000000000000000e+00 0.0000000000000000e+00 0.0000000000000000e+00 0.0000000000000000e+00  6.0878603170927720e-02 -1.0564620242847327e-01 0.0000000000000000e+00 -1.0564620242847327e-01 -7.0726148983515577e-02 0.0000000000000000e+00 0.0000000000000000e+00 0.0000000000000000e+00 0.0000000000000000e+00  -1.7968348782951397e-02 1.5013923860862350e-02 0.0000000000000000e+00 1.5013923860862350e-02 4.7922104551866899e-02 0.0000000000000000e+00 0.0000000000000000e+00 0.0000000000000000e+00 0.0000000000000000e+00  8.4826743756974479e-03 -1.1763460488764203e-03 0.0000000000000000e+00 -1.1763460488764203e-03 1.0814167696728397e-02 0.0000000000000000e+00 0.0000000000000000e+00 0.0000000000000000e+00 0.0000000000000000e+00  7.5683802819335420e-03 -8.5346742744398760e-05 0.0000000000000000e+00 -8.5346742744398760e-05 7.7804306335231815e-03 0.0000000000000000e+00 0.0000000000000000e+00 0.0000000000000000e+00 0.0000000000000000e+00  7.8333000793952296e-03 -3.7175563142257549e-06 0.0000000000000000e+00 -3.7175563142257549e-06 7.8203623738280648e-03 0.0000000000000000e+00 0.0000000000000000e+00 0.0000000000000000e+00 0.0000000000000000e+00  7.8220649025762153e-03 -2.5061556532680440e-05 0.0000000000000000e+00 -2.5061556532680440e-05 7.8129976439035072e-03 0.0000000000000000e+00 0.0000000000000000e+00 0.0000000000000000e+00 0.0000000000000000e+00  7.8195962935949312e-03 -4.1840402688186798e-05 0.0000000000000000e+00 -4.1840402688186798e-05 7.8187019463879445e-03 0.0000000000000000e+00 0.0000000000000000e+00 0.0000000000000000e+00 0.0000000000000000e+00  7.8259956580238269e-03 4.6196704708165760e-05 0.0000000000000000e+00 4.6196704708165760e-05 7.8247593175575260e-03 0.0000000000000000e+00 0.0000000000000000e+00 0.0000000000000000e+00 0.0000000000000000e+00  7.8246812543600885e-03 2.1004757394669491e-05 0.0000000000000000e+00 2.1004757394669491e-05 7.8170815588361215e-03 0.0000000000000000e+00 0.0000000000000000e+00 0.0000000000000000e+00 0.0000000000000000e+00  7.8437510066613602e-03 1.7228665771204610e-05 0.0000000000000000e+00 1.7228665771204610e-05 7.8314868698605884e-03 0.0000000000000000e+00 0.0000000000000000e+00 0.0000000000000000e+00 0.0000000000000000e+00  7.4827349430057590e-03 -2.8217771998763851e-04 0.0000000000000000e+00 -2.8217771998763851e-04 8.1836555029386991e-03 0.0000000000000000e+00 0.0000000000000000e+00 0.0000000000000000e+00 0.0000000000000000e+00  2.0929214382519393e-03 5.2606720010613759e-03 0.0000000000000000e+00 5.2606720010613759e-03 1.0426652610007104e-02 0.0000000000000000e+00 0.0000000000000000e+00 0.0000000000000000e+00 0.0000000000000000e+00  2.6628853305441538e-02 -1.4122625367946669e-02 0.0000000000000000e+00 -1.4122625367946669e-02 1.3417694045137257e-01 0.0000000000000000e+00 0.0000000000000000e+00 0.0000000000000000e+00 0.0000000000000000e+00  2.6259658672834946e-01 -6.6947035547510511e-02 0.0000000000000000e+00 -6.6947035547510511e-02 -3.8446564145677192e-01 0.0000000000000000e+00 0.0000000000000000e+00 0.0000000000000000e+00 0.0000000000000000e+00  -2.0890374521493293e-01 9.9524338890079646e-03 0.0000000000000000e+00 9.9524338890079646e-03 3.1198283481389262e-02 0.0000000000000000e+00 0.0000000000000000e+00 0.0000000000000000e+00 0.0000000000000000e+00  -1.4812956548526374e-01 1.1248084647937617e-02 0.0000000000000000e+00 1.1248084647937617e-02 -7.8203367701707965e-02 0.0000000000000000e+00 0.0000000000000000e+00 0.0000000000000000e+00 0.0000000000000000e+00  -9.0876768739301353e-02 8.3147181377991632e-03 0.0000000000000000e+00 8.3147181377991632e-03 -8.7222194105990053e-02 0.0000000000000000e+00 0.0000000000000000e+00 0.0000000000000000e+00 0.0000000000000000e+00  -8.7794035413438817e-02 6.1899793372403112e-03 0.0000000000000000e+00 6.1899793372403112e-03 -8.8505536170922383e-02 0.0000000000000000e+00 0.0000000000000000e+00 0.0000000000000000e+00 0.0000000000000000e+00  -8.6673902156207711e-02 5.3551402169382915e-03 0.0000000000000000e+00 5.3551402169382915e-03 -9.0588300575375078e-02 0.0000000000000000e+00 0.0000000000000000e+00 0.0000000000000000e+00 0.0000000000000000e+00  -8.6420358186036203e-02 4.6317494768213455e-03 0.0000000000000000e+00 4.6317494768213455e-03 -9.1379977591142969e-02 0.0000000000000000e+00 0.0000000000000000e+00 0.0000000000000000e+00 0.0000000000000000e+00  -8.6058954714135466e-02 4.1047149714745264e-03 0.0000000000000000e+00 4.1047149714745264e-03 -9.2083642633902382e-02 0.0000000000000000e+00 0.0000000000000000e+00 0.0000000000000000e+00 0.0000000000000000e+00  -8.5750640966838376e-02 3.7770661736012492e-03 0.0000000000000000e+00 3.7770661736012492e-03 -9.2584395156670093e-02 0.0000000000000000e+00 0.0000000000000000e+00 0.0000000000000000e+00 0.0000000000000000e+00  -8.5481492204354595e-02 3.6251648765575433e-03 0.0000000000000000e+00 3.6251648765575433e-03 -9.2905225534874999e-02 0.0000000000000000e+00 0.0000000000000000e+00 0.0000000000000000e+00 0.0000000000000000e+00  -8.5232622748917103e-02 3.6068627553256004e-03 0.0000000000000000e+00 3.6068627553256004e-03 -9.3085257203121829e-02 0.0000000000000000e+00 0.0000000000000000e+00 0.0000000000000000e+00 0.0000000000000000e+00  -8.4995938107946353e-02 3.6880929424033646e-03 0.0000000000000000e+00 3.6880929424033646e-03 -9.3140779019161415e-02 0.0000000000000000e+00 0.0000000000000000e+00 0.0000000000000000e+00 0.0000000000000000e+00  -8.4761724977714156e-02 3.8422009803690594e-03 0.0000000000000000e+00 3.8422009803690594e-03 -9.3087931993816625e-02 0.0000000000000000e+00 0.0000000000000000e+00 0.0000000000000000e+00 0.0000000000000000e+00  -8.4526019842643241e-02 4.0507931103183860e-03 0.0000000000000000e+00 4.0507931103183860e-03 -9.2934680948295795e-02 0.0000000000000000e+00 0.0000000000000000e+00 0.0000000000000000e+00 0.0000000000000000e+00  -8.4288224016586200e-02 4.3044272479634904e-03 0.0000000000000000e+00 4.3044272479634904e-03 -9.2684374216794249e-02 0.0000000000000000e+00 0.0000000000000000e+00 0.0000000000000000e+00 0.0000000000000000e+00  -8.4048660109535461e-02 4.6022602936177295e-03 0.0000000000000000e+00 4.6022602936177295e-03 -9.2339052518048359e-02 0.0000000000000000e+00 0.0000000000000000e+00 0.0000000000000000e+00 0.0000000000000000e+00  -8.3804812667024567e-02 4.9499438090554694e-03 0.0000000000000000e+00 4.9499438090554694e-03 -9.1904128966223866e-02 0.0000000000000000e+00 0.0000000000000000e+00 0.0000000000000000e+00 0.0000000000000000e+00  -8.3548302897172161e-02 5.3552737686978066e-03 0.0000000000000000e+00 5.3552737686978066e-03 -9.1391942191167183e-02 0.0000000000000000e+00 0.0000000000000000e+00 0.0000000000000000e+00 0.0000000000000000e+00  -8.3263883071314521e-02 5.8225113614843241e-03 0.0000000000000000e+00 5.8225113614843241e-03 -9.0822577861453299e-02 0.0000000000000000e+00 0.0000000000000000e+00 0.0000000000000000e+00 0.0000000000000000e+00  -8.2930982511926044e-02 6.3469423314249556e-03 0.0000000000000000e+00 6.3469423314249556e-03 -9.0221267100453098e-02 0.0000000000000000e+00 0.0000000000000000e+00 0.0000000000000000e+00 0.0000000000000000e+00  -8.2527335282699107e-02 6.9114129433170629e-03 0.0000000000000000e+00 6.9114129433170629e-03 -8.9612971327674429e-02 0.0000000000000000e+00 0.0000000000000000e+00 0.0000000000000000e+00 0.0000000000000000e+00  -8.2033270454895016e-02 7.4859549683261384e-03 0.0000000000000000e+00 7.4859549683261384e-03 -8.9015968334302392e-02 0.0000000000000000e+00 0.0000000000000000e+00 0.0000000000000000e+00 0.0000000000000000e+00  -8.1434831369161201e-02 8.0304483535655544e-03 0.0000000000000000e+00 8.0304483535655544e-03 -8.8436772766882721e-02 0.0000000000000000e+00 0.0000000000000000e+00 0.0000000000000000e+00 0.0000000000000000e+00  -8.0724159679955915e-02 8.4990196582655306e-03 0.0000000000000000e+00 8.4990196582655306e-03 -8.7868334296221290e-02 0.0000000000000000e+00 0.0000000000000000e+00 0.0000000000000000e+00 0.0000000000000000e+00  -7.9896449066377551e-02 8.8440349061743914e-03 0.0000000000000000e+00 8.8440349061743914e-03 -8.7292273549985450e-02 0.0000000000000000e+00 0.0000000000000000e+00 0.0000000000000000e+00 0.0000000000000000e+00  -7.8943908862959031e-02 9.0174373168952320e-03 0.0000000000000000e+00 9.0174373168952320e-03 -8.6684372319564440e-02 0.0000000000000000e+00 0.0000000000000000e+00 0.0000000000000000e+00 0.0000000000000000e+00  -7.7848162915604230e-02 8.9678351005616688e-03 0.0000000000000000e+00 8.9678351005616688e-03 -8.6021176438363600e-02 0.0000000000000000e+00 0.0000000000000000e+00 0.0000000000000000e+00 0.0000000000000000e+00  -7.6572985471589097e-02 8.6328973495632781e-03 0.0000000000000000e+00 8.6328973495632781e-03 -8.5284862320225738e-02 0.0000000000000000e+00 0.0000000000000000e+00 0.0000000000000000e+00 0.0000000000000000e+00  -7.5059115908164761e-02 7.9277818701466215e-03 0.0000000000000000e+00 7.9277818701466215e-03 -8.4463629891068176e-02 0.0000000000000000e+00 0.0000000000000000e+00 0.0000000000000000e+00 0.0000000000000000e+00  -7.3222248569078441e-02 6.7310229575937392e-03 0.0000000000000000e+00 6.7310229575937392e-03 -8.3545610654776753e-02 0.0000000000000000e+00 0.0000000000000000e+00 0.0000000000000000e+00 0.0000000000000000e+00  -7.0954642772667387e-02 4.8691954098498674e-03 0.0000000000000000e+00 4.8691954098498674e-03 -8.2505004735564269e-02 0.0000000000000000e+00 0.0000000000000000e+00 0.0000000000000000e+00 0.0000000000000000e+00  -6.8130849329683107e-02 2.1011115323753935e-03 0.0000000000000000e+00 2.1011115323753935e-03 -8.1279073964111867e-02 0.0000000000000000e+00 0.0000000000000000e+00 0.0000000000000000e+00 0.0000000000000000e+00  -6.4618275974365647e-02 -1.8988479056174317e-03 0.0000000000000000e+00 -1.8988479056174317e-03 -7.9734130531716754e-02 0.0000000000000000e+00 0.0000000000000000e+00 0.0000000000000000e+00 0.0000000000000000e+00  -6.0299254462994965e-02 -7.5582824271570644e-03 0.0000000000000000e+00 -7.5582824271570644e-03 -7.7612240798013779e-02 0.0000000000000000e+00 0.0000000000000000e+00 0.0000000000000000e+00 0.0000000000000000e+00  -5.5104803118869533e-02 -1.5421642037604575e-02 0.0000000000000000e+00 -1.5421642037604575e-02 -7.4458932814875686e-02 0.0000000000000000e+00 0.0000000000000000e+00 0.0000000000000000e+00 0.0000000000000000e+00  -4.9083945847490540e-02 -2.6165088498510403e-02 0.0000000000000000e+00 -2.6165088498510403e-02 -6.9500550167250874e-02 0.0000000000000000e+00 0.0000000000000000e+00 0.0000000000000000e+00 0.0000000000000000e+00  -4.2591513255419738e-02 -4.0538709416974683e-02 0.0000000000000000e+00 -4.0538709416974683e-02 -6.1414223758474287e-02 0.0000000000000000e+00 0.0000000000000000e+00 0.0000000000000000e+00 0.0000000000000000e+00  -3.6075686957438263e-02 -5.9446446317024573e-02 0.0000000000000000e+00 -5.9446446317024573e-02 -4.8636971357334975e-02 0.0000000000000000e+00 0.0000000000000000e+00 0.0000000000000000e+00 0.0000000000000000e+00  -3.1762346587032232e-02 -8.2714076124375410e-02 0.0000000000000000e+00 -8.2714076124375410e-02 -2.6708953024526833e-02 0.0000000000000000e+00 0.0000000000000000e+00 0.0000000000000000e+00 0.0000000000000000e+00  -2.9932159705339526e-02 -1.1482237312100656e-01 0.0000000000000000e+00 -1.1482237312100656e-01 4.6979576231612882e-03 0.0000000000000000e+00 0.0000000000000000e+00 0.0000000000000000e+00 0.0000000000000000e+00  -2.9162538343530903e-02 -1.2299532541402100e-01 0.0000000000000000e+00 -1.2299532541402100e-01 5.6879506236249357e-02 0.0000000000000000e+00 0.0000000000000000e+00 0.0000000000000000e+00 0.0000000000000000e+00  1.5448414268538114e-02 -2.8387357389157863e-01 0.0000000000000000e+00 -2.8387357389157863e-01 1.7068732835598854e-01 0.0000000000000000e+00 0.0000000000000000e+00 0.0000000000000000e+00 0.0000000000000000e+00  -1.1334063143599638e-02 -2.5475918692718796e-01 0.0000000000000000e+00 -2.5475918692718796e-01 1.4215754246953349e-01 0.0000000000000000e+00 0.0000000000000000e+00 0.0000000000000000e+00 0.0000000000000000e+00  -8.0413378898416066e-01 5.3808245082826507e-02 0.0000000000000000e+00 5.3808245082826507e-02 3.2892308280439359e-01 0.0000000000000000e+00 0.0000000000000000e+00 0.0000000000000000e+00 0.0000000000000000e+00  -1.0029287129062767e+00 9.2282593589761207e-04 0.0000000000000000e+00 9.2282593589761207e-04 -1.7830897166299475e-01 0.0000000000000000e+00 0.0000000000000000e+00 0.0000000000000000e+00 0.0000000000000000e+00  -2.3965546011507105e-01 1.1820402239024547e-01 0.0000000000000000e+00 1.1820402239024547e-01 1.9052550158561232e-01 0.0000000000000000e+00 0.0000000000000000e+00 0.0000000000000000e+00 0.0000000000000000e+00  2.7874616918729604e-02 3.3952986505107524e-01 0.0000000000000000e+00 3.3952986505107524e-01 1.9756057616723655e-01 0.0000000000000000e+00 0.0000000000000000e+00 0.0000000000000000e+00 0.0000000000000000e+00  -2.6538709622347383e-02 1.1877230351833960e-01 0.0000000000000000e+00 1.1877230351833960e-01 4.2272690288996398e-02 0.0000000000000000e+00 0.0000000000000000e+00 0.0000000000000000e+00 0.0000000000000000e+00  -2.8343627697221520e-02 1.0770349289114985e-01 0.0000000000000000e+00 1.0770349289114985e-01 -5.4199433145423245e-03 0.0000000000000000e+00 0.0000000000000000e+00 0.0000000000000000e+00 0.0000000000000000e+00  -3.1429413833640681e-02 7.5536495621248659e-02 0.0000000000000000e+00 7.5536495621248659e-02 -3.5079982528836699e-02 0.0000000000000000e+00 0.0000000000000000e+00 0.0000000000000000e+00 0.0000000000000000e+00  -3.6352530969982845e-02 5.2667622576545274e-02 0.0000000000000000e+00 5.2667622576545274e-02 -5.5346256936174482e-02 0.0000000000000000e+00 0.0000000000000000e+00 0.0000000000000000e+00 0.0000000000000000e+00  -4.3416783798574228e-02 3.4418598983218092e-02 0.0000000000000000e+00 3.4418598983218092e-02 -6.6652654969116529e-02 0.0000000000000000e+00 0.0000000000000000e+00 0.0000000000000000e+00 0.0000000000000000e+00  -5.0217468245615529e-02 2.0857188862334931e-02 0.0000000000000000e+00 2.0857188862334931e-02 -7.3577067395386941e-02 0.0000000000000000e+00 0.0000000000000000e+00 0.0000000000000000e+00 0.0000000000000000e+00  -5.6377359029225554e-02 1.0946413912411138e-02 0.0000000000000000e+00 1.0946413912411138e-02 -7.7636195228238600e-02 0.0000000000000000e+00 0.0000000000000000e+00 0.0000000000000000e+00 0.0000000000000000e+00  -6.1582528300422157e-02 3.8638528104386165e-03 0.0000000000000000e+00 3.8638528104386165e-03 -8.0125907732085638e-02 0.0000000000000000e+00 0.0000000000000000e+00 0.0000000000000000e+00 0.0000000000000000e+00  -6.5835680045229841e-02 -1.1026208710133594e-03 0.0000000000000000e+00 -1.1026208710133594e-03 -8.1764677679107584e-02 0.0000000000000000e+00 0.0000000000000000e+00 0.0000000000000000e+00 0.0000000000000000e+00  -6.9242249044896259e-02 -4.5092109065497299e-03 0.0000000000000000e+00 -4.5092109065497299e-03 -8.2958779650080638e-02 0.0000000000000000e+00 0.0000000000000000e+00 0.0000000000000000e+00 0.0000000000000000e+00  -7.1945202446492218e-02 -6.7814982571212604e-03 0.0000000000000000e+00 -6.7814982571212604e-03 -8.3926158021705721e-02 0.0000000000000000e+00 0.0000000000000000e+00 0.0000000000000000e+00 0.0000000000000000e+00  -7.4092667062609960e-02 -8.2360347463093335e-03 0.0000000000000000e+00 -8.2360347463093335e-03 -8.4770544180638119e-02 0.0000000000000000e+00 0.0000000000000000e+00 0.0000000000000000e+00 0.0000000000000000e+00  -7.5818633961561605e-02 -9.1020854187795694e-03 0.0000000000000000e+00 -9.1020854187795694e-03 -8.5533401670655512e-02 0.0000000000000000e+00 0.0000000000000000e+00 0.0000000000000000e+00 0.0000000000000000e+00  -7.7234616779613810e-02 -9.5407518342478809e-03 0.0000000000000000e+00 -9.5407518342478809e-03 -8.6226197639539440e-02 0.0000000000000000e+00 0.0000000000000000e+00 0.0000000000000000e+00 0.0000000000000000e+00  -7.8425719142597827e-02 -9.6620747132789529e-03 0.0000000000000000e+00 -9.6620747132789529e-03 -8.6851582611863556e-02 0.0000000000000000e+00 0.0000000000000000e+00 0.0000000000000000e+00 0.0000000000000000e+00  -7.9450320021887677e-02 -9.5409441763130588e-03 0.0000000000000000e+00 -9.5409441763130588e-03 -8.7415693551142301e-02 0.0000000000000000e+00 0.0000000000000000e+00 0.0000000000000000e+00 0.0000000000000000e+00  -8.0342967314173785e-02 -9.2313552572086434e-03 0.0000000000000000e+00 -9.2313552572086434e-03 -8.7933023250773415e-02 0.0000000000000000e+00 0.0000000000000000e+00 0.0000000000000000e+00 0.0000000000000000e+00  -8.1120122646590617e-02 -8.7778904125671905e-03 0.0000000000000000e+00 -8.7778904125671905e-03 -8.8425136096234300e-02 0.0000000000000000e+00 0.0000000000000000e+00 0.0000000000000000e+00 0.0000000000000000e+00  -8.1787750617284827e-02 -8.2231260216237504e-03 0.0000000000000000e+00 -8.2231260216237504e-03 -8.8915188406371248e-02 0.0000000000000000e+00 0.0000000000000000e+00 0.0000000000000000e+00 0.0000000000000000e+00  -8.2349084223260552e-02 -7.6103120446229565e-03 0.0000000000000000e+00 -7.6103120446229565e-03 -8.9420928612078537e-02 0.0000000000000000e+00 0.0000000000000000e+00 0.0000000000000000e+00 0.0000000000000000e+00  -8.2810719671581490e-02 -6.9818070966710796e-03 0.0000000000000000e+00 -6.9818070966710796e-03 -8.9948970265851469e-02 0.0000000000000000e+00 0.0000000000000000e+00 0.0000000000000000e+00 0.0000000000000000e+00  -8.3185654327417161e-02 -6.3748857376946305e-03 0.0000000000000000e+00 -6.3748857376946305e-03 -9.0492433636579203e-02 0.0000000000000000e+00 0.0000000000000000e+00 0.0000000000000000e+00 0.0000000000000000e+00  -8.3492856128715029e-02 -5.8171791508727626e-03 0.0000000000000000e+00 -5.8171791508727626e-03 -9.1032701542679006e-02 0.0000000000000000e+00 0.0000000000000000e+00 0.0000000000000000e+00 0.0000000000000000e+00  -8.3754081783447121e-02 -5.3238943581030481e-03 0.0000000000000000e+00 -5.3238943581030481e-03 -9.1544497261979690e-02 0.0000000000000000e+00 0.0000000000000000e+00 0.0000000000000000e+00 0.0000000000000000e+00  -8.3989524749082042e-02 -4.8981105544047658e-03 0.0000000000000000e+00 -4.8981105544047658e-03 -9.2002315374528423e-02 0.0000000000000000e+00 0.0000000000000000e+00 0.0000000000000000e+00 0.0000000000000000e+00  -8.4214137101153566e-02 -4.5341955367507623e-03 0.0000000000000000e+00 -4.5341955367507623e-03 -9.2385854704742795e-02 0.0000000000000000e+00 0.0000000000000000e+00 0.0000000000000000e+00 0.0000000000000000e+00  -8.4436048759790383e-02 -4.2232203559130106e-03 0.0000000000000000e+00 -4.2232203559130106e-03 -9.2682629573945643e-02 0.0000000000000000e+00 0.0000000000000000e+00 0.0000000000000000e+00 0.0000000000000000e+00  -8.4657554494015741e-02 -3.9586271496881214e-03 0.0000000000000000e+00 -3.9586271496881214e-03 -9.2887146662991013e-02 0.0000000000000000e+00 0.0000000000000000e+00 0.0000000000000000e+00 0.0000000000000000e+00  -8.4878138046314625e-02 -3.7405781689547174e-03 0.0000000000000000e+00 -3.7405781689547174e-03 -9.2997336679252723e-02 0.0000000000000000e+00 0.0000000000000000e+00 0.0000000000000000e+00 0.0000000000000000e+00  -8.5098251122099511e-02 -3.5780636785614807e-03 0.0000000000000000e+00 -3.5780636785614807e-03 -9.3009842593475958e-02 0.0000000000000000e+00 0.0000000000000000e+00 0.0000000000000000e+00 0.0000000000000000e+00  -8.5321801804340819e-02 -3.4892495187227668e-03 0.0000000000000000e+00 -3.4892495187227668e-03 -9.2916659011537395e-02 0.0000000000000000e+00 0.0000000000000000e+00 0.0000000000000000e+00 0.0000000000000000e+00  -8.5558603996281610e-02 -3.5007511759953575e-03 0.0000000000000000e+00 -3.5007511759953575e-03 -9.2701515470846915e-02 0.0000000000000000e+00 0.0000000000000000e+00 0.0000000000000000e+00 0.0000000000000000e+00  -8.5817069231200818e-02 -3.6466939881263133e-03 0.0000000000000000e+00 -3.6466939881263133e-03 -9.2347881739818491e-02 0.0000000000000000e+00 0.0000000000000000e+00 0.0000000000000000e+00 0.0000000000000000e+00  -8.6116621386158457e-02 -3.9692265206921875e-03 0.0000000000000000e+00 -3.9692265206921875e-03 -9.1816347693350397e-02 0.0000000000000000e+00 0.0000000000000000e+00 0.0000000000000000e+00 0.0000000000000000e+00  -8.6471741931682930e-02 -4.4917445430805291e-03 0.0000000000000000e+00 -4.4917445430805291e-03 -9.1083982287572599e-02 0.0000000000000000e+00 0.0000000000000000e+00 0.0000000000000000e+00 0.0000000000000000e+00  -8.6722169515764669e-02 -5.2105941368186049e-03 0.0000000000000000e+00 -5.2105941368186049e-03 -9.0266178022498977e-02 0.0000000000000000e+00 0.0000000000000000e+00 0.0000000000000000e+00 0.0000000000000000e+00  -8.7841707810836597e-02 -6.0394223690928422e-03 0.0000000000000000e+00 -6.0394223690928422e-03 -8.8162704741170453e-02 0.0000000000000000e+00 0.0000000000000000e+00 0.0000000000000000e+00 0.0000000000000000e+00  -9.0912262155322762e-02 -8.1521010786971739e-03 0.0000000000000000e+00 -8.1521010786971739e-03 -8.6880401198444104e-02 0.0000000000000000e+00 0.0000000000000000e+00 0.0000000000000000e+00 0.0000000000000000e+00  -1.4807638942616197e-01 -1.1027650626465537e-02 0.0000000000000000e+00 -1.1027650626465537e-02 -7.7828288919934069e-02 0.0000000000000000e+00 0.0000000000000000e+00 0.0000000000000000e+00 0.0000000000000000e+00  -2.0920570655915111e-01 -9.6878231212873984e-03 0.0000000000000000e+00 -9.6878231212873984e-03 3.1361436080500418e-02 0.0000000000000000e+00 0.0000000000000000e+00 0.0000000000000000e+00 0.0000000000000000e+00  2.6232686545583112e-01 6.7305316549780794e-02 0.0000000000000000e+00 6.7305316549780794e-02 -3.8529799629678790e-01 0.0000000000000000e+00 0.0000000000000000e+00 0.0000000000000000e+00 0.0000000000000000e+00  2.5517760227244488e-02 1.4084881754141241e-02 0.0000000000000000e+00 1.4084881754141241e-02 1.3336791382919652e-01 0.0000000000000000e+00 0.0000000000000000e+00 0.0000000000000000e+00 0.0000000000000000e+00  1.6471953368726207e-03 -5.3115960060386262e-03 0.0000000000000000e+00 -5.3115960060386262e-03 1.0240414473140030e-02 0.0000000000000000e+00 0.0000000000000000e+00 0.0000000000000000e+00 0.0000000000000000e+00  7.5730401880532592e-03 2.9314725916373973e-04 0.0000000000000000e+00 2.9314725916373973e-04 8.2562660751671606e-03 0.0000000000000000e+00 0.0000000000000000e+00 0.0000000000000000e+00 0.0000000000000000e+00  7.8377372477255857e-03 -1.7140051825714302e-05 0.0000000000000000e+00 -1.7140051825714302e-05 7.8248451547228218e-03 0.0000000000000000e+00 0.0000000000000000e+00 0.0000000000000000e+00 0.0000000000000000e+00  7.8378116128143549e-03 -1.7819636044763099e-05 0.0000000000000000e+00 -1.7819636044763099e-05 7.8329728408706879e-03 0.0000000000000000e+00 0.0000000000000000e+00 0.0000000000000000e+00 0.0000000000000000e+00  7.8422010635436461e-03 -4.0517687564911803e-05 0.0000000000000000e+00 -4.0517687564911803e-05 7.8417169695490507e-03 0.0000000000000000e+00 0.0000000000000000e+00 0.0000000000000000e+00 0.0000000000000000e+00  7.8548089188634311e-03 4.5005791702849390e-05 0.0000000000000000e+00 4.5005791702849390e-05 7.8523316805734367e-03 0.0000000000000000e+00 0.0000000000000000e+00 0.0000000000000000e+00 0.0000000000000000e+00  7.8561303911481271e-03 1.3569277279874534e-05 0.0000000000000000e+00 1.3569277279874534e-05 7.8467156754254766e-03 0.0000000000000000e+00 0.0000000000000000e+00 0.0000000000000000e+00 0.0000000000000000e+00  7.7977170848814795e-03 3.7967916279086341e-05 0.0000000000000000e+00 3.7967916279086341e-05 7.8237388430983882e-03 0.0000000000000000e+00 0.0000000000000000e+00 0.0000000000000000e+00 0.0000000000000000e+00  7.8850482596719146e-03 -2.1933136424586125e-04 0.0000000000000000e+00 -2.1933136424586125e-04 9.3298541705090794e-03 0.0000000000000000e+00 0.0000000000000000e+00 0.0000000000000000e+00 0.0000000000000000e+00  -9.7468905559038362e-03 3.7400526514719052e-05 0.0000000000000000e+00 3.7400526514719052e-05 1.9332087221966054e-02 0.0000000000000000e+00 0.0000000000000000e+00 0.0000000000000000e+00 0.0000000000000000e+00  9.7253549499839637e-02 5.6236386445783652e-02 0.0000000000000000e+00 5.6236386445783652e-02 1.4424473479292724e-01 0.0000000000000000e+00 0.0000000000000000e+00 0.0000000000000000e+00 0.0000000000000000e+00  2.4130055553736232e-01 -7.4453279375004414e-02 0.0000000000000000e+00 -7.4453279375004414e-02 -2.7379869657496997e-01 0.0000000000000000e+00 0.0000000000000000e+00 0.0000000000000000e+00 0.0000000000000000e+00  -2.2645346012334688e-01 -3.6516067629224075e-03 0.0000000000000000e+00 -3.6516067629224075e-03 -9.0521355812509974e-02 0.0000000000000000e+00 0.0000000000000000e+00 0.0000000000000000e+00 0.0000000000000000e+00  -1.1723371027287695e-01 7.6042394000010050e-03 0.0000000000000000e+00 7.6042394000010050e-03 -7.2180755116901751e-02 0.0000000000000000e+00 0.0000000000000000e+00 0.0000000000000000e+00 0.0000000000000000e+00  -9.0344917955086007e-02 6.1360016419296434e-03 0.0000000000000000e+00 6.1360016419296434e-03 -8.8172528120092367e-02 0.0000000000000000e+00 0.0000000000000000e+00 0.0000000000000000e+00 0.0000000000000000e+00  -8.8922874064244914e-02 5.3848540103696978e-03 0.0000000000000000e+00 5.3848540103696978e-03 -8.8447918157410821e-02 0.0000000000000000e+00 0.0000000000000000e+00 0.0000000000000000e+00 0.0000000000000000e+00  -8.7719347091839095e-02 4.4847800567237427e-03 0.0000000000000000e+00 4.4847800567237427e-03 -8.9698327427676292e-02 0.0000000000000000e+00 0.0000000000000000e+00 0.0000000000000000e+00 0.0000000000000000e+00  -8.6719885980065609e-02 3.8064999176732374e-03 0.0000000000000000e+00 3.8064999176732374e-03 -9.0911393861770842e-02 0.0000000000000000e+00 0.0000000000000000e+00 0.0000000000000000e+00 0.0000000000000000e+00  -8.5978406686248052e-02 3.3734458904995960e-03 0.0000000000000000e+00 3.3734458904995960e-03 -9.1829769667611694e-02 0.0000000000000000e+00 0.0000000000000000e+00 0.0000000000000000e+00 0.0000000000000000e+00  -8.5403025477984118e-02 3.1423299409439258e-03 0.0000000000000000e+00 3.1423299409439258e-03 -9.2523409661071337e-02 0.0000000000000000e+00 0.0000000000000000e+00 0.0000000000000000e+00 0.0000000000000000e+00  -8.4962949808782828e-02 3.0641902557853682e-03 0.0000000000000000e+00 3.0641902557853682e-03 -9.2999210176664293e-02 0.0000000000000000e+00 0.0000000000000000e+00 0.0000000000000000e+00 0.0000000000000000e+00  -8.4608396419270718e-02 3.0995749824625891e-03 0.0000000000000000e+00 3.0995749824625891e-03 -9.3289685027138317e-02 0.0000000000000000e+00 0.0000000000000000e+00 0.0000000000000000e+00 0.0000000000000000e+00  -8.4300237645336687e-02 3.2176129059911388e-03 0.0000000000000000e+00 3.2176129059911388e-03 -9.3426037161151776e-02 0.0000000000000000e+00 0.0000000000000000e+00 0.0000000000000000e+00 0.0000000000000000e+00  -8.4011498293876205e-02 3.3970438787938951e-03 0.0000000000000000e+00 3.3970438787938951e-03 -9.3431693496273810e-02 0.0000000000000000e+00 0.0000000000000000e+00 0.0000000000000000e+00 0.0000000000000000e+00  -8.3724572567314665e-02 3.6243514636558685e-03 0.0000000000000000e+00 3.6243514636558685e-03 -9.3323643267912246e-02 0.0000000000000000e+00 0.0000000000000000e+00 0.0000000000000000e+00 0.0000000000000000e+00  -8.3428868062291828e-02 3.8927237613245623e-03 0.0000000000000000e+00 3.8927237613245623e-03 -9.3113315921759754e-02 0.0000000000000000e+00 0.0000000000000000e+00 0.0000000000000000e+00 0.0000000000000000e+00  -8.3117219982609986e-02 4.2008441448966455e-03 0.0000000000000000e+00 4.2008441448966455e-03 -9.2809525032062093e-02 0.0000000000000000e+00 0.0000000000000000e+00 0.0000000000000000e+00 0.0000000000000000e+00  -8.2782610817866545e-02 4.5508538082803564e-03 0.0000000000000000e+00 4.5508538082803564e-03 -9.2421432835128686e-02 0.0000000000000000e+00 0.0000000000000000e+00 0.0000000000000000e+00 0.0000000000000000e+00  -8.2415723500223706e-02 4.9453010832112921e-03 0.0000000000000000e+00 4.9453010832112921e-03 -9.1960709181706207e-02 0.0000000000000000e+00 0.0000000000000000e+00 0.0000000000000000e+00 0.0000000000000000e+00  -8.2003981495136574e-02 5.3834557428205938e-03 0.0000000000000000e+00 5.3834557428205938e-03 -9.1441941631127593e-02 0.0000000000000000e+00 0.0000000000000000e+00 0.0000000000000000e+00 0.0000000000000000e+00  -8.1532254821248137e-02 5.8578513400798504e-03 0.0000000000000000e+00 5.8578513400798504e-03 -9.0880980526731117e-02 0.0000000000000000e+00 0.0000000000000000e+00 0.0000000000000000e+00 0.0000000000000000e+00  -8.0984843728257094e-02 6.3519756343338252e-03 0.0000000000000000e+00 6.3519756343338252e-03 -9.0291642429950608e-02 0.0000000000000000e+00 0.0000000000000000e+00 0.0000000000000000e+00 0.0000000000000000e+00  -8.0347859974256156e-02 6.8396719158577059e-03 0.0000000000000000e+00 6.8396719158577059e-03 -8.9681832838847869e-02 0.0000000000000000e+00 0.0000000000000000e+00 0.0000000000000000e+00 0.0000000000000000e+00  -7.9610914963200330e-02 7.2861492680594466e-03 0.0000000000000000e+00 7.2861492680594466e-03 -8.9050412549785671e-02 0.0000000000000000e+00 0.0000000000000000e+00 0.0000000000000000e+00 0.0000000000000000e+00  -7.8767209289260023e-02 7.6497900389925003e-03 0.0000000000000000e+00 7.6497900389925003e-03 -8.8385878047111330e-02 0.0000000000000000e+00 0.0000000000000000e+00 0.0000000000000000e+00 0.0000000000000000e+00  -7.7811646195217340e-02 7.8834666285305666e-03 0.0000000000000000e+00 7.8834666285305666e-03 -8.7667223157519500e-02 0.0000000000000000e+00 0.0000000000000000e+00 0.0000000000000000e+00 0.0000000000000000e+00  -7.6737282320355704e-02 7.9340236197062985e-03 0.0000000000000000e+00 7.9340236197062985e-03 -8.6866431670545155e-02 0.0000000000000000e+00 0.0000000000000000e+00 0.0000000000000000e+00 0.0000000000000000e+00  -7.5531047563050971e-02 7.7389682552335198e-03 0.0000000000000000e+00 7.7389682552335198e-03 -8.5951225502081174e-02 0.0000000000000000e+00 0.0000000000000000e+00 0.0000000000000000e+00 0.0000000000000000e+00  -7.4170022868304153e-02 7.2200949056818670e-03 0.0000000000000000e+00 7.2200949056818670e-03 -8.4886210592817396e-02 0.0000000000000000e+00 0.0000000000000000e+00 0.0000000000000000e+00 0.0000000000000000e+00  -7.2619601554624630e-02 6.2744943714491425e-03 0.0000000000000000e+00 6.2744943714491425e-03 -8.3630509738909939e-02 0.0000000000000000e+00 0.0000000000000000e+00 0.0000000000000000e+00 0.0000000000000000e+00  -7.0834703355364889e-02 4.7639116790655399e-03 0.0000000000000000e+00 4.7639116790655399e-03 -8.2130208252758255e-02 0.0000000000000000e+00 0.0000000000000000e+00 0.0000000000000000e+00 0.0000000000000000e+00  -6.8765156015315715e-02 2.5036411729867647e-03 0.0000000000000000e+00 2.5036411729867647e-03 -8.0304137219402161e-02 0.0000000000000000e+00 0.0000000000000000e+00 0.0000000000000000e+00 0.0000000000000000e+00  -6.6366673888969815e-02 -7.4783951117332115e-04 0.0000000000000000e+00 -7.4783951117332115e-04 -7.8021402595067749e-02 0.0000000000000000e+00 0.0000000000000000e+00 0.0000000000000000e+00 0.0000000000000000e+00  -6.3620298587854673e-02 -5.2969262527999576e-03 0.0000000000000000e+00 -5.2969262527999576e-03 -7.5067952305323232e-02 0.0000000000000000e+00 0.0000000000000000e+00 0.0000000000000000e+00 0.0000000000000000e+00  -6.0564571664398714e-02 -1.1517595246523842e-02 0.0000000000000000e+00 -1.1517595246523842e-02 -7.1099023848310433e-02 0.0000000000000000e+00 0.0000000000000000e+00 0.0000000000000000e+00 0.0000000000000000e+00  -5.7347987714923540e-02 -1.9843408890223575e-02 0.0000000000000000e+00 -1.9843408890223575e-02 -6.5572037314479276e-02 0.0000000000000000e+00 0.0000000000000000e+00 0.0000000000000000e+00 0.0000000000000000e+00  -5.4324137515423546e-02 -3.0731006825099796e-02 0.0000000000000000e+00 -3.0731006825099796e-02 -5.7646665596878741e-02 0.0000000000000000e+00 0.0000000000000000e+00 0.0000000000000000e+00 0.0000000000000000e+00  -5.2128250584619340e-02 -4.4587647811162992e-02 0.0000000000000000e+00 -4.4587647811162992e-02 -4.6135062765103048e-02 0.0000000000000000e+00 0.0000000000000000e+00 0.0000000000000000e+00 0.0000000000000000e+00  -5.2062406447221286e-02 -6.1543414761244350e-02 0.0000000000000000e+00 -6.1543414761244350e-02 -2.9129786134804256e-02 0.0000000000000000e+00 0.0000000000000000e+00 0.0000000000000000e+00 0.0000000000000000e+00  -5.5703389719624304e-02 -8.1418274925942627e-02 0.0000000000000000e+00 -8.1418274925942627e-02 -4.8405698466495685e-03 0.0000000000000000e+00 0.0000000000000000e+00 0.0000000000000000e+00 0.0000000000000000e+00  -6.6139173902186932e-02 -1.0163614587237699e-01 0.0000000000000000e+00 -1.0163614587237699e-01 3.0618350872748817e-02 0.0000000000000000e+00 0.0000000000000000e+00 0.0000000000000000e+00 0.0000000000000000e+00  -8.7524656194395881e-02 -1.2542428984887022e-01 0.0000000000000000e+00 -1.2542428984887022e-01 7.9955141049980832e-02 0.0000000000000000e+00 0.0000000000000000e+00 0.0000000000000000e+00 0.0000000000000000e+00  -1.3344979744065097e-01 -1.1947213086972128e-01 0.0000000000000000e+00 -1.1947213086972128e-01 1.5402888193542513e-01 0.0000000000000000e+00 0.0000000000000000e+00 0.0000000000000000e+00 0.0000000000000000e+00  -2.6545351030179154e-01 -1.7130647260313578e-01 0.0000000000000000e+00 -1.7130647260313578e-01 1.9740657775956527e-01 0.0000000000000000e+00 0.0000000000000000e+00 0.0000000000000000e+00 0.0000000000000000e+00  -5.1899950745609824e-01 -1.1805634940224818e-01 0.0000000000000000e+00 -1.1805634940224818e-01 -9.2432305278988575e-02 0.0000000000000000e+00 0.0000000000000000e+00 0.0000000000000000e+00 0.0000000000000000e+00  -1.9652569215545898e-01 9.0596541956870433e-02 0.0000000000000000e+00 9.0596541956870433e-02 -7.7017163593167870e-01 0.0000000000000000e+00 0.0000000000000000e+00 0.0000000000000000e+00 0.0000000000000000e+00  -3.8973194077897899e-01 2.2665807219632869e-01 0.0000000000000000e+00 2.2665807219632869e-01 1.4160946182696205e-01 0.0000000000000000e+00 0.0000000000000000e+00 0.0000000000000000e+00 0.0000000000000000e+00  -1.7337091709257854e-01 1.0138910912672500e-01 0.0000000000000000e+00 1.0138910912672500e-01 1.6284435366859187e-01 0.0000000000000000e+00 0.0000000000000000e+00 0.0000000000000000e+00 0.0000000000000000e+00  -8.5536419025448771e-02 1.1881701514200786e-01 0.0000000000000000e+00 1.1881701514200786e-01 7.0921690100484616e-02 0.0000000000000000e+00 0.0000000000000000e+00 0.0000000000000000e+00 0.0000000000000000e+00  -6.3640685493057583e-02 9.5416490580926813e-02 0.0000000000000000e+00 9.5416490580926813e-02 2.0903738951327036e-02 0.0000000000000000e+00 0.0000000000000000e+00 0.0000000000000000e+00 0.0000000000000000e+00  -5.3499737002295378e-02 7.5067562191137444e-02 0.0000000000000000e+00 7.5067562191137444e-02 -1.3280097755557831e-02 0.0000000000000000e+00 0.0000000000000000e+00 0.0000000000000000e+00 0.0000000000000000e+00  -5.0636240440862852e-02 5.5436930388684871e-02 0.0000000000000000e+00 5.5436930388684871e-02 -3.6297624876337406e-02 0.0000000000000000e+00 0.0000000000000000e+00 0.0000000000000000e+00 0.0000000000000000e+00  -5.1378659280292206e-02 3.8972712507727526e-02 0.0000000000000000e+00 3.8972712507727526e-02 -5.2047926775715472e-02 0.0000000000000000e+00 0.0000000000000000e+00 0.0000000000000000e+00 0.0000000000000000e+00  -5.4095000729514613e-02 2.5741489692247925e-02 0.0000000000000000e+00 2.5741489692247925e-02 -6.2470260060244788e-02 0.0000000000000000e+00 0.0000000000000000e+00 0.0000000000000000e+00 0.0000000000000000e+00  -5.7478069170281108e-02 1.5534354157341864e-02 0.0000000000000000e+00 1.5534354157341864e-02 -6.9497555256623558e-02 0.0000000000000000e+00 0.0000000000000000e+00 0.0000000000000000e+00 0.0000000000000000e+00  -6.0921232613364663e-02 7.8806488009693174e-03 0.0000000000000000e+00 7.8806488009693174e-03 -7.4307247950019278e-02 0.0000000000000000e+00 0.0000000000000000e+00 0.0000000000000000e+00 0.0000000000000000e+00  -6.4103697461771997e-02 2.2833101089132285e-03 0.0000000000000000e+00 2.2833101089132285e-03 -7.7714363717774515e-02 0.0000000000000000e+00 0.0000000000000000e+00 0.0000000000000000e+00 0.0000000000000000e+00  -6.6908412286077620e-02 -1.7120487408368596e-03 0.0000000000000000e+00 -1.7120487408368596e-03 -8.0229790412715704e-02 0.0000000000000000e+00 0.0000000000000000e+00 0.0000000000000000e+00 0.0000000000000000e+00  -6.9321516180708351e-02 -4.4864870021070497e-03 0.0000000000000000e+00 -4.4864870021070497e-03 -8.2168958996172742e-02 0.0000000000000000e+00 0.0000000000000000e+00 0.0000000000000000e+00 0.0000000000000000e+00  -7.1379914981812828e-02 -6.3448492529313586e-03 0.0000000000000000e+00 -6.3448492529313586e-03 -8.3721448468706106e-02 0.0000000000000000e+00 0.0000000000000000e+00 0.0000000000000000e+00 0.0000000000000000e+00  -7.3139993081765164e-02 -7.5223455067540421e-03 0.0000000000000000e+00 -7.5223455067540421e-03 -8.4999221882731721e-02 0.0000000000000000e+00 0.0000000000000000e+00 0.0000000000000000e+00 0.0000000000000000e+00  -7.4659550098646749e-02 -8.1952302284644361e-03 0.0000000000000000e+00 -8.1952302284644361e-03 -8.6069510438182867e-02 0.0000000000000000e+00 0.0000000000000000e+00 0.0000000000000000e+00 0.0000000000000000e+00  -7.5988109312543947e-02 -8.4928139989034236e-03 0.0000000000000000e+00 -8.4928139989034236e-03 -8.6976348256687749e-02 0.0000000000000000e+00 0.0000000000000000e+00 0.0000000000000000e+00 0.0000000000000000e+00  -7.7162602647706330e-02 -8.5095059360298878e-03 0.0000000000000000e+00 -8.5095059360298878e-03 -8.7753794510041574e-02 0.0000000000000000e+00 0.0000000000000000e+00 0.0000000000000000e+00 0.0000000000000000e+00  -7.8206960926217317e-02 -8.3159176326868915e-03 0.0000000000000000e+00 -8.3159176326868915e-03 -8.8432612708918418e-02 0.0000000000000000e+00 0.0000000000000000e+00 0.0000000000000000e+00 0.0000000000000000e+00  -7.9134520441116310e-02 -7.9680159978101021e-03 0.0000000000000000e+00 -7.9680159978101021e-03 -8.9041940214278054e-02 0.0000000000000000e+00 0.0000000000000000e+00 0.0000000000000000e+00 0.0000000000000000e+00  -7.9952121421101599e-02 -7.5134865703614592e-03 0.0000000000000000e+00 -7.5134865703614592e-03 -8.9607624608468536e-02 0.0000000000000000e+00 0.0000000000000000e+00 0.0000000000000000e+00 0.0000000000000000e+00  -8.0664620201172044e-02 -6.9949401570285202e-03 0.0000000000000000e+00 -6.9949401570285202e-03 -9.0149114082214155e-02 0.0000000000000000e+00 0.0000000000000000e+00 0.0000000000000000e+00 0.0000000000000000e+00  -8.1278567462715015e-02 -6.4502904953022194e-03 0.0000000000000000e+00 -6.4502904953022194e-03 -9.0676728254553821e-02 0.0000000000000000e+00 0.0000000000000000e+00 0.0000000000000000e+00 0.0000000000000000e+00  -8.1804153665310658e-02 -5.9112927355362494e-03 0.0000000000000000e+00 -5.9112927355362494e-03 -9.1190653783055020e-02 0.0000000000000000e+00 0.0000000000000000e+00 0.0000000000000000e+00 0.0000000000000000e+00  -8.2255133987569687e-02 -5.4016057688765920e-03 0.0000000000000000e+00 -5.4016057688765920e-03 -9.1682187060984771e-02 0.0000000000000000e+00 0.0000000000000000e+00 0.0000000000000000e+00 0.0000000000000000e+00  -8.2647130237215663e-02 -4.9356756052409446e-03 0.0000000000000000e+00 -4.9356756052409446e-03 -9.2136832578897987e-02 0.0000000000000000e+00 0.0000000000000000e+00 0.0000000000000000e+00 0.0000000000000000e+00  -8.2995230217996499e-02 -4.5192536183116068e-03 0.0000000000000000e+00 -4.5192536183116068e-03 -9.2538166933520696e-02 0.0000000000000000e+00 0.0000000000000000e+00 0.0000000000000000e+00 0.0000000000000000e+00  -8.3311985629534915e-02 -4.1516488838791044e-03 0.0000000000000000e+00 -4.1516488838791044e-03 -9.2871129850136638e-02 0.0000000000000000e+00 0.0000000000000000e+00 0.0000000000000000e+00 0.0000000000000000e+00  -8.3606694763975628e-02 -3.8291468441751641e-03 0.0000000000000000e+00 -3.8291468441751641e-03 -9.3123672350671788e-02 0.0000000000000000e+00 0.0000000000000000e+00 0.0000000000000000e+00 0.0000000000000000e+00  -8.3886361844657809e-02 -3.5486690015126411e-03 0.0000000000000000e+00 -3.5486690015126411e-03 -9.3286333785242065e-02 0.0000000000000000e+00 0.0000000000000000e+00 0.0000000000000000e+00 0.0000000000000000e+00  -8.4158156486449781e-02 -3.3108055070538173e-03 0.0000000000000000e+00 -3.3108055070538173e-03 -9.3350061322350159e-02 0.0000000000000000e+00 0.0000000000000000e+00 0.0000000000000000e+00 0.0000000000000000e+00  -8.4432722073569333e-02 -3.1218360696061227e-03 0.0000000000000000e+00 -3.1218360696061227e-03 -9.3303214483738406e-02 0.0000000000000000e+00 0.0000000000000000e+00 0.0000000000000000e+00 0.0000000000000000e+00  -8.4727804558712913e-02 -2.9949156952075520e-03 0.0000000000000000e+00 -2.9949156952075520e-03 -9.3128585540161415e-02 0.0000000000000000e+00 0.0000000000000000e+00 0.0000000000000000e+00 0.0000000000000000e+00  -8.5070658463733018e-02 -2.9510731691151050e-03 0.0000000000000000e+00 -2.9510731691151050e-03 -9.2802495465677620e-02 0.0000000000000000e+00 0.0000000000000000e+00 0.0000000000000000e+00 0.0000000000000000e+00  -8.5500868823339390e-02 -3.0210176472711659e-03 0.0000000000000000e+00 -3.0210176472711659e-03 -9.2293471394020138e-02 0.0000000000000000e+00 0.0000000000000000e+00 0.0000000000000000e+00 0.0000000000000000e+00  -8.6068834560930355e-02 -3.2440371081698094e-03 0.0000000000000000e+00 -3.2440371081698094e-03 -9.1568824728523054e-02 0.0000000000000000e+00 0.0000000000000000e+00 0.0000000000000000e+00 0.0000000000000000e+00  -8.6806028739629421e-02 -3.6688995595561551e-03 0.0000000000000000e+00 -3.6688995595561551e-03 -9.0621819881718843e-02 0.0000000000000000e+00 0.0000000000000000e+00 0.0000000000000000e+00 0.0000000000000000e+00  -8.7804844525400563e-02 -4.3386647381368926e-03 0.0000000000000000e+00 -4.3386647381368926e-03 -8.9383432514394179e-02 0.0000000000000000e+00 0.0000000000000000e+00 0.0000000000000000e+00 0.0000000000000000e+00  -8.9009617648695291e-02 -5.2297777770385790e-03 0.0000000000000000e+00 -5.2297777770385790e-03 -8.8115226378500153e-02 0.0000000000000000e+00 0.0000000000000000e+00 0.0000000000000000e+00 0.0000000000000000e+00  -9.0431615341466265e-02 -5.9714664159702400e-03 0.0000000000000000e+00 -5.9714664159702400e-03 -8.7829553605745889e-02 0.0000000000000000e+00 0.0000000000000000e+00 0.0000000000000000e+00 0.0000000000000000e+00  -1.1724973988821423e-01 -7.4350274128242196e-03 0.0000000000000000e+00 -7.4350274128242196e-03 -7.1869853577070500e-02 0.0000000000000000e+00 0.0000000000000000e+00 0.0000000000000000e+00 0.0000000000000000e+00  -2.2644929552726978e-01 3.7378762816286928e-03 0.0000000000000000e+00 3.7378762816286928e-03 -9.0453912527835939e-02 0.0000000000000000e+00 0.0000000000000000e+00 0.0000000000000000e+00 0.0000000000000000e+00  2.4058423113288935e-01 7.4205872721601659e-02 0.0000000000000000e+00 7.4205872721601659e-02 -2.7301012848858414e-01 0.0000000000000000e+00 0.0000000000000000e+00 0.0000000000000000e+00 0.0000000000000000e+00  9.6295823527745072e-02 -5.6203542242435525e-02 0.0000000000000000e+00 -5.6203542242435525e-02 1.4288632321079600e-01 0.0000000000000000e+00 0.0000000000000000e+00 0.0000000000000000e+00 0.0000000000000000e+00  -1.0493708014613017e-02 1.0129764761186240e-05 0.0000000000000000e+00 1.0129764761186240e-05 1.8929351297641419e-02 0.0000000000000000e+00 0.0000000000000000e+00 0.0000000000000000e+00 0.0000000000000000e+00  7.9490873690463981e-03 1.8953714093998181e-04 0.0000000000000000e+00 1.8953714093998181e-04 9.4179640963229904e-03 0.0000000000000000e+00 0.0000000000000000e+00 0.0000000000000000e+00 0.0000000000000000e+00  7.7810914543399784e-03 -2.7801090311041567e-05 0.0000000000000000e+00 -2.7801090311041567e-05 7.8177810687947592e-03 0.0000000000000000e+00 0.0000000000000000e+00 0.0000000000000000e+00 0.0000000000000000e+00  7.8651498416374196e-03 -1.0348463084732544e-05 0.0000000000000000e+00 -1.0348463084732544e-05 7.8610718903533300e-03 0.0000000000000000e+00 0.0000000000000000e+00 0.0000000000000000e+00 0.0000000000000000e+00  7.8672831272749884e-03 -3.9699153345243669e-05 0.0000000000000000e+00 -3.9699153345243669e-05 7.8658825761908843e-03 0.0000000000000000e+00 0.0000000000000000e+00 0.0000000000000000e+00 0.0000000000000000e+00  7.8860734156769204e-03 4.2653598686664500e-05 0.0000000000000000e+00 4.2653598686664500e-05 7.8816041246874864e-03 0.0000000000000000e+00 0.0000000000000000e+00 0.0000000000000000e+00 0.0000000000000000e+00  7.8885925947214681e-03 1.6844763233732156e-05 0.0000000000000000e+00 1.6844763233732156e-05 7.8755999334544531e-03 0.0000000000000000e+00 0.0000000000000000e+00 0.0000000000000000e+00 0.0000000000000000e+00  7.7630540108818702e-03 -1.4834879325244733e-05 0.0000000000000000e+00 -1.4834879325244733e-05 7.8717335795604037e-03 0.0000000000000000e+00 0.0000000000000000e+00 0.0000000000000000e+00 0.0000000000000000e+00  7.2568942872434095e-03 8.9208663543726460e-04 0.0000000000000000e+00 8.9208663543726460e-04 1.0203856587565934e-02 0.0000000000000000e+00 0.0000000000000000e+00 0.0000000000000000e+00 0.0000000000000000e+00  -5.5906716290589319e-03 -1.4166240646999307e-02 0.0000000000000000e+00 -1.4166240646999307e-02 5.8847818649266394e-02 0.0000000000000000e+00 0.0000000000000000e+00 0.0000000000000000e+00 0.0000000000000000e+00  2.1209408473628694e-01 6.3180399598268502e-02 0.0000000000000000e+00 6.3180399598268502e-02 -3.2873558813265556e-02 0.0000000000000000e+00 0.0000000000000000e+00 0.0000000000000000e+00 0.0000000000000000e+00  -5.4306922273458992e-02 2.2224550179329072e-02 0.0000000000000000e+00 2.2224550179329072e-02 -5.5152394887471735e-02 0.0000000000000000e+00 0.0000000000000000e+00 0.0000000000000000e+00 0.0000000000000000e+00  -2.0371334226698087e-01 2.7199190809247192e-02 0.0000000000000000e+00 2.7199190809247192e-02 -1.0875448159879163e-01 0.0000000000000000e+00 0.0000000000000000e+00 0.0000000000000000e+00 0.0000000000000000e+00  -1.0755630808725440e-01 1.0896243491923209e-02 0.0000000000000000e+00 1.0896243491923209e-02 -7.9352568682914279e-02 0.0000000000000000e+00 0.0000000000000000e+00 0.0000000000000000e+00 0.0000000000000000e+00  -9.3704308033858250e-02 5.2423419585546300e-03 0.0000000000000000e+00 5.2423419585546300e-03 -8.5861407807589787e-02 0.0000000000000000e+00 0.0000000000000000e+00 0.0000000000000000e+00 0.0000000000000000e+00  -9.0603444521250076e-02 3.5500699888002469e-03 0.0000000000000000e+00 3.5500699888002469e-03 -8.7654420918578627e-02 0.0000000000000000e+00 0.0000000000000000e+00 0.0000000000000000e+00 0.0000000000000000e+00  -8.8546144183078879e-02 2.8128730533319994e-03 0.0000000000000000e+00 2.8128730533319994e-03 -8.9153228305745721e-02 0.0000000000000000e+00 0.0000000000000000e+00 0.0000000000000000e+00 0.0000000000000000e+00  -8.6922837390057905e-02 2.4527200446530337e-03 0.0000000000000000e+00 2.4527200446530337e-03 -9.0592127543159581e-02 0.0000000000000000e+00 0.0000000000000000e+00 0.0000000000000000e+00 0.0000000000000000e+00  -8.5775813332722411e-02 2.3116887033532863e-03 0.0000000000000000e+00 2.3116887033532863e-03 -9.1740212453357908e-02 0.0000000000000000e+00 0.0000000000000000e+00 0.0000000000000000e+00 0.0000000000000000e+00  -8.4978661444205211e-02 2.3032760447610264e-03 0.0000000000000000e+00 2.3032760447610264e-03 -9.2583960162536422e-02 0.0000000000000000e+00 0.0000000000000000e+00 0.0000000000000000e+00 0.0000000000000000e+00  -8.4408701821932983e-02 2.3796536195055729e-03 0.0000000000000000e+00 2.3796536195055729e-03 -9.3167518663476098e-02 0.0000000000000000e+00 0.0000000000000000e+00 0.0000000000000000e+00 0.0000000000000000e+00  -8.3975939535444868e-02 2.5143539770512775e-03 0.0000000000000000e+00 2.5143539770512775e-03 -9.3535345082372656e-02 0.0000000000000000e+00 0.0000000000000000e+00 0.0000000000000000e+00 0.0000000000000000e+00  -8.3615425147731140e-02 2.6925186996405847e-03 0.0000000000000000e+00 2.6925186996405847e-03 -9.3727741448960719e-02 0.0000000000000000e+00 0.0000000000000000e+00 0.0000000000000000e+00 0.0000000000000000e+00  -8.3283777349544050e-02 2.9056111575965844e-03 0.0000000000000000e+00 2.9056111575965844e-03 -9.3776091512951576e-02 0.0000000000000000e+00 0.0000000000000000e+00 0.0000000000000000e+00 0.0000000000000000e+00  -8.2953182323605407e-02 3.1492931201944044e-03 0.0000000000000000e+00 3.1492931201944044e-03 -9.3703204628717215e-02 0.0000000000000000e+00 0.0000000000000000e+00 0.0000000000000000e+00 0.0000000000000000e+00  -8.2605999875191183e-02 3.4222311047294738e-03 0.0000000000000000e+00 3.4222311047294738e-03 -9.3525448301852776e-02 0.0000000000000000e+00 0.0000000000000000e+00 0.0000000000000000e+00 0.0000000000000000e+00  -8.2230402943104047e-02 3.7251811443987743e-03 0.0000000000000000e+00 3.7251811443987743e-03 -9.3255140642721959e-02 0.0000000000000000e+00 0.0000000000000000e+00 0.0000000000000000e+00 0.0000000000000000e+00  -8.1816946726909409e-02 4.0596863951726722e-03 0.0000000000000000e+00 4.0596863951726722e-03 -9.2902803991525632e-02 0.0000000000000000e+00 0.0000000000000000e+00 0.0000000000000000e+00 0.0000000000000000e+00  -8.1356294156872511e-02 4.4261908561312943e-03 0.0000000000000000e+00 4.4261908561312943e-03 -9.2478602340913277e-02 0.0000000000000000e+00 0.0000000000000000e+00 0.0000000000000000e+00 0.0000000000000000e+00  -8.0838205191640325e-02 4.8217766168680695e-03 0.0000000000000000e+00 4.8217766168680695e-03 -9.1992563724125481e-02 0.0000000000000000e+00 0.0000000000000000e+00 0.0000000000000000e+00 0.0000000000000000e+00  -8.0251739476946513e-02 5.2379908942096869e-03 0.0000000000000000e+00 5.2379908942096869e-03 -9.1453477424131735e-02 0.0000000000000000e+00 0.0000000000000000e+00 0.0000000000000000e+00 0.0000000000000000e+00  -7.9586342267106966e-02 5.6592637752130963e-03 0.0000000000000000e+00 5.6592637752130963e-03 -9.0866763036015874e-02 0.0000000000000000e+00 0.0000000000000000e+00 0.0000000000000000e+00 0.0000000000000000e+00  -7.8833243511909470e-02 6.0622008617458633e-03 0.0000000000000000e+00 6.0622008617458633e-03 -9.0231941650328662e-02 0.0000000000000000e+00 0.0000000000000000e+00 0.0000000000000000e+00 0.0000000000000000e+00  -7.7986517521308418e-02 6.4156522597240478e-03 0.0000000000000000e+00 6.4156522597240478e-03 -8.9540457258887013e-02 0.0000000000000000e+00 0.0000000000000000e+00 0.0000000000000000e+00 0.0000000000000000e+00  -7.7043287899140084e-02 6.6810560641299291e-03 0.0000000000000000e+00 6.6810560641299291e-03 -8.8774424921587033e-02 0.0000000000000000e+00 0.0000000000000000e+00 0.0000000000000000e+00 0.0000000000000000e+00  -7.6002896594372038e-02 6.8122903158363279e-03 0.0000000000000000e+00 6.8122903158363279e-03 -8.7906455690016871e-02 0.0000000000000000e+00 0.0000000000000000e+00 0.0000000000000000e+00 0.0000000000000000e+00  -7.4865288869717828e-02 6.7542514324625243e-03 0.0000000000000000e+00 6.7542514324625243e-03 -8.6900156668794665e-02 0.0000000000000000e+00 0.0000000000000000e+00 0.0000000000000000e+00 0.0000000000000000e+00  -7.3629270257649690e-02 6.4396287422639050e-03 0.0000000000000000e+00 6.4396287422639050e-03 -8.5710397246414147e-02 0.0000000000000000e+00 0.0000000000000000e+00 0.0000000000000000e+00 0.0000000000000000e+00  -7.2291567093833442e-02 5.7837922791952445e-03 0.0000000000000000e+00 5.7837922791952445e-03 -8.4282107632377395e-02 0.0000000000000000e+00 0.0000000000000000e+00 0.0000000000000000e+00 0.0000000000000000e+00  -7.0847747513881579e-02 4.6782294920683625e-03 0.0000000000000000e+00 4.6782294920683625e-03 -8.2546279161249833e-02 0.0000000000000000e+00 0.0000000000000000e+00 0.0000000000000000e+00 0.0000000000000000e+00  -6.9296114706452694e-02 2.9834524865773866e-03 0.0000000000000000e+00 2.9834524865773866e-03 -8.0411897975376109e-02 0.0000000000000000e+00 0.0000000000000000e+00 0.0000000000000000e+00 0.0000000000000000e+00  -6.7645822338492700e-02 5.2273473057985395e-04 0.0000000000000000e+00 5.2273473057985395e-04 -7.7752622768909929e-02 0.0000000000000000e+00 0.0000000000000000e+00 0.0000000000000000e+00 0.0000000000000000e+00  -6.5930898485864156e-02 -2.9214112629170120e-03 0.0000000000000000e+00 -2.9214112629170120e-03 -7.4386939504283531e-02 0.0000000000000000e+00 0.0000000000000000e+00 0.0000000000000000e+00 0.0000000000000000e+00  -6.4232631591792724e-02 -7.6051049531575196e-03 0.0000000000000000e+00 -7.6051049531575196e-03 -7.0050407786867677e-02 0.0000000000000000e+00 0.0000000000000000e+00 0.0000000000000000e+00 0.0000000000000000e+00  -6.2713783555777364e-02 -1.3810521760296558e-02 0.0000000000000000e+00 -1.3810521760296558e-02 -6.4358693859314808e-02 0.0000000000000000e+00 0.0000000000000000e+00 0.0000000000000000e+00 0.0000000000000000e+00  -6.1670672222801148e-02 -2.1814124485320517e-02 0.0000000000000000e+00 -2.1814124485320517e-02 -5.6759999572994185e-02 0.0000000000000000e+00 0.0000000000000000e+00 0.0000000000000000e+00 0.0000000000000000e+00  -6.1598984498423832e-02 -3.1822214470172652e-02 0.0000000000000000e+00 -3.1822214470172652e-02 -4.6489778049590293e-02 0.0000000000000000e+00 0.0000000000000000e+00 0.0000000000000000e+00 0.0000000000000000e+00  -6.3309454391528311e-02 -4.3849675366361578e-02 0.0000000000000000e+00 -4.3849675366361578e-02 -3.2502174480590389e-02 0.0000000000000000e+00 0.0000000000000000e+00 0.0000000000000000e+00 0.0000000000000000e+00  -6.7965450531199886e-02 -5.7518113173241806e-02 0.0000000000000000e+00 -5.7518113173241806e-02 -1.3563544721633342e-02 0.0000000000000000e+00 0.0000000000000000e+00 0.0000000000000000e+00 0.0000000000000000e+00  -7.7304077906360180e-02 -7.1678074282565105e-02 0.0000000000000000e+00 -7.1678074282565105e-02 1.1847969250945342e-02 0.0000000000000000e+00 0.0000000000000000e+00 0.0000000000000000e+00 0.0000000000000000e+00  -9.3530727289850749e-02 -8.4189830199294546e-02 0.0000000000000000e+00 -8.4189830199294546e-02 4.4858988559938452e-02 0.0000000000000000e+00 0.0000000000000000e+00 0.0000000000000000e+00 0.0000000000000000e+00  -1.1852464033579428e-01 -8.9617722623370075e-02 0.0000000000000000e+00 -8.9617722623370075e-02 8.5540868218016763e-02 0.0000000000000000e+00 0.0000000000000000e+00 0.0000000000000000e+00 0.0000000000000000e+00  -1.6023730091819727e-01 -8.4164648530251074e-02 0.0000000000000000e+00 -8.4164648530251074e-02 1.3253060255988616e-01 0.0000000000000000e+00 0.0000000000000000e+00 0.0000000000000000e+00 0.0000000000000000e+00  -2.4776909141339482e-01 -5.6987514045387676e-02 0.0000000000000000e+00 -5.6987514045387676e-02 1.6367011111876412e-01 0.0000000000000000e+00 0.0000000000000000e+00 0.0000000000000000e+00 0.0000000000000000e+00  -3.4231766746953440e-01 -3.4303554072187076e-02 0.0000000000000000e+00 -3.4303554072187076e-02 5.1235546958585905e-02 0.0000000000000000e+00 0.0000000000000000e+00 0.0000000000000000e+00 0.0000000000000000e+00  2.1628157859929751e-02 5.2318290318850692e-02 0.0000000000000000e+00 5.2318290318850692e-02 -2.2191977117407380e-01 0.0000000000000000e+00 0.0000000000000000e+00 0.0000000000000000e+00 0.0000000000000000e+00  -3.3120752931109249e-01 6.4788762271131867e-02 0.0000000000000000e+00 6.4788762271131867e-02 9.0567267082718061e-02 0.0000000000000000e+00 0.0000000000000000e+00 0.0000000000000000e+00 0.0000000000000000e+00  -1.9135435762336064e-01 7.8880893081128223e-02 0.0000000000000000e+00 7.8880893081128223e-02 1.2616778529248943e-01 0.0000000000000000e+00 0.0000000000000000e+00 0.0000000000000000e+00 0.0000000000000000e+00  -1.1413010082464567e-01 8.2972462403077596e-02 0.0000000000000000e+00 8.2972462403077596e-02 7.5554211991686854e-02 0.0000000000000000e+00 0.0000000000000000e+00 0.0000000000000000e+00 0.0000000000000000e+00  -8.8357712137642611e-02 7.8448443528313483e-02 0.0000000000000000e+00 7.8448443528313483e-02 3.4978385022882162e-02 0.0000000000000000e+00 0.0000000000000000e+00 0.0000000000000000e+00 0.0000000000000000e+00  -7.3376826601833992e-02 6.6162265636553544e-02 0.0000000000000000e+00 6.6162265636553544e-02 3.1747766383657017e-03 0.0000000000000000e+00 0.0000000000000000e+00 0.0000000000000000e+00 0.0000000000000000e+00  -6.4992675715131509e-02 5.2230722929949625e-02 0.0000000000000000e+00 5.2230722929949625e-02 -2.1067332051577153e-02 0.0000000000000000e+00 0.0000000000000000e+00 0.0000000000000000e+00 0.0000000000000000e+00  -6.1171798272406722e-02 3.8907706265281887e-02 0.0000000000000000e+00 3.8907706265281887e-02 -3.8913824017939559e-02 0.0000000000000000e+00 0.0000000000000000e+00 0.0000000000000000e+00 0.0000000000000000e+00  -6.0143390809930489e-02 2.7344827831967133e-02 0.0000000000000000e+00 2.7344827831967133e-02 -5.1903059332885727e-02 0.0000000000000000e+00 0.0000000000000000e+00 0.0000000000000000e+00 0.0000000000000000e+00  -6.0745545739130831e-02 1.7869671367285966e-02 0.0000000000000000e+00 1.7869671367285966e-02 -6.1304025074335029e-02 0.0000000000000000e+00 0.0000000000000000e+00 0.0000000000000000e+00 0.0000000000000000e+00  -6.2185399044453540e-02 1.0418202920237870e-02 0.0000000000000000e+00 1.0418202920237870e-02 -6.8167810234059600e-02 0.0000000000000000e+00 0.0000000000000000e+00 0.0000000000000000e+00 0.0000000000000000e+00  -6.3991458258917000e-02 4.7460183125679900e-03 0.0000000000000000e+00 4.7460183125679900e-03 -7.3249830169360652e-02 0.0000000000000000e+00 0.0000000000000000e+00 0.0000000000000000e+00 0.0000000000000000e+00  -6.5891859670817288e-02 5.5224239251548701e-04 0.0000000000000000e+00 5.5224239251548701e-04 -7.7085189866425194e-02 0.0000000000000000e+00 0.0000000000000000e+00 0.0000000000000000e+00 0.0000000000000000e+00  -6.7745516044500131e-02 -2.4578795722699008e-03 0.0000000000000000e+00 -2.4578795722699008e-03 -8.0039327009110969e-02 0.0000000000000000e+00 0.0000000000000000e+00 0.0000000000000000e+00 0.0000000000000000e+00  -6.9488656092587336e-02 -4.5444233983983947e-03 0.0000000000000000e+00 -4.5444233983983947e-03 -8.2358929173209222e-02 0.0000000000000000e+00 0.0000000000000000e+00 0.0000000000000000e+00 0.0000000000000000e+00  -7.1100623862476814e-02 -5.9232335207162062e-03 0.0000000000000000e+00 -5.9232335207162062e-03 -8.4210325597409708e-02 0.0000000000000000e+00 0.0000000000000000e+00 0.0000000000000000e+00 0.0000000000000000e+00  -7.2582036400783478e-02 -6.7661940726571179e-03 0.0000000000000000e+00 -6.7661940726571179e-03 -8.5707622738704081e-02 0.0000000000000000e+00 0.0000000000000000e+00 0.0000000000000000e+00 0.0000000000000000e+00  -7.3941501272854385e-02 -7.2064543149170232e-03 0.0000000000000000e+00 -7.2064543149170232e-03 -8.6932346205314787e-02 0.0000000000000000e+00 0.0000000000000000e+00 0.0000000000000000e+00 0.0000000000000000e+00  -7.5188221887862311e-02 -7.3458020530623169e-03 0.0000000000000000e+00 -7.3458020530623169e-03 -8.7946319072077270e-02 0.0000000000000000e+00 0.0000000000000000e+00 0.0000000000000000e+00 0.0000000000000000e+00  -7.6328718365769918e-02 -7.2624152810867393e-03 0.0000000000000000e+00 -7.2624152810867393e-03 -8.8799229891938294e-02 0.0000000000000000e+00 0.0000000000000000e+00 0.0000000000000000e+00 0.0000000000000000e+00  -7.7366387483499319e-02 -7.0177678996308631e-03 0.0000000000000000e+00 -7.0177678996308631e-03 -8.9532176809276803e-02 0.0000000000000000e+00 0.0000000000000000e+00 0.0000000000000000e+00 0.0000000000000000e+00  -7.8302796423276519e-02 -6.6618772126830553e-03 0.0000000000000000e+00 -6.6618772126830553e-03 -9.0178495107245918e-02 0.0000000000000000e+00 0.0000000000000000e+00 0.0000000000000000e+00 0.0000000000000000e+00  -7.9139673180643896e-02 -6.2365390483358841e-03 0.0000000000000000e+00 -6.2365390483358841e-03 -9.0763206172351424e-02 0.0000000000000000e+00 0.0000000000000000e+00 0.0000000000000000e+00 0.0000000000000000e+00  -7.9880685213489053e-02 -5.7766905385529992e-03 0.0000000000000000e+00 -5.7766905385529992e-03 -9.1302313476646219e-02 0.0000000000000000e+00 0.0000000000000000e+00 0.0000000000000000e+00 0.0000000000000000e+00  -8.0532372104937994e-02 -5.3104691389177254e-03 0.0000000000000000e+00 -5.3104691389177254e-03 -9.1802839851463147e-02 0.0000000000000000e+00 0.0000000000000000e+00 0.0000000000000000e+00 0.0000000000000000e+00  -8.1103999318013806e-02 -4.8587739956313658e-03 0.0000000000000000e+00 -4.8587739956313658e-03 -9.2263991297496142e-02 0.0000000000000000e+00 0.0000000000000000e+00 0.0000000000000000e+00 0.0000000000000000e+00  -8.1606529776697925e-02 -4.4351094493707381e-03 0.0000000000000000e+00 -4.4351094493707381e-03 -9.2679281702757424e-02 0.0000000000000000e+00 0.0000000000000000e+00 0.0000000000000000e+00 0.0000000000000000e+00  -8.2051240888594126e-02 -4.0462187968608818e-03 0.0000000000000000e+00 -4.0462187968608818e-03 -9.3039028439864183e-02 0.0000000000000000e+00 0.0000000000000000e+00 0.0000000000000000e+00 0.0000000000000000e+00  -8.2448648748793027e-02 -3.6936080316660297e-03 0.0000000000000000e+00 -3.6936080316660297e-03 -9.3332460228676015e-02 0.0000000000000000e+00 0.0000000000000000e+00 0.0000000000000000e+00 0.0000000000000000e+00  -8.2808316008178937e-02 -3.3756734836877852e-03 0.0000000000000000e+00 -3.3756734836877852e-03 -9.3548799676506991e-02 0.0000000000000000e+00 0.0000000000000000e+00 0.0000000000000000e+00 0.0000000000000000e+00  -8.3139877807155399e-02 -3.0899290227519383e-03 0.0000000000000000e+00 -3.0899290227519383e-03 -9.3677018971694823e-02 0.0000000000000000e+00 0.0000000000000000e+00 0.0000000000000000e+00 0.0000000000000000e+00  -8.3455339206058549e-02 -2.8348623203157367e-03 0.0000000000000000e+00 -2.8348623203157367e-03 -9.3704376781582902e-02 0.0000000000000000e+00 0.0000000000000000e+00 0.0000000000000000e+00 0.0000000000000000e+00  -8.3772538166125898e-02 -2.6112079452220638e-03 0.0000000000000000e+00 -2.6112079452220638e-03 -9.3614135779031493e-02 0.0000000000000000e+00 0.0000000000000000e+00 0.0000000000000000e+00 0.0000000000000000e+00  -8.4119546683801144e-02 -2.4228292268453967e-03 0.0000000000000000e+00 -2.4228292268453967e-03 -9.3383143111939876e-02 0.0000000000000000e+00 0.0000000000000000e+00 0.0000000000000000e+00 0.0000000000000000e+00  -8.4540108842269840e-02 -2.2778726208358951e-03 0.0000000000000000e+00 -2.2778726208358951e-03 -9.2979684176910993e-02 0.0000000000000000e+00 0.0000000000000000e+00 0.0000000000000000e+00 0.0000000000000000e+00  -8.5099678542738907e-02 -2.1908516172955920e-03 0.0000000000000000e+00 -2.1908516172955920e-03 -9.2363159379858978e-02 0.0000000000000000e+00 0.0000000000000000e+00 0.0000000000000000e+00 0.0000000000000000e+00  -8.5888912214674054e-02 -2.1879190038431033e-03 0.0000000000000000e+00 -2.1879190038431038e-03 -9.1488929653707765e-02 0.0000000000000000e+00 0.0000000000000000e+00 0.0000000000000000e+00 0.0000000000000000e+00  -8.7031299267517265e-02 -2.3166691013637173e-03 0.0000000000000000e+00 -2.3166691013637168e-03 -9.0312944638323497e-02 0.0000000000000000e+00 0.0000000000000000e+00 0.0000000000000000e+00 0.0000000000000000e+00  -8.8653989287074769e-02 -2.6636602400984888e-03 0.0000000000000000e+00 -2.6636602400984888e-03 -8.8849522805160425e-02 0.0000000000000000e+00 0.0000000000000000e+00 0.0000000000000000e+00 0.0000000000000000e+00  -9.0715789389720899e-02 -3.3878275102231978e-03 0.0000000000000000e+00 -3.3878275102231978e-03 -8.7330895443383169e-02 0.0000000000000000e+00 0.0000000000000000e+00 0.0000000000000000e+00 0.0000000000000000e+00  -9.3828238246465315e-02 -5.0702172606720717e-03 0.0000000000000000e+00 -5.0702172606720717e-03 -8.5524863254969455e-02 0.0000000000000000e+00 0.0000000000000000e+00 0.0000000000000000e+00 0.0000000000000000e+00  -1.0767824644344003e-01 -1.0720352125952664e-02 0.0000000000000000e+00 -1.0720352125952664e-02 -7.9034266234677006e-02 0.0000000000000000e+00 0.0000000000000000e+00 0.0000000000000000e+00 0.0000000000000000e+00  -2.0383944171245186e-01 -2.7014643642769759e-02 0.0000000000000000e+00 -2.7014643642769759e-02 -1.0843538802167872e-01 0.0000000000000000e+00 0.0000000000000000e+00 0.0000000000000000e+00 0.0000000000000000e+00  -5.5088514146689825e-02 -2.2105339349233158e-02 0.0000000000000000e+00 -2.2105339349233158e-02 -5.4674541745048863e-02 0.0000000000000000e+00 0.0000000000000000e+00 0.0000000000000000e+00 0.0000000000000000e+00  2.1173068417630606e-01 -6.2837926937425070e-02 0.0000000000000000e+00 -6.2837926937425070e-02 -3.4168498439524388e-02 0.0000000000000000e+00 0.0000000000000000e+00 0.0000000000000000e+00 0.0000000000000000e+00  -6.2942804325677041e-03 1.4246035295274993e-02 0.0000000000000000e+00 1.4246035295274993e-02 5.8364932454564082e-02 0.0000000000000000e+00 0.0000000000000000e+00 0.0000000000000000e+00 0.0000000000000000e+00  7.2784134166726643e-03 -9.4057584581978425e-04 0.0000000000000000e+00 -9.4057584581978425e-04 1.0301316574112311e-02 0.0000000000000000e+00 0.0000000000000000e+00 0.0000000000000000e+00 0.0000000000000000e+00  7.7610800178905650e-03 2.4041920557311496e-05 0.0000000000000000e+00 2.4041920557311503e-05 7.8816251663398253e-03 0.0000000000000000e+00 0.0000000000000000e+00 0.0000000000000000e+00 0.0000000000000000e+00  7.9001638681356484e-03 -1.5369305522339607e-05 0.0000000000000000e+00 -1.5369305522339607e-05 7.8865919975972514e-03 0.0000000000000000e+00 0.0000000000000000e+00 0.0000000000000000e+00 0.0000000000000000e+00  7.8975449368562101e-03 -3.7306761739361731e-05 0.0000000000000000e+00 -3.7306761739361731e-05 7.8910170828697512e-03 0.0000000000000000e+00 0.0000000000000000e+00 0.0000000000000000e+00 0.0000000000000000e+00  7.9202896380083428e-03 3.9329366384066074e-05 0.0000000000000000e+00 3.9329366384066074e-05 7.9116624967565004e-03 0.0000000000000000e+00 0.0000000000000000e+00 0.0000000000000000e+00 0.0000000000000000e+00  7.9159762344706806e-03 1.7396227562419037e-05 0.0000000000000000e+00 1.7396227562419037e-05 7.9003995820858975e-03 0.0000000000000000e+00 0.0000000000000000e+00 0.0000000000000000e+00 0.0000000000000000e+00  7.7951484539349070e-03 -3.7917622532010719e-05 0.0000000000000000e+00 -3.7917622532010719e-05 7.9752062831297769e-03 0.0000000000000000e+00 0.0000000000000000e+00 0.0000000000000000e+00 0.0000000000000000e+00  5.1218245848526200e-03 1.4668872479163893e-03 0.0000000000000000e+00 1.4668872479163893e-03 1.0707234994863738e-02 0.0000000000000000e+00 0.0000000000000000e+00 0.0000000000000000e+00 0.0000000000000000e+00  2.3294871831165340e-02 -1.6378908533781381e-02 0.0000000000000000e+00 -1.6378908533781381e-02 1.2525914963784199e-01 0.0000000000000000e+00 0.0000000000000000e+00 0.0000000000000000e+00 0.0000000000000000e+00  3.6856333991648488e-01 -1.0068129072992992e-02 0.0000000000000000e+00 -1.0068129072992992e-02 -1.8836503743178709e-01 0.0000000000000000e+00 0.0000000000000000e+00 0.0000000000000000e+00 0.0000000000000000e+00  -2.4917580427427943e-01 -1.4042172962412442e-02 0.0000000000000000e+00 -1.4042172962412442e-02 -5.4843732794512039e-02 0.0000000000000000e+00 0.0000000000000000e+00 0.0000000000000000e+00 0.0000000000000000e+00  -2.0284169555243689e-01 9.0126793650122522e-03 0.0000000000000000e+00 9.0126793650122522e-03 -7.8560586143182481e-02 0.0000000000000000e+00 0.0000000000000000e+00 0.0000000000000000e+00 0.0000000000000000e+00  -1.1290557646246650e-01 3.1296176614906903e-03 0.0000000000000000e+00 3.1296176614906903e-03 -7.9454800848276566e-02 0.0000000000000000e+00 0.0000000000000000e+00 0.0000000000000000e+00 0.0000000000000000e+00  -9.7724287945497534e-02 7.0499217408633854e-04 0.0000000000000000e+00 7.0499217408633854e-04 -8.4034076799849311e-02 0.0000000000000000e+00 0.0000000000000000e+00 0.0000000000000000e+00 0.0000000000000000e+00  -9.1812096063229653e-02 1.7289059202462971e-04 0.0000000000000000e+00 1.7289059202462971e-04 -8.6973582351544926e-02 0.0000000000000000e+00 0.0000000000000000e+00 0.0000000000000000e+00 0.0000000000000000e+00  -8.8557078655915542e-02 3.3833515784992702e-04 0.0000000000000000e+00 3.3833515784992702e-04 -8.9090020406219633e-02 0.0000000000000000e+00 0.0000000000000000e+00 0.0000000000000000e+00 0.0000000000000000e+00  -8.6509246855331151e-02 6.8299780465129304e-04 0.0000000000000000e+00 6.8299780465129304e-04 -9.0728582747538755e-02 0.0000000000000000e+00 0.0000000000000000e+00 0.0000000000000000e+00 0.0000000000000000e+00  -8.5192851266095174e-02 1.0352518571247170e-03 0.0000000000000000e+00 1.0352518571247170e-03 -9.1962185499845750e-02 0.0000000000000000e+00 0.0000000000000000e+00 0.0000000000000000e+00 0.0000000000000000e+00  -8.4332324646622159e-02 1.3525866882198761e-03 0.0000000000000000e+00 1.3525866882198761e-03 -9.2850188569279679e-02 0.0000000000000000e+00 0.0000000000000000e+00 0.0000000000000000e+00 0.0000000000000000e+00  -8.3742517801907140e-02 1.6343545453003838e-03 0.0000000000000000e+00 1.6343545453003838e-03 -9.3458735139216778e-02 0.0000000000000000e+00 0.0000000000000000e+00 0.0000000000000000e+00 0.0000000000000000e+00  -8.3302106205302096e-02 1.8920581625219810e-03 0.0000000000000000e+00 1.8920581625219810e-03 -9.3845441771733415e-02 0.0000000000000000e+00 0.0000000000000000e+00 0.0000000000000000e+00 0.0000000000000000e+00  -8.2933150636387690e-02 2.1384069866002206e-03 0.0000000000000000e+00 2.1384069866002206e-03 -9.4054942804152497e-02 0.0000000000000000e+00 0.0000000000000000e+00 0.0000000000000000e+00 0.0000000000000000e+00  -8.2586079161868706e-02 2.3839798532223292e-03 0.0000000000000000e+00 2.3839798532223292e-03 -9.4120461108953668e-02 0.0000000000000000e+00 0.0000000000000000e+00 0.0000000000000000e+00 0.0000000000000000e+00  -8.2229814017794722e-02 2.6368306994870869e-03 0.0000000000000000e+00 2.6368306994870869e-03 -9.4065982774679993e-02 0.0000000000000000e+00 0.0000000000000000e+00 0.0000000000000000e+00 0.0000000000000000e+00  -8.1844800514795576e-02 2.9030216982567350e-03 0.0000000000000000e+00 2.9030216982567350e-03 -9.3908726065905640e-02 0.0000000000000000e+00 0.0000000000000000e+00 0.0000000000000000e+00 0.0000000000000000e+00  -8.1418147737025576e-02 3.1870190457244318e-03 0.0000000000000000e+00 3.1870190457244318e-03 -9.3661358407484602e-02 0.0000000000000000e+00 0.0000000000000000e+00 0.0000000000000000e+00 0.0000000000000000e+00  -8.0940335153480841e-02 3.4915611022480987e-03 0.0000000000000000e+00 3.4915611022480987e-03 -9.3333663358719593e-02 0.0000000000000000e+00 0.0000000000000000e+00 0.0000000000000000e+00 0.0000000000000000e+00  -8.0403188804108447e-02 3.8169275386694640e-03 0.0000000000000000e+00 3.8169275386694640e-03 -9.2933460764587417e-02 0.0000000000000000e+00 0.0000000000000000e+00 0.0000000000000000e+00 0.0000000000000000e+00  -7.9798976817102019e-02 4.1597894266930443e-03 0.0000000000000000e+00 4.1597894266930443e-03 -9.2466622835484152e-02 0.0000000000000000e+00 0.0000000000000000e+00 0.0000000000000000e+00 0.0000000000000000e+00  -7.9120447241751671e-02 4.5119531159556053e-03 0.0000000000000000e+00 4.5119531159556053e-03 -9.1936194088188913e-02 0.0000000000000000e+00 0.0000000000000000e+00 0.0000000000000000e+00 0.0000000000000000e+00  -7.8361533116363721e-02 4.8593037890301378e-03 0.0000000000000000e+00 4.8593037890301378e-03 -9.1340822564361726e-02 0.0000000000000000e+00 0.0000000000000000e+00 0.0000000000000000e+00 0.0000000000000000e+00  -7.7518353265185622e-02 5.1811124722401913e-03 0.0000000000000000e+00 5.1811124722401913e-03 -9.0672874624535868e-02 0.0000000000000000e+00 0.0000000000000000e+00 0.0000000000000000e+00 0.0000000000000000e+00  -7.6590122414958509e-02 5.4496410805975502e-03 0.0000000000000000e+00 5.4496410805975502e-03 -8.9916649606409521e-02 0.0000000000000000e+00 0.0000000000000000e+00 0.0000000000000000e+00 0.0000000000000000e+00  -7.5579690417862846e-02 5.6297491190935118e-03 0.0000000000000000e+00 5.6297491190935118e-03 -8.9046993097696883e-02 0.0000000000000000e+00 0.0000000000000000e+00 0.0000000000000000e+00 0.0000000000000000e+00  -7.4493647622532105e-02 5.6780641436603042e-03 0.0000000000000000e+00 5.6780641436603042e-03 -8.8028347878703714e-02 0.0000000000000000e+00 0.0000000000000000e+00 0.0000000000000000e+00 0.0000000000000000e+00  -7.3342209375961545e-02 5.5412913244893038e-03 0.0000000000000000e+00 5.5412913244893038e-03 -8.6813952153424079e-02 0.0000000000000000e+00 0.0000000000000000e+00 0.0000000000000000e+00 0.0000000000000000e+00  -7.2139357399565979e-02 5.1534235697944476e-03 0.0000000000000000e+00 5.1534235697944476e-03 -8.5344591321129537e-02 0.0000000000000000e+00 0.0000000000000000e+00 0.0000000000000000e+00 0.0000000000000000e+00  -7.0903914713492805e-02 4.4319440108269619e-03 0.0000000000000000e+00 4.4319440108269619e-03 -8.3546112397920702e-02 0.0000000000000000e+00 0.0000000000000000e+00 0.0000000000000000e+00 0.0000000000000000e+00  -6.9662351097274922e-02 3.2735360563489299e-03 0.0000000000000000e+00 3.2735360563489299e-03 -8.1324852904193792e-02 0.0000000000000000e+00 0.0000000000000000e+00 0.0000000000000000e+00 0.0000000000000000e+00  -6.8454194459968518e-02 1.5502980225886723e-03 0.0000000000000000e+00 1.5502980225886723e-03 -7.8560199691561861e-02 0.0000000000000000e+00 0.0000000000000000e+00 0.0000000000000000e+00 0.0000000000000000e+00  -6.7341030280518618e-02 -8.9197260345982160e-04 0.0000000000000000e+00 -8.9197260345982160e-04 -7.5093631253489612e-02 0.0000000000000000e+00 0.0000000000000000e+00 0.0000000000000000e+00 0.0000000000000000e+00  -6.6420252955535344e-02 -4.2310923699566648e-03 0.0000000000000000e+00 -4.2310923699566648e-03 -7.0713813629924530e-02 0.0000000000000000e+00 0.0000000000000000e+00 0.0000000000000000e+00 0.0000000000000000e+00  -6.5844922225648250e-02 -8.6578997431338931e-03 0.0000000000000000e+00 -8.6578997431338931e-03 -6.5137765581470400e-02 0.0000000000000000e+00 0.0000000000000000e+00 0.0000000000000000e+00 0.0000000000000000e+00  -6.5851237964297565e-02 -1.4352420712052050e-02 0.0000000000000000e+00 -1.4352420712052050e-02 -5.7989026353785389e-02 0.0000000000000000e+00 0.0000000000000000e+00 0.0000000000000000e+00 0.0000000000000000e+00  -6.6793182139833540e-02 -2.1438816164251771e-02 0.0000000000000000e+00 -2.1438816164251771e-02 -4.8777399433151902e-02 0.0000000000000000e+00 0.0000000000000000e+00 0.0000000000000000e+00 0.0000000000000000e+00  -6.9185286613658178e-02 -2.9908262793228797e-02 0.0000000000000000e+00 -2.9908262793228797e-02 -3.6885700758734166e-02 0.0000000000000000e+00 0.0000000000000000e+00 0.0000000000000000e+00 0.0000000000000000e+00  -7.3731486182151168e-02 -3.9494144994465720e-02 0.0000000000000000e+00 -3.9494144994465720e-02 -2.1598050615212822e-02 0.0000000000000000e+00 0.0000000000000000e+00 0.0000000000000000e+00 0.0000000000000000e+00  -8.1344565992092180e-02 -4.9492468690005752e-02 0.0000000000000000e+00 -4.9492468690005752e-02 -2.1686161081515020e-03 0.0000000000000000e+00 0.0000000000000000e+00 0.0000000000000000e+00 0.0000000000000000e+00  -9.3053757603184128e-02 -5.8512198303505777e-02 0.0000000000000000e+00 -5.8512198303505777e-02 2.1917356368509226e-02 0.0000000000000000e+00 0.0000000000000000e+00 0.0000000000000000e+00 0.0000000000000000e+00  -1.0963963737376115e-01 -6.4167369762253512e-02 0.0000000000000000e+00 -6.4167369762253512e-02 5.0443223131725827e-02 0.0000000000000000e+00 0.0000000000000000e+00 0.0000000000000000e+00 0.0000000000000000e+00  -1.3161496144032886e-01 -6.3172244966661614e-02 0.0000000000000000e+00 -6.3172244966661614e-02 8.1964011387874583e-02 0.0000000000000000e+00 0.0000000000000000e+00 0.0000000000000000e+00 0.0000000000000000e+00  -1.5848714247625198e-01 -5.1350880899921854e-02 0.0000000000000000e+00 -5.1350880899921854e-02 1.1163726686731436e-01 0.0000000000000000e+00 0.0000000000000000e+00 0.0000000000000000e+00 0.0000000000000000e+00  -2.2394761826707402e-01 -2.8739840170713897e-02 0.0000000000000000e+00 -2.8739840170713897e-02 1.3091496285701301e-01 0.0000000000000000e+00 0.0000000000000000e+00 0.0000000000000000e+00 0.0000000000000000e+00  -3.2380268690793934e-01 3.1796819276840309e-03 0.0000000000000000e+00 3.1796819276840309e-03 9.9517675875066158e-02 0.0000000000000000e+00 0.0000000000000000e+00 0.0000000000000000e+00 0.0000000000000000e+00  7.7939345244307243e-03 1.4910382516451100e-02 0.0000000000000000e+00 1.4910382516451100e-02 -8.6849608052991675e-02 0.0000000000000000e+00 0.0000000000000000e+00 0.0000000000000000e+00 0.0000000000000000e+00  -3.0878715019058339e-01 3.4556109488205242e-02 0.0000000000000000e+00 3.4556109488205242e-02 8.6242496336292537e-02 0.0000000000000000e+00 0.0000000000000000e+00 0.0000000000000000e+00 0.0000000000000000e+00  -1.8661144866145293e-01 5.0521221930602628e-02 0.0000000000000000e+00 5.0521221930602628e-02 1.0389850991757936e-01 0.0000000000000000e+00 0.0000000000000000e+00 0.0000000000000000e+00 0.0000000000000000e+00  -1.2479134218723814e-01 6.0022317440395989e-02 0.0000000000000000e+00 6.0022317440395989e-02 7.2071434042831908e-02 0.0000000000000000e+00 0.0000000000000000e+00 0.0000000000000000e+00 0.0000000000000000e+00  -1.0259976323514428e-01 6.0107889539086065e-02 0.0000000000000000e+00 6.0107889539086065e-02 4.0646074217688427e-02 0.0000000000000000e+00 0.0000000000000000e+00 0.0000000000000000e+00 0.0000000000000000e+00  -8.7544189840112835e-02 5.4224976524392433e-02 0.0000000000000000e+00 5.4224976524392433e-02 1.3187222398838468e-02 0.0000000000000000e+00 0.0000000000000000e+00 0.0000000000000000e+00 0.0000000000000000e+00  -7.7064758995518359e-02 4.5197318029696190e-02 0.0000000000000000e+00 4.5197318029696190e-02 -9.8792663884216640e-03 0.0000000000000000e+00 0.0000000000000000e+00 0.0000000000000000e+00 0.0000000000000000e+00  -7.0428794743957190e-02 3.5371482604837821e-02 0.0000000000000000e+00 3.5371482604837821e-02 -2.8346632456033413e-02 0.0000000000000000e+00 0.0000000000000000e+00 0.0000000000000000e+00 0.0000000000000000e+00  -6.6685730788477088e-02 2.6089699995336533e-02 0.0000000000000000e+00 2.6089699995336533e-02 -4.2735793997279024e-02 0.0000000000000000e+00 0.0000000000000000e+00 0.0000000000000000e+00 0.0000000000000000e+00  -6.4948319681902053e-02 1.8009989001734936e-02 0.0000000000000000e+00 1.8009989001734936e-02 -5.3808206749451290e-02 0.0000000000000000e+00 0.0000000000000000e+00 0.0000000000000000e+00 0.0000000000000000e+00  -6.4531147277955767e-02 1.1353381516479371e-02 0.0000000000000000e+00 1.1353381516479371e-02 -6.2292764790560631e-02 0.0000000000000000e+00 0.0000000000000000e+00 0.0000000000000000e+00 0.0000000000000000e+00  -6.4938198867340577e-02 6.0922657670675730e-03 0.0000000000000000e+00 6.0922657670675730e-03 -6.8809079011955862e-02 0.0000000000000000e+00 0.0000000000000000e+00 0.0000000000000000e+00 0.0000000000000000e+00  -6.5834056845284303e-02 2.0769240523436298e-03 0.0000000000000000e+00 2.0769240523436298e-03 -7.3842354333336649e-02 0.0000000000000000e+00 0.0000000000000000e+00 0.0000000000000000e+00 0.0000000000000000e+00  -6.7000018940305286e-02 -8.8811468237343896e-04 0.0000000000000000e+00 -8.8811468237343896e-04 -7.7759775335751943e-02 0.0000000000000000e+00 0.0000000000000000e+00 0.0000000000000000e+00 0.0000000000000000e+00  -6.8298499674147764e-02 -3.0011030854998153e-03 0.0000000000000000e+00 -3.0011030854998153e-03 -8.0833433511915798e-02 0.0000000000000000e+00 0.0000000000000000e+00 0.0000000000000000e+00 0.0000000000000000e+00  -6.9645108263108282e-02 -4.4415717865404509e-03 0.0000000000000000e+00 -4.4415717865404509e-03 -8.3263891098809023e-02 0.0000000000000000e+00 0.0000000000000000e+00 0.0000000000000000e+00 0.0000000000000000e+00  -7.0988789846872416e-02 -5.3617839277603444e-03 0.0000000000000000e+00 -5.3617839277603444e-03 -8.5199927801504524e-02 0.0000000000000000e+00 0.0000000000000000e+00 0.0000000000000000e+00 0.0000000000000000e+00  -7.2298322100476459e-02 -5.8856369149860293e-03 0.0000000000000000e+00 -5.8856369149860293e-03 -8.6753804513632418e-02 0.0000000000000000e+00 0.0000000000000000e+00 0.0000000000000000e+00 0.0000000000000000e+00  -7.3553673337379999e-02 -6.1115044753951532e-03 0.0000000000000000e+00 -6.1115044753951532e-03 -8.8012249562080730e-02 0.0000000000000000e+00 0.0000000000000000e+00 0.0000000000000000e+00 0.0000000000000000e+00  -7.4740963550723183e-02 -6.1167588503174839e-03 0.0000000000000000e+00 -6.1167588503174830e-03 -8.9043761358772067e-02 0.0000000000000000e+00 0.0000000000000000e+00 0.0000000000000000e+00 0.0000000000000000e+00  -7.5849996407662490e-02 -5.9625003995033513e-03 0.0000000000000000e+00 -5.9625003995033496e-03 -8.9902977002323026e-02 0.0000000000000000e+00 0.0000000000000000e+00 0.0000000000000000e+00 0.0000000000000000e+00  -7.6873465695185203e-02 -5.6975844424470090e-03 0.0000000000000000e+00 -5.6975844424470090e-03 -9.0632950280588903e-02 0.0000000000000000e+00 0.0000000000000000e+00 0.0000000000000000e+00 0.0000000000000000e+00  -7.7807035461298774e-02 -5.3615014563070428e-03 0.0000000000000000e+00 -5.3615014563070428e-03 -9.1266216264500127e-02 0.0000000000000000e+00 0.0000000000000000e+00 0.0000000000000000e+00 0.0000000000000000e+00  -7.8649622378810707e-02 -4.9860728815412899e-03 0.0000000000000000e+00 -4.9860728815412899e-03 -9.1825444157957029e-02 0.0000000000000000e+00 0.0000000000000000e+00 0.0000000000000000e+00 0.0000000000000000e+00  -7.9403411695080070e-02 -4.5962396005442890e-03 0.0000000000000000e+00 -4.5962396005442890e-03 -9.2324272605467828e-02 0.0000000000000000e+00 0.0000000000000000e+00 0.0000000000000000e+00 0.0000000000000000e+00  -8.0073403951066865e-02 -4.2103936140306230e-03 0.0000000000000000e+00 -4.2103936140306230e-03 -9.2768613010595483e-02 0.0000000000000000e+00 0.0000000000000000e+00 0.0000000000000000e+00 0.0000000000000000e+00  -8.0666565166361739e-02 -3.8407068858629084e-03 0.0000000000000000e+00 -3.8407068858629084e-03 -9.3158374789072268e-02 0.0000000000000000e+00 0.0000000000000000e+00 0.0000000000000000e+00 0.0000000000000000e+00  -8.1190869242724659e-02 -3.4937625189662065e-03 0.0000000000000000e+00 -3.4937625189662065e-03 -9.3489306510575826e-02 0.0000000000000000e+00 0.0000000000000000e+00 0.0000000000000000e+00 0.0000000000000000e+00  -8.1654625976452941e-02 -3.1715573076137333e-03 0.0000000000000000e+00 -3.1715573076137333e-03 -9.3754530239271383e-02 0.0000000000000000e+00 0.0000000000000000e+00 0.0000000000000000e+00 0.0000000000000000e+00  -8.2066471559800430e-02 -2.8727121107906674e-03 0.0000000000000000e+00 -2.8727121107906674e-03 -9.3945391870788528e-02 0.0000000000000000e+00 0.0000000000000000e+00 0.0000000000000000e+00 0.0000000000000000e+00  -8.2436300603742463e-02 -2.5935823128655426e-03 0.0000000000000000e+00 -2.5935823128655426e-03 -9.4051416848169020e-02 0.0000000000000000e+00 0.0000000000000000e+00 0.0000000000000000e+00 0.0000000000000000e+00  -8.2777319422772069e-02 -2.3289525620349156e-03 0.0000000000000000e+00 -2.3289525620349156e-03 -9.4059361914732534e-02 0.0000000000000000e+00 0.0000000000000000e+00 0.0000000000000000e+00 0.0000000000000000e+00  -8.3109372400169357e-02 -2.0721325438358322e-03 0.0000000000000000e+00 -2.0721325438358322e-03 -9.3951520865815194e-02 0.0000000000000000e+00 0.0000000000000000e+00 0.0000000000000000e+00 0.0000000000000000e+00  -8.3463837939187796e-02 -1.8145227818098908e-03 0.0000000000000000e+00 -1.8145227818098908e-03 -9.3703484488858735e-02 0.0000000000000000e+00 0.0000000000000000e+00 0.0000000000000000e+00 0.0000000000000000e+00  -8.3890639004712095e-02 -1.5450416410373036e-03 0.0000000000000000e+00 -1.5450416410373036e-03 -9.3281659505310144e-02 0.0000000000000000e+00 0.0000000000000000e+00 0.0000000000000000e+00 0.0000000000000000e+00  -8.4468157143671688e-02 -1.2504866819746051e-03 0.0000000000000000e+00 -1.2504866819746051e-03 -9.2641102018526433e-02 0.0000000000000000e+00 0.0000000000000000e+00 0.0000000000000000e+00 0.0000000000000000e+00  -8.5318298827514266e-02 -9.1886571385719714e-04 0.0000000000000000e+00 -9.1886571385719671e-04 -9.1723984589949209e-02 0.0000000000000000e+00 0.0000000000000000e+00 0.0000000000000000e+00 0.0000000000000000e+00  -8.6626991537451098e-02 -5.5039745235570725e-04 0.0000000000000000e+00 -5.5039745235570692e-04 -9.0464136476119034e-02 0.0000000000000000e+00 0.0000000000000000e+00 0.0000000000000000e+00 0.0000000000000000e+00  -8.8670938193421339e-02 -1.8740014219015876e-04 0.0000000000000000e+00 -1.8740014219015879e-04 -8.8802434850474343e-02 0.0000000000000000e+00 0.0000000000000000e+00 0.0000000000000000e+00 0.0000000000000000e+00  -9.1927891007182752e-02 -1.7799642415159365e-06 0.0000000000000000e+00 -1.7799642415159365e-06 -8.6666506436066923e-02 0.0000000000000000e+00 0.0000000000000000e+00 0.0000000000000000e+00 0.0000000000000000e+00  -9.7849900670895357e-02 -5.1215654030940187e-04 0.0000000000000000e+00 -5.1215654030940187e-04 -8.3714292313500901e-02 0.0000000000000000e+00 0.0000000000000000e+00 0.0000000000000000e+00 0.0000000000000000e+00  -1.1305085327433655e-01 -2.9091771541576873e-03 0.0000000000000000e+00 -2.9091771541576873e-03 -7.9131961990413252e-02 0.0000000000000000e+00 0.0000000000000000e+00 0.0000000000000000e+00 0.0000000000000000e+00  -2.0301121524775231e-01 -8.7351220041289729e-03 0.0000000000000000e+00 -8.7351220041289729e-03 -7.8258189692408345e-02 0.0000000000000000e+00 0.0000000000000000e+00 0.0000000000000000e+00 0.0000000000000000e+00  -2.4953614017433445e-01 1.4369884199341834e-02 0.0000000000000000e+00 1.4369884199341834e-02 -5.4911137596898259e-02 0.0000000000000000e+00 0.0000000000000000e+00 0.0000000000000000e+00 0.0000000000000000e+00  3.6837370509167577e-01 1.0223753015136543e-02 0.0000000000000000e+00 1.0223753015136543e-02 -1.8861888314516689e-01 0.0000000000000000e+00 0.0000000000000000e+00 0.0000000000000000e+00 0.0000000000000000e+00  2.2742982504953220e-02 1.6412697347836458e-02 0.0000000000000000e+00 1.6412697347836458e-02 1.2472989744262210e-01 0.0000000000000000e+00 0.0000000000000000e+00 0.0000000000000000e+00 0.0000000000000000e+00  5.0972147720886969e-03 -1.5029114433151144e-03 0.0000000000000000e+00 -1.5029114433151144e-03 1.0773185432521939e-02 0.0000000000000000e+00 0.0000000000000000e+00 0.0000000000000000e+00 0.0000000000000000e+00  7.8053602683942035e-03 4.0380450991852244e-05 0.0000000000000000e+00 4.0380450991852244e-05 7.9952130662033580e-03 0.0000000000000000e+00 0.0000000000000000e+00 0.0000000000000000e+00 0.0000000000000000e+00  7.9244165806744305e-03 -1.7604805702981569e-05 0.0000000000000000e+00 -1.7604805702981566e-05 7.9053526381769931e-03 0.0000000000000000e+00 0.0000000000000000e+00 0.0000000000000000e+00 0.0000000000000000e+00  7.9282977669211264e-03 -3.3153625007499673e-05 0.0000000000000000e+00 -3.3153625007499673e-05 7.9161639489039714e-03 0.0000000000000000e+00 0.0000000000000000e+00 0.0000000000000000e+00 0.0000000000000000e+00  7.9534099077550047e-03 3.4492989583880241e-05 0.0000000000000000e+00 3.4492989583880241e-05 7.9398606033462566e-03 0.0000000000000000e+00 0.0000000000000000e+00 0.0000000000000000e+00 0.0000000000000000e+00  7.9449466512346786e-03 1.0120264668194512e-05 0.0000000000000000e+00 1.0120264668194512e-05 7.9258608519392915e-03 0.0000000000000000e+00 0.0000000000000000e+00 0.0000000000000000e+00 0.0000000000000000e+00  7.7780413093249444e-03 -8.5981660371260394e-07 0.0000000000000000e+00 -8.5981660371260394e-07 8.0679340566382658e-03 0.0000000000000000e+00 0.0000000000000000e+00 0.0000000000000000e+00 0.0000000000000000e+00  3.1786239306079017e-03 8.3368701260615988e-04 0.0000000000000000e+00 8.3368701260615988e-04 1.1579886146378835e-02 0.0000000000000000e+00 0.0000000000000000e+00 0.0000000000000000e+00 0.0000000000000000e+00  6.3672782338508108e-02 -7.8619208848086583e-03 0.0000000000000000e+00 -7.8619208848086583e-03 1.8433467417176858e-01 0.0000000000000000e+00 0.0000000000000000e+00 0.0000000000000000e+00 0.0000000000000000e+00  4.1469766353882831e-01 -2.7044566044161597e-02 0.0000000000000000e+00 -2.7044566044161597e-02 -1.9747244861939087e-01 0.0000000000000000e+00 0.0000000000000000e+00 0.0000000000000000e+00 0.0000000000000000e+00  -2.8802790934804900e-01 -5.1251016438697172e-02 0.0000000000000000e+00 -5.1251016438697172e-02 -1.3207210970274724e-01 0.0000000000000000e+00 0.0000000000000000e+00 0.0000000000000000e+00 0.0000000000000000e+00  -1.8076372539416244e-01 -1.7766115337290351e-02 0.0000000000000000e+00 -1.7766115337290351e-02 -7.3999674309439267e-02 0.0000000000000000e+00 0.0000000000000000e+00 0.0000000000000000e+00 0.0000000000000000e+00  -1.0829437827066654e-01 -1.1107397105281219e-02 0.0000000000000000e+00 -1.1107397105281219e-02 -8.1999963158608760e-02 0.0000000000000000e+00 0.0000000000000000e+00 0.0000000000000000e+00 0.0000000000000000e+00  -9.5556702839870319e-02 -6.7774308414898215e-03 0.0000000000000000e+00 -6.7774308414898215e-03 -8.5482593374684987e-02 0.0000000000000000e+00 0.0000000000000000e+00 0.0000000000000000e+00 0.0000000000000000e+00  -8.9983077319756202e-02 -4.1769495094981261e-03 0.0000000000000000e+00 -4.1769495094981261e-03 -8.8040202449488680e-02 0.0000000000000000e+00 0.0000000000000000e+00 0.0000000000000000e+00 0.0000000000000000e+00  -8.6904828346627425e-02 -2.3830834823283147e-03 0.0000000000000000e+00 -2.3830834823283147e-03 -9.0036376018354639e-02 0.0000000000000000e+00 0.0000000000000000e+00 0.0000000000000000e+00 0.0000000000000000e+00  -8.5131797536418544e-02 -1.1020591910591087e-03 0.0000000000000000e+00 -1.1020591910591087e-03 -9.1511394771245022e-02 0.0000000000000000e+00 0.0000000000000000e+00 0.0000000000000000e+00 0.0000000000000000e+00  -8.4069164907551966e-02 -1.9109232148042880e-04 0.0000000000000000e+00 -1.9109232148042880e-04 -9.2587707644709374e-02 0.0000000000000000e+00 0.0000000000000000e+00 0.0000000000000000e+00 0.0000000000000000e+00  -8.3401059723556728e-02 4.5870837826408986e-04 0.0000000000000000e+00 4.5870837826408986e-04 -9.3355488045562637e-02 0.0000000000000000e+00 0.0000000000000000e+00 0.0000000000000000e+00 0.0000000000000000e+00  -8.2943740666800228e-02 9.3338466158165035e-04 0.0000000000000000e+00 9.3338466158165035e-04 -9.3882594091578536e-02 0.0000000000000000e+00 0.0000000000000000e+00 0.0000000000000000e+00 0.0000000000000000e+00  -8.2587215077088855e-02 1.2969806878044485e-03 0.0000000000000000e+00 1.2969806878044485e-03 -9.4219105915054724e-02 0.0000000000000000e+00 0.0000000000000000e+00 0.0000000000000000e+00 0.0000000000000000e+00  -8.2264906689586637e-02 1.5946328822777521e-03 0.0000000000000000e+00 1.5946328822777521e-03 -9.4401396934286896e-02 0.0000000000000000e+00 0.0000000000000000e+00 0.0000000000000000e+00 0.0000000000000000e+00  -8.1936327193742650e-02 1.8569240370313992e-03 0.0000000000000000e+00 1.8569240370313992e-03 -9.4455686401433370e-02 0.0000000000000000e+00 0.0000000000000000e+00 0.0000000000000000e+00 0.0000000000000000e+00  -8.1576685412140360e-02 2.1040644199179174e-03 0.0000000000000000e+00 2.1040644199179174e-03 -9.4400931800821694e-02 0.0000000000000000e+00 0.0000000000000000e+00 0.0000000000000000e+00 0.0000000000000000e+00  -8.1170526369921447e-02 2.3491742790471668e-03 0.0000000000000000e+00 2.3491742790471668e-03 -9.4250916887314365e-02 0.0000000000000000e+00 0.0000000000000000e+00 0.0000000000000000e+00 0.0000000000000000e+00  -8.0707722801636433e-02 2.6004705569224284e-03 0.0000000000000000e+00 2.6004705569224284e-03 -9.4015721059178811e-02 0.0000000000000000e+00 0.0000000000000000e+00 0.0000000000000000e+00 0.0000000000000000e+00  -8.0180989282471582e-02 2.8624090092333070e-03 0.0000000000000000e+00 2.8624090092333070e-03 -9.3702614785012323e-02 0.0000000000000000e+00 0.0000000000000000e+00 0.0000000000000000e+00 0.0000000000000000e+00  -7.9584495346030501e-02 3.1359791688159336e-03 0.0000000000000000e+00 3.1359791688159336e-03 -9.3316357704811212e-02 0.0000000000000000e+00 0.0000000000000000e+00 0.0000000000000000e+00 0.0000000000000000e+00  -7.8913348251814452e-02 3.4184185285486540e-03 0.0000000000000000e+00 3.4184185285486540e-03 -9.2858871409453730e-02 0.0000000000000000e+00 0.0000000000000000e+00 0.0000000000000000e+00 0.0000000000000000e+00  -7.8163771898103848e-02 3.7026291365462598e-03 0.0000000000000000e+00 3.7026291365462598e-03 -9.2328316792104612e-02 0.0000000000000000e+00 0.0000000000000000e+00 0.0000000000000000e+00 0.0000000000000000e+00  -7.7333787770918233e-02 3.9765312069454245e-03 0.0000000000000000e+00 3.9765312069454245e-03 -9.1717703103324680e-02 0.0000000000000000e+00 0.0000000000000000e+00 0.0000000000000000e+00 0.0000000000000000e+00  -7.6424174296277139e-02 4.2224773181120641e-03 0.0000000000000000e+00 4.2224773181120641e-03 -9.1013234647447455e-02 0.0000000000000000e+00 0.0000000000000000e+00 0.0000000000000000e+00 0.0000000000000000e+00  -7.5439492129853111e-02 4.4167042607257444e-03 0.0000000000000000e+00 4.4167042607257444e-03 -9.0192614287417025e-02 0.0000000000000000e+00 0.0000000000000000e+00 0.0000000000000000e+00 0.0000000000000000e+00  -7.4389040669322379e-02 4.5286643621496444e-03 0.0000000000000000e+00 4.5286643621496444e-03 -8.9223447172325124e-02 0.0000000000000000e+00 0.0000000000000000e+00 0.0000000000000000e+00 0.0000000000000000e+00  -7.3287750689025280e-02 4.5200060798225835e-03 0.0000000000000000e+00 4.5200060798225835e-03 -8.8061735530285568e-02 0.0000000000000000e+00 0.0000000000000000e+00 0.0000000000000000e+00 0.0000000000000000e+00  -7.2157189427000237e-02 4.3430043924027701e-03 0.0000000000000000e+00 4.3430043924027701e-03 -8.6650269069060343e-02 0.0000000000000000e+00 0.0000000000000000e+00 0.0000000000000000e+00 0.0000000000000000e+00  -7.1027016333218382e-02 3.9383912633984995e-03 0.0000000000000000e+00 3.9383912633984995e-03 -8.4916553489513005e-02 0.0000000000000000e+00 0.0000000000000000e+00 0.0000000000000000e+00 0.0000000000000000e+00  -6.9937344776753299e-02 3.2327989790565527e-03 0.0000000000000000e+00 3.2327989790565527e-03 -8.2769834240329077e-02 0.0000000000000000e+00 0.0000000000000000e+00 0.0000000000000000e+00 0.0000000000000000e+00  -6.8942521162139975e-02 2.1363889392982151e-03 0.0000000000000000e+00 2.1363889392982151e-03 -8.0096795804974613e-02 0.0000000000000000e+00 0.0000000000000000e+00 0.0000000000000000e+00 0.0000000000000000e+00  -6.8116831929578459e-02 5.4169170935903371e-04 0.0000000000000000e+00 5.4169170935903371e-04 -7.6755659710969426e-02 0.0000000000000000e+00 0.0000000000000000e+00 0.0000000000000000e+00 0.0000000000000000e+00  -6.7562597129735683e-02 -1.6747437038965728e-03 0.0000000000000000e+00 -1.6747437038965728e-03 -7.2568679477762438e-02 0.0000000000000000e+00 0.0000000000000000e+00 0.0000000000000000e+00 0.0000000000000000e+00  -6.7420974186851640e-02 -4.6455435614801152e-03 0.0000000000000000e+00 -4.6455435614801152e-03 -6.7313497126061439e-02 0.0000000000000000e+00 0.0000000000000000e+00 0.0000000000000000e+00 0.0000000000000000e+00  -6.7885478238035188e-02 -8.4972111162172660e-03 0.0000000000000000e+00 -8.4972111162172660e-03 -6.0714627538511687e-02 0.0000000000000000e+00 0.0000000000000000e+00 0.0000000000000000e+00 0.0000000000000000e+00  -6.9217274327418837e-02 -1.3321779485968551e-02 0.0000000000000000e+00 -1.3321779485968551e-02 -5.2437963235214186e-02 0.0000000000000000e+00 0.0000000000000000e+00 0.0000000000000000e+00 0.0000000000000000e+00  -7.1759793773552974e-02 -1.9129777983868151e-02 0.0000000000000000e+00 -1.9129777983868151e-02 -4.2093562871976957e-02 0.0000000000000000e+00 0.0000000000000000e+00 0.0000000000000000e+00 0.0000000000000000e+00  -7.5944727585915917e-02 -2.5778153581316566e-02 0.0000000000000000e+00 -2.5778153581316566e-02 -2.9258640232589138e-02 0.0000000000000000e+00 0.0000000000000000e+00 0.0000000000000000e+00 0.0000000000000000e+00  -8.2278055075609924e-02 -3.2871052839231349e-02 0.0000000000000000e+00 -3.2871052839231349e-02 -1.3535615383125661e-02 0.0000000000000000e+00 0.0000000000000000e+00 0.0000000000000000e+00 0.0000000000000000e+00  -9.1274569001523642e-02 -3.9634620603383727e-02 0.0000000000000000e+00 -3.9634620603383727e-02 5.3174707558748405e-03 0.0000000000000000e+00 0.0000000000000000e+00 0.0000000000000000e+00 0.0000000000000000e+00  -1.0329094772565438e-01 -4.4806763317057789e-02 0.0000000000000000e+00 -4.4806763317057789e-02 2.7147869465163486e-02 0.0000000000000000e+00 0.0000000000000000e+00 0.0000000000000000e+00 0.0000000000000000e+00  -1.1827191376332513e-01 -4.6610711870623267e-02 0.0000000000000000e+00 -4.6610711870623267e-02 5.1065709019160417e-02 0.0000000000000000e+00 0.0000000000000000e+00 0.0000000000000000e+00 0.0000000000000000e+00  -1.3514334541287579e-01 -4.3011644752958954e-02 0.0000000000000000e+00 -4.3011644752958954e-02 7.4787125019291217e-02 0.0000000000000000e+00 0.0000000000000000e+00 0.0000000000000000e+00 0.0000000000000000e+00  -1.5430625752939120e-01 -3.2755160232405482e-02 0.0000000000000000e+00 -3.2755160232405482e-02 9.5684503150820180e-02 0.0000000000000000e+00 0.0000000000000000e+00 0.0000000000000000e+00 0.0000000000000000e+00  -2.0986518051077938e-01 -1.6792362828696047e-02 0.0000000000000000e+00 -1.6792362828696047e-02 1.1107184180169662e-01 0.0000000000000000e+00 0.0000000000000000e+00 0.0000000000000000e+00 0.0000000000000000e+00  -3.1199489951059639e-01 1.6883428503196979e-04 0.0000000000000000e+00 1.6883428503196979e-04 8.3118613374598971e-02 0.0000000000000000e+00 0.0000000000000000e+00 0.0000000000000000e+00 0.0000000000000000e+00  1.4134405775599062e-02 1.0460466373893852e-02 0.0000000000000000e+00 1.0460466373893852e-02 -9.3050657774877976e-02 0.0000000000000000e+00 0.0000000000000000e+00 0.0000000000000000e+00 0.0000000000000000e+00  -3.0063190246944566e-01 2.3980202507936751e-02 0.0000000000000000e+00 2.3980202507936751e-02 7.4967267497605308e-02 0.0000000000000000e+00 0.0000000000000000e+00 0.0000000000000000e+00 0.0000000000000000e+00  -1.8530965165225646e-01 3.4832318237581324e-02 0.0000000000000000e+00 3.4832318237581324e-02 9.2526479828024158e-02 0.0000000000000000e+00 0.0000000000000000e+00 0.0000000000000000e+00 0.0000000000000000e+00  -1.2825722761974634e-01 4.2385447579983734e-02 0.0000000000000000e+00 4.2385447579983734e-02 6.6472434749229314e-02 0.0000000000000000e+00 0.0000000000000000e+00 0.0000000000000000e+00 0.0000000000000000e+00  -1.1050744537573287e-01 4.4447498730901057e-02 0.0000000000000000e+00 4.4447498730901057e-02 4.2039225385683540e-02 0.0000000000000000e+00 0.0000000000000000e+00 0.0000000000000000e+00 0.0000000000000000e+00  -9.6893083449978060e-02 4.1897315625592339e-02 0.0000000000000000e+00 4.1897315625592339e-02 1.8713375051604145e-02 0.0000000000000000e+00 0.0000000000000000e+00 0.0000000000000000e+00 0.0000000000000000e+00  -8.6080698946416651e-02 3.6438506958071465e-02 0.0000000000000000e+00 3.6438506958071465e-02 -2.3777991482008716e-03 0.0000000000000000e+00 0.0000000000000000e+00 0.0000000000000000e+00 0.0000000000000000e+00  -7.8095888451662390e-02 2.9655432785436833e-02 0.0000000000000000e+00 2.9655432785436833e-02 -2.0453725112298683e-02 0.0000000000000000e+00 0.0000000000000000e+00 0.0000000000000000e+00 0.0000000000000000e+00  -7.2620985411944214e-02 2.2714158082602142e-02 0.0000000000000000e+00 2.2714158082602142e-02 -3.5398088873886353e-02 0.0000000000000000e+00 0.0000000000000000e+00 0.0000000000000000e+00 0.0000000000000000e+00  -6.9164544702740138e-02 1.6322182468727856e-02 0.0000000000000000e+00 1.6322182468727856e-02 -4.7482499662023024e-02 0.0000000000000000e+00 0.0000000000000000e+00 0.0000000000000000e+00 0.0000000000000000e+00  -6.7233471052655480e-02 1.0826592244130431e-02 0.0000000000000000e+00 1.0826592244130431e-02 -5.7126815219813998e-02 0.0000000000000000e+00 0.0000000000000000e+00 0.0000000000000000e+00 0.0000000000000000e+00  -6.6407389865251618e-02 6.3339707590948880e-03 0.0000000000000000e+00 6.3339707590948880e-03 -6.4767438191350335e-02 0.0000000000000000e+00 0.0000000000000000e+00 0.0000000000000000e+00 0.0000000000000000e+00  -6.6354911285910936e-02 2.8082387015384218e-03 0.0000000000000000e+00 2.8082387015384218e-03 -7.0799688597946275e-02 0.0000000000000000e+00 0.0000000000000000e+00 0.0000000000000000e+00 0.0000000000000000e+00  -6.6827500675014459e-02 1.4104073028112685e-04 0.0000000000000000e+00 1.4104073028112685e-04 -7.5557062024134911e-02 0.0000000000000000e+00 0.0000000000000000e+00 0.0000000000000000e+00 0.0000000000000000e+00  -6.7644107326174235e-02 -1.8031464448320844e-03 0.0000000000000000e+00 -1.8031464448320844e-03 -7.9310685859865615e-02 0.0000000000000000e+00 0.0000000000000000e+00 0.0000000000000000e+00 0.0000000000000000e+00  -6.8675177397776677e-02 -3.1606182095650190e-03 0.0000000000000000e+00 -3.1606182095650190e-03 -8.2276639052908065e-02 0.0000000000000000e+00 0.0000000000000000e+00 0.0000000000000000e+00 0.0000000000000000e+00  -6.9828708375603232e-02 -4.0548754272095614e-03 0.0000000000000000e+00 -4.0548754272095614e-03 -8.4625731380845073e-02 0.0000000000000000e+00 0.0000000000000000e+00 0.0000000000000000e+00 0.0000000000000000e+00  -7.1039279940106254e-02 -4.5912096169479942e-03 0.0000000000000000e+00 -4.5912096169479942e-03 -8.6492921495160163e-02 0.0000000000000000e+00 0.0000000000000000e+00 0.0000000000000000e+00 0.0000000000000000e+00  -7.2259978177960718e-02 -4.8560869645299844e-03 0.0000000000000000e+00 -4.8560869645299844e-03 -8.7985236444812667e-02 0.0000000000000000e+00 0.0000000000000000e+00 0.0000000000000000e+00 0.0000000000000000e+00  -7.3456813050739381e-02 -4.9190222523739762e-03 0.0000000000000000e+00 -4.9190222523739762e-03 -8.9187850096291835e-02 0.0000000000000000e+00 0.0000000000000000e+00 0.0000000000000000e+00 0.0000000000000000e+00  -7.4605111782001785e-02 -4.8354073658663701e-03 0.0000000000000000e+00 -4.8354073658663684e-03 -9.0168417865388220e-02 0.0000000000000000e+00 0.0000000000000000e+00 0.0000000000000000e+00 0.0000000000000000e+00  -7.5687339536788759e-02 -4.6493339686060889e-03 0.0000000000000000e+00 -4.6493339686060889e-03 -9.0980011111621989e-02 0.0000000000000000e+00 0.0000000000000000e+00 0.0000000000000000e+00 0.0000000000000000e+00  -7.6691814148786119e-02 -4.3958956471463672e-03 0.0000000000000000e+00 -4.3958956471463672e-03 -9.1663113486722278e-02 0.0000000000000000e+00 0.0000000000000000e+00 0.0000000000000000e+00 0.0000000000000000e+00  -7.7611849278401909e-02 -4.1028032034143864e-03 0.0000000000000000e+00 -4.1028032034143864e-03 -9.2247147086616160e-02 0.0000000000000000e+00 0.0000000000000000e+00 0.0000000000000000e+00 0.0000000000000000e+00  -7.8444984768770903e-02 -3.7913976109590717e-03 0.0000000000000000e+00 -3.7913976109590717e-03 -9.2751898941985836e-02 0.0000000000000000e+00 0.0000000000000000e+00 0.0000000000000000e+00 0.0000000000000000e+00  -7.9192129102044817e-02 -3.4772845596195310e-03 0.0000000000000000e+00 -3.4772845596195310e-03 -9.3189048732788590e-02 0.0000000000000000e+00 0.0000000000000000e+00 0.0000000000000000e+00 0.0000000000000000e+00  -7.9856612476096697e-02 -3.1708368151553154e-03 0.0000000000000000e+00 -3.1708368151553154e-03 -9.3563807804577945e-02 0.0000000000000000e+00 0.0000000000000000e+00 0.0000000000000000e+00 0.0000000000000000e+00  -8.0443289464810677e-02 -2.8777320791980141e-03 0.0000000000000000e+00 -2.8777320791980141e-03 -9.3876524648904752e-02 0.0000000000000000e+00 0.0000000000000000e+00 0.0000000000000000e+00 0.0000000000000000e+00  -8.0957907947285454e-02 -2.5995540288762582e-03 0.0000000000000000e+00 -2.5995540288762582e-03 -9.4124035377436840e-02 0.0000000000000000e+00 0.0000000000000000e+00 0.0000000000000000e+00 0.0000000000000000e+00  -8.1406971639733330e-02 -2.3343344033292203e-03 0.0000000000000000e+00 -2.3343344033292203e-03 -9.4300551008715858e-02 0.0000000000000000e+00 0.0000000000000000e+00 0.0000000000000000e+00 0.0000000000000000e+00  -8.1798293287162496e-02 -2.0768008428266762e-03 0.0000000000000000e+00 -2.0768008428266762e-03 -9.4397952815173117e-02 0.0000000000000000e+00 0.0000000000000000e+00 0.0000000000000000e+00 0.0000000000000000e+00  -8.2142414134113551e-02 -1.8180453910758613e-03 0.0000000000000000e+00 -1.8180453910758613e-03 -9.4405465182419226e-02 0.0000000000000000e+00 0.0000000000000000e+00 0.0000000000000000e+00 0.0000000000000000e+00  -8.2455120307136684e-02 -1.5443450434050527e-03 0.0000000000000000e+00 -1.5443450434050527e-03 -9.4308734506051289e-02 0.0000000000000000e+00 0.0000000000000000e+00 0.0000000000000000e+00 0.0000000000000000e+00  -8.2761480500320547e-02 -1.2349353589876616e-03 0.0000000000000000e+00 -1.2349353589876616e-03 -9.4088339257323725e-02 0.0000000000000000e+00 0.0000000000000000e+00 0.0000000000000000e+00 0.0000000000000000e+00  -8.3102235835636154e-02 -8.5868669183123358e-04 0.0000000000000000e+00 -8.5868669183123358e-04 -9.3717688986113573e-02 0.0000000000000000e+00 0.0000000000000000e+00 0.0000000000000000e+00 0.0000000000000000e+00  -8.3544223153695585e-02 -3.6988529012324653e-04 0.0000000000000000e+00 -3.6988529012324653e-04 -9.3160128261976699e-02 0.0000000000000000e+00 0.0000000000000000e+00 0.0000000000000000e+00 0.0000000000000000e+00  -8.4197748726144411e-02 2.9614327521706719e-04 0.0000000000000000e+00 2.9614327521706719e-04 -9.2365390013599197e-02 0.0000000000000000e+00 0.0000000000000000e+00 0.0000000000000000e+00 0.0000000000000000e+00  -8.5247001037637146e-02 1.2261106201095064e-03 0.0000000000000000e+00 1.2261106201095064e-03 -9.1265533923238232e-02 0.0000000000000000e+00 0.0000000000000000e+00 0.0000000000000000e+00 0.0000000000000000e+00  -8.7008582739023135e-02 2.5295479121481249e-03 0.0000000000000000e+00 2.5295479121481249e-03 -8.9770428833914936e-02 0.0000000000000000e+00 0.0000000000000000e+00 0.0000000000000000e+00 0.0000000000000000e+00  -9.0078346026620640e-02 4.3497311022357450e-03 0.0000000000000000e+00 4.3497311022357450e-03 -8.7758047885648949e-02 0.0000000000000000e+00 0.0000000000000000e+00 0.0000000000000000e+00 0.0000000000000000e+00  -9.5647542058740306e-02 6.9804933777163044e-03 0.0000000000000000e+00 6.9804933777163044e-03 -8.5189691479145499e-02 0.0000000000000000e+00 0.0000000000000000e+00 0.0000000000000000e+00 0.0000000000000000e+00  -1.0838941522916680e-01 1.1343217553468144e-02 0.0000000000000000e+00 1.1343217553468144e-02 -8.1702006273232222e-02 0.0000000000000000e+00 0.0000000000000000e+00 0.0000000000000000e+00 0.0000000000000000e+00  -1.8089218077471048e-01 1.8033704932861980e-02 0.0000000000000000e+00 1.8033704932861980e-02 -7.3750901700386937e-02 0.0000000000000000e+00 0.0000000000000000e+00 0.0000000000000000e+00 0.0000000000000000e+00  -2.8812485557413825e-01 5.1448619635292923e-02 0.0000000000000000e+00 5.1448619635292923e-02 -1.3203607487301736e-01 0.0000000000000000e+00 0.0000000000000000e+00 0.0000000000000000e+00 0.0000000000000000e+00  4.1454378409619613e-01 2.7002860377933511e-02 0.0000000000000000e+00 2.7002860377933521e-02 -1.9708146797983553e-01 0.0000000000000000e+00 0.0000000000000000e+00 0.0000000000000000e+00 0.0000000000000000e+00  6.3099054344270530e-02 7.8778717543666592e-03 0.0000000000000000e+00 7.8778717543666610e-03 1.8371958760005058e-01 0.0000000000000000e+00 0.0000000000000000e+00 0.0000000000000000e+00 0.0000000000000000e+00  3.0902967525305073e-03 -8.5451122019197920e-04 0.0000000000000000e+00 -8.5451122019197920e-04 1.1571054128420175e-02 0.0000000000000000e+00 0.0000000000000000e+00 0.0000000000000000e+00 0.0000000000000000e+00  7.7925900411466185e-03 1.1125881891918201e-07 0.0000000000000000e+00 1.1125881891917693e-07 8.0880057873992470e-03 0.0000000000000000e+00 0.0000000000000000e+00 0.0000000000000000e+00 0.0000000000000000e+00  7.9423113805869288e-03 -1.0775272872445310e-05 0.0000000000000000e+00 -1.0775272872445310e-05 7.9214323111715286e-03 0.0000000000000000e+00 0.0000000000000000e+00 0.0000000000000000e+00 0.0000000000000000e+00  7.9537022788802279e-03 -2.7344606891545425e-05 0.0000000000000000e+00 -2.7344606891545425e-05 7.9384847568327883e-03 0.0000000000000000e+00 0.0000000000000000e+00 0.0000000000000000e+00 0.0000000000000000e+00  7.9814001798437176e-03 2.6908884670262028e-05 0.0000000000000000e+00 2.6908884670262028e-05 7.9648868998254546e-03 0.0000000000000000e+00 0.0000000000000000e+00 0.0000000000000000e+00 0.0000000000000000e+00  7.9619870325906891e-03 8.4863107545033419e-06 0.0000000000000000e+00 8.4863107545033419e-06 7.9428000341832412e-03 0.0000000000000000e+00 0.0000000000000000e+00 0.0000000000000000e+00 0.0000000000000000e+00  7.7096752915420605e-03 -1.2593184265852357e-06 0.0000000000000000e+00 -1.2593184265852357e-06 8.1739218902953971e-03 0.0000000000000000e+00 0.0000000000000000e+00 0.0000000000000000e+00 0.0000000000000000e+00  2.1084033346218602e-03 2.6041427034610069e-04 0.0000000000000000e+00 2.6041427034610069e-04 1.2448029962847941e-02 0.0000000000000000e+00 0.0000000000000000e+00 0.0000000000000000e+00 0.0000000000000000e+00  1.0190867107058942e-01 -1.0737911359361856e-03 0.0000000000000000e+00 -1.0737911359361856e-03 2.1830426814504839e-01 0.0000000000000000e+00 0.0000000000000000e+00 0.0000000000000000e+00 0.0000000000000000e+00  3.7745396685186555e-01 -1.4377440987362222e-02 0.0000000000000000e+00 -1.4377440987362222e-02 -1.7830246700339247e-01 0.0000000000000000e+00 0.0000000000000000e+00 0.0000000000000000e+00 0.0000000000000000e+00  -2.6631543003510078e-01 -3.8673292292727569e-02 0.0000000000000000e+00 -3.8673292292727569e-02 -1.6319302512823719e-01 0.0000000000000000e+00 0.0000000000000000e+00 0.0000000000000000e+00 0.0000000000000000e+00  -1.4340979228646891e-01 -2.4934450661418851e-02 0.0000000000000000e+00 -2.4934450661418851e-02 -8.1955076358388321e-02 0.0000000000000000e+00 0.0000000000000000e+00 0.0000000000000000e+00 0.0000000000000000e+00  -9.1697155975581299e-02 -1.8349736975365901e-02 0.0000000000000000e+00 -1.8349736975365901e-02 -8.9122977382338514e-02 0.0000000000000000e+00 0.0000000000000000e+00 0.0000000000000000e+00 0.0000000000000000e+00  -8.6585565196052205e-02 -1.1743543337865238e-02 0.0000000000000000e+00 -1.1743543337865238e-02 -9.0081771439095543e-02 0.0000000000000000e+00 0.0000000000000000e+00 0.0000000000000000e+00 0.0000000000000000e+00  -8.4636507533320346e-02 -7.2195438592491659e-03 0.0000000000000000e+00 -7.2195438592491659e-03 -9.1039248315601937e-02 0.0000000000000000e+00 0.0000000000000000e+00 0.0000000000000000e+00 0.0000000000000000e+00  -8.3489871491292944e-02 -4.2533422270233543e-03 0.0000000000000000e+00 -4.2533422270233543e-03 -9.2051380579832712e-02 0.0000000000000000e+00 0.0000000000000000e+00 0.0000000000000000e+00 0.0000000000000000e+00  -8.2850615981527154e-02 -2.3098030518874466e-03 0.0000000000000000e+00 -2.3098030518874466e-03 -9.2894579010576406e-02 0.0000000000000000e+00 0.0000000000000000e+00 0.0000000000000000e+00 0.0000000000000000e+00  -8.2490545551361608e-02 -1.0326088439092040e-03 0.0000000000000000e+00 -1.0326088439092040e-03 -9.3549785303576660e-02 0.0000000000000000e+00 0.0000000000000000e+00 0.0000000000000000e+00 0.0000000000000000e+00  -8.2260116025219571e-02 -1.8563560364004596e-04 0.0000000000000000e+00 -1.8563560364004596e-04 -9.4041591172635650e-02 0.0000000000000000e+00 0.0000000000000000e+00 0.0000000000000000e+00 0.0000000000000000e+00  -8.2072366110517422e-02 3.8880993486206260e-04 0.0000000000000000e+00 3.8880993486206260e-04 -9.4393218536958701e-02 0.0000000000000000e+00 0.0000000000000000e+00 0.0000000000000000e+00 0.0000000000000000e+00  -8.1877649526579194e-02 7.9497122194719099e-04 0.0000000000000000e+00 7.9497122194719099e-04 -9.4622189881705523e-02 0.0000000000000000e+00 0.0000000000000000e+00 0.0000000000000000e+00 0.0000000000000000e+00  -8.1647545827069762e-02 1.1006743210950822e-03 0.0000000000000000e+00 1.1006743210950822e-03 -9.4741698267886643e-02 0.0000000000000000e+00 0.0000000000000000e+00 0.0000000000000000e+00 0.0000000000000000e+00  -8.1365480353537953e-02 1.3493734010177672e-03 0.0000000000000000e+00 1.3493734010177672e-03 -9.4762169505240038e-02 0.0000000000000000e+00 0.0000000000000000e+00 0.0000000000000000e+00 0.0000000000000000e+00  -8.1021480371287716e-02 1.5685392506212628e-03 0.0000000000000000e+00 1.5685392506212628e-03 -9.4692113119394059e-02 0.0000000000000000e+00 0.0000000000000000e+00 0.0000000000000000e+00 0.0000000000000000e+00  -8.0609207546618433e-02 1.7752755025777741e-03 0.0000000000000000e+00 1.7752755025777741e-03 -9.4538466813509345e-02 0.0000000000000000e+00 0.0000000000000000e+00 0.0000000000000000e+00 0.0000000000000000e+00  -8.0124264309820267e-02 1.9798645066954499e-03 0.0000000000000000e+00 1.9798645066954499e-03 -9.4306619410317372e-02 0.0000000000000000e+00 0.0000000000000000e+00 0.0000000000000000e+00 0.0000000000000000e+00  -7.9563276726318868e-02 2.1878043638545344e-03 0.0000000000000000e+00 2.1878043638545344e-03 -9.4000187809707175e-02 0.0000000000000000e+00 0.0000000000000000e+00 0.0000000000000000e+00 0.0000000000000000e+00  -7.8923543332211105e-02 2.4007843320952402e-03 0.0000000000000000e+00 2.4007843320952402e-03 -9.3620523970257857e-02 0.0000000000000000e+00 0.0000000000000000e+00 0.0000000000000000e+00 0.0000000000000000e+00  -7.8203160071798686e-02 2.6169612501118602e-03 0.0000000000000000e+00 2.6169612501118602e-03 -9.3165903805511374e-02 0.0000000000000000e+00 0.0000000000000000e+00 0.0000000000000000e+00 0.0000000000000000e+00  -7.7401558622973904e-02 2.8308250251869701e-03 0.0000000000000000e+00 2.8308250251869701e-03 -9.2630381864784062e-02 0.0000000000000000e+00 0.0000000000000000e+00 0.0000000000000000e+00 0.0000000000000000e+00  -7.6520379246604528e-02 3.0328598445369739e-03 0.0000000000000000e+00 3.0328598445369739e-03 -9.2002352376042013e-02 0.0000000000000000e+00 0.0000000000000000e+00 0.0000000000000000e+00 0.0000000000000000e+00  -7.5564580387744745e-02 3.2091123165712068e-03 0.0000000000000000e+00 3.2091123165712068e-03 -9.1262904432673861e-02 0.0000000000000000e+00 0.0000000000000000e+00 0.0000000000000000e+00 0.0000000000000000e+00  -7.4543695290872042e-02 3.3406778840603234e-03 0.0000000000000000e+00 3.3406778840603234e-03 -9.0384068236959506e-02 0.0000000000000000e+00 0.0000000000000000e+00 0.0000000000000000e+00 0.0000000000000000e+00  -7.3473193952731289e-02 3.4030357206939646e-03 0.0000000000000000e+00 3.4030357206939646e-03 -8.9327009049962186e-02 0.0000000000000000e+00 0.0000000000000000e+00 0.0000000000000000e+00 0.0000000000000000e+00  -7.2375991512139817e-02 3.3651280327289743e-03 0.0000000000000000e+00 3.3651280327289743e-03 -8.8040145927987687e-02 0.0000000000000000e+00 0.0000000000000000e+00 0.0000000000000000e+00 0.0000000000000000e+00  -7.1284240606206278e-02 3.1881158354104006e-03 0.0000000000000000e+00 3.1881158354104006e-03 -8.6457082693733062e-02 0.0000000000000000e+00 0.0000000000000000e+00 0.0000000000000000e+00 0.0000000000000000e+00  -7.0241625904237839e-02 2.8238629475449044e-03 0.0000000000000000e+00 2.8238629475449044e-03 -8.4494178706458797e-02 0.0000000000000000e+00 0.0000000000000000e+00 0.0000000000000000e+00 0.0000000000000000e+00  -6.9306415050090539e-02 2.2134060246397536e-03 0.0000000000000000e+00 2.2134060246397536e-03 -8.2047596568365758e-02 0.0000000000000000e+00 0.0000000000000000e+00 0.0000000000000000e+00 0.0000000000000000e+00  -6.8555488936748607e-02 1.2859599302708911e-03 0.0000000000000000e+00 1.2859599302708911e-03 -7.8989775233311535e-02 0.0000000000000000e+00 0.0000000000000000e+00 0.0000000000000000e+00 0.0000000000000000e+00  -6.8089457532734668e-02 -4.0611971688844880e-05 0.0000000000000000e+00 -4.0611971688844880e-05 -7.5165515983968700e-02 0.0000000000000000e+00 0.0000000000000000e+00 0.0000000000000000e+00 0.0000000000000000e+00  -6.8038739511957297e-02 -1.8564529438067246e-03 0.0000000000000000e+00 -1.8564529438067246e-03 -7.0388267115373646e-02 0.0000000000000000e+00 0.0000000000000000e+00 0.0000000000000000e+00 0.0000000000000000e+00  -6.8570092326179791e-02 -4.2514992672882182e-03 0.0000000000000000e+00 -4.2514992672882182e-03 -6.4437806546012180e-02 0.0000000000000000e+00 0.0000000000000000e+00 0.0000000000000000e+00 0.0000000000000000e+00  -6.9892394488582782e-02 -7.2997557060449506e-03 0.0000000000000000e+00 -7.2997557060449506e-03 -5.7061472435342368e-02 0.0000000000000000e+00 0.0000000000000000e+00 0.0000000000000000e+00 0.0000000000000000e+00  -7.2259362722147738e-02 -1.1032906895700679e-02 0.0000000000000000e+00 -1.1032906895700679e-02 -4.7982487787410787e-02 0.0000000000000000e+00 0.0000000000000000e+00 0.0000000000000000e+00 0.0000000000000000e+00  -7.5964796378586996e-02 -1.5400136971757331e-02 0.0000000000000000e+00 -1.5400136971757331e-02 -3.6921216141685143e-02 0.0000000000000000e+00 0.0000000000000000e+00 0.0000000000000000e+00 0.0000000000000000e+00  -8.1323235877530847e-02 -2.0212993811034276e-02 0.0000000000000000e+00 -2.0212993811034276e-02 -2.3637660959789843e-02 0.0000000000000000e+00 0.0000000000000000e+00 0.0000000000000000e+00 0.0000000000000000e+00  -8.8623836249061144e-02 -2.5078536600219688e-02 0.0000000000000000e+00 -2.5078536600219688e-02 -8.0078511246892171e-03 0.0000000000000000e+00 0.0000000000000000e+00 0.0000000000000000e+00 0.0000000000000000e+00  -9.8040535232424147e-02 -2.9338611095763221e-02 0.0000000000000000e+00 -2.9338611095763221e-02 9.8525190368722280e-03 0.0000000000000000e+00 0.0000000000000000e+00 0.0000000000000000e+00 0.0000000000000000e+00  -1.0948777873942581e-01 -3.2049099475787886e-02 0.0000000000000000e+00 -3.2049099475787886e-02 2.9413330702476610e-02 0.0000000000000000e+00 0.0000000000000000e+00 0.0000000000000000e+00 0.0000000000000000e+00  -1.2239143403933646e-01 -3.2083200972882052e-02 0.0000000000000000e+00 -3.2083200972882052e-02 4.9496628578545594e-02 0.0000000000000000e+00 0.0000000000000000e+00 0.0000000000000000e+00 0.0000000000000000e+00  -1.3563769029500350e-01 -2.8458788202118730e-02 0.0000000000000000e+00 -2.8458788202118730e-02 6.8210439999660394e-02 0.0000000000000000e+00 0.0000000000000000e+00 0.0000000000000000e+00 0.0000000000000000e+00  -1.4992348280692547e-01 -2.0954474113089677e-02 0.0000000000000000e+00 -2.0954474113089677e-02 8.4049920111493232e-02 0.0000000000000000e+00 0.0000000000000000e+00 0.0000000000000000e+00 0.0000000000000000e+00  -2.0146485305823197e-01 -1.0980718978370130e-02 0.0000000000000000e+00 -1.0980718978370130e-02 9.7280879235214460e-02 0.0000000000000000e+00 0.0000000000000000e+00 0.0000000000000000e+00 0.0000000000000000e+00  -3.0383184403351499e-01 -4.0993943428236848e-04 0.0000000000000000e+00 -4.0993943428236848e-04 7.0487167345305218e-02 0.0000000000000000e+00 0.0000000000000000e+00 0.0000000000000000e+00 0.0000000000000000e+00  2.0679719787583383e-02 6.7408300835096243e-03 0.0000000000000000e+00 6.7408300835096243e-03 -1.0278190285662597e-01 0.0000000000000000e+00 0.0000000000000000e+00 0.0000000000000000e+00 0.0000000000000000e+00  -2.9610246457180595e-01 1.6498375248000786e-02 0.0000000000000000e+00 1.6498375248000786e-02 6.4945565198346683e-02 0.0000000000000000e+00 0.0000000000000000e+00 0.0000000000000000e+00 0.0000000000000000e+00  -1.8408677127802608e-01 2.3741309512837986e-02 0.0000000000000000e+00 2.3741309512837986e-02 8.3795971777684830e-02 0.0000000000000000e+00 0.0000000000000000e+00 0.0000000000000000e+00 0.0000000000000000e+00  -1.2996054752459640e-01 2.9130933760067670e-02 0.0000000000000000e+00 2.9130933760067670e-02 6.1986670896264848e-02 0.0000000000000000e+00 0.0000000000000000e+00 0.0000000000000000e+00 0.0000000000000000e+00  -1.1482982298276580e-01 3.1245264769217962e-02 0.0000000000000000e+00 3.1245264769217962e-02 4.1587395878209275e-02 0.0000000000000000e+00 0.0000000000000000e+00 0.0000000000000000e+00 0.0000000000000000e+00  -1.0281427130714477e-01 3.0328138263799750e-02 0.0000000000000000e+00 3.0328138263799750e-02 2.1535648111340219e-02 0.0000000000000000e+00 0.0000000000000000e+00 0.0000000000000000e+00 0.0000000000000000e+00  -9.2353737952661705e-02 2.7179962153783700e-02 0.0000000000000000e+00 2.7179962153783700e-02 2.3584892616207919e-03 0.0000000000000000e+00 0.0000000000000000e+00 0.0000000000000000e+00 0.0000000000000000e+00  -8.3863531352847326e-02 2.2772460794091950e-02 0.0000000000000000e+00 2.2772460794091950e-02 -1.4947915385817249e-02 0.0000000000000000e+00 0.0000000000000000e+00 0.0000000000000000e+00 0.0000000000000000e+00  -7.7407769947199029e-02 1.7942031413966681e-02 0.0000000000000000e+00 1.7942031413966681e-02 -2.9937994472690532e-02 0.0000000000000000e+00 0.0000000000000000e+00 0.0000000000000000e+00 0.0000000000000000e+00  -7.2804068584965298e-02 1.3275479373122581e-02 0.0000000000000000e+00 1.3275479373122581e-02 -4.2551493639155571e-02 0.0000000000000000e+00 0.0000000000000000e+00 0.0000000000000000e+00 0.0000000000000000e+00  -6.9759454255085299e-02 9.1162920645404977e-03 0.0000000000000000e+00 9.1162920645404977e-03 -5.2951287212728959e-02 0.0000000000000000e+00 0.0000000000000000e+00 0.0000000000000000e+00 0.0000000000000000e+00  -6.7959629923262169e-02 5.6184678253726203e-03 0.0000000000000000e+00 5.6184678253726203e-03 -6.1403209598719026e-02 0.0000000000000000e+00 0.0000000000000000e+00 0.0000000000000000e+00 0.0000000000000000e+00  -6.7114995723999898e-02 2.8092887471559804e-03 0.0000000000000000e+00 2.8092887471559804e-03 -6.8202170406478496e-02 0.0000000000000000e+00 0.0000000000000000e+00 0.0000000000000000e+00 0.0000000000000000e+00  -6.6979052803763622e-02 6.4189569315729856e-04 0.0000000000000000e+00 6.4189569315729867e-04 -7.3632122808341041e-02 0.0000000000000000e+00 0.0000000000000000e+00 0.0000000000000000e+00 0.0000000000000000e+00  -6.7351934560560073e-02 -9.6656886069627944e-04 0.0000000000000000e+00 -9.6656886069627944e-04 -7.7947220884599058e-02 0.0000000000000000e+00 0.0000000000000000e+00 0.0000000000000000e+00 0.0000000000000000e+00  -6.8076580571324791e-02 -2.1102893938971042e-03 0.0000000000000000e+00 -2.1102893938971042e-03 -8.1365531953410106e-02 0.0000000000000000e+00 0.0000000000000000e+00 0.0000000000000000e+00 0.0000000000000000e+00  -6.9032125679996309e-02 -2.8804854094033280e-03 0.0000000000000000e+00 -2.8804854094033280e-03 -8.4069367987791743e-02 0.0000000000000000e+00 0.0000000000000000e+00 0.0000000000000000e+00 0.0000000000000000e+00  -7.0126840680372199e-02 -3.3583387222357957e-03 0.0000000000000000e+00 -3.3583387222357957e-03 -8.6208704547029877e-02 0.0000000000000000e+00 0.0000000000000000e+00 0.0000000000000000e+00 0.0000000000000000e+00  -7.1291772030972436e-02 -3.6125079589621784e-03 0.0000000000000000e+00 -3.6125079589621779e-03 -8.7905616689525373e-02 0.0000000000000000e+00 0.0000000000000000e+00 0.0000000000000000e+00 0.0000000000000000e+00  -7.2475524595201568e-02 -3.6992684318052018e-03 0.0000000000000000e+00 -3.6992684318052018e-03 -8.9258627702889157e-02 0.0000000000000000e+00 0.0000000000000000e+00 0.0000000000000000e+00 0.0000000000000000e+00  -7.3640245509341368e-02 -3.6639127178879449e-03 0.0000000000000000e+00 -3.6639127178879462e-03 -9.0346471288916111e-02 0.0000000000000000e+00 0.0000000000000000e+00 0.0000000000000000e+00 0.0000000000000000e+00  -7.4758653235426284e-02 -3.5425301271921530e-03 0.0000000000000000e+00 -3.5425301271921530e-03 -9.1231148810071994e-02 0.0000000000000000e+00 0.0000000000000000e+00 0.0000000000000000e+00 0.0000000000000000e+00  -7.5811853855652020e-02 -3.3636595335586857e-03 0.0000000000000000e+00 -3.3636595335586857e-03 -9.1960383872440946e-02 0.0000000000000000e+00 0.0000000000000000e+00 0.0000000000000000e+00 0.0000000000000000e+00  -7.6787667748932892e-02 -3.1495941918893073e-03 0.0000000000000000e+00 -3.1495941918893073e-03 -9.2569672068034195e-02 0.0000000000000000e+00 0.0000000000000000e+00 0.0000000000000000e+00 0.0000000000000000e+00  -7.7679235170718092e-02 -2.9173149954137053e-03 0.0000000000000000e+00 -2.9173149954137053e-03 -9.3084120986005575e-02 0.0000000000000000e+00 0.0000000000000000e+00 0.0000000000000000e+00 0.0000000000000000e+00  -7.8483756486925238e-02 -2.6791405498133628e-03 0.0000000000000000e+00 -2.6791405498133628e-03 -9.3520206781149515e-02 0.0000000000000000e+00 0.0000000000000000e+00 0.0000000000000000e+00 0.0000000000000000e+00  -7.9201323512642419e-02 -2.4432119880765514e-03 0.0000000000000000e+00 -2.4432119880765514e-03 -9.3887477821678264e-02 0.0000000000000000e+00 0.0000000000000000e+00 0.0000000000000000e+00 0.0000000000000000e+00  -7.9833883726134536e-02 -2.2138909055376315e-03 0.0000000000000000e+00 -2.2138909055376315e-03 -9.4190152428197421e-02 0.0000000000000000e+00 0.0000000000000000e+00 0.0000000000000000e+00 0.0000000000000000e+00  -8.0384428488915360e-02 -1.9920637112361039e-03 0.0000000000000000e+00 -1.9920637112361039e-03 -9.4428515153343162e-02 0.0000000000000000e+00 0.0000000000000000e+00 0.0000000000000000e+00 0.0000000000000000e+00  -8.0856504874682600e-02 -1.7752430195996621e-03 0.0000000000000000e+00 -1.7752430195996621e-03 -9.4600024058212259e-02 0.0000000000000000e+00 0.0000000000000000e+00 0.0000000000000000e+00 0.0000000000000000e+00  -8.1254131670100316e-02 -1.5572593973087953e-03 0.0000000000000000e+00 -1.5572593973087953e-03 -9.4700088323565579e-02 0.0000000000000000e+00 0.0000000000000000e+00 0.0000000000000000e+00 0.0000000000000000e+00  -8.1582183480703105e-02 -1.3272543104122033e-03 0.0000000000000000e+00 -1.3272543104122033e-03 -9.4722532427237147e-02 0.0000000000000000e+00 0.0000000000000000e+00 0.0000000000000000e+00 0.0000000000000000e+00  -8.1847333402138664e-02 -1.0676101004251440e-03 0.0000000000000000e+00 -1.0676101004251440e-03 -9.4659795508108352e-02 0.0000000000000000e+00 0.0000000000000000e+00 0.0000000000000000e+00 0.0000000000000000e+00  -8.2059764960184300e-02 -7.5036847846887418e-04 0.0000000000000000e+00 -7.5036847846887418e-04 -9.4502890678079862e-02 0.0000000000000000e+00 0.0000000000000000e+00 0.0000000000000000e+00 0.0000000000000000e+00  -8.2236151188093437e-02 -3.3157561710540684e-04 0.0000000000000000e+00 -3.3157561710540684e-04 -9.4241048941659911e-02 0.0000000000000000e+00 0.0000000000000000e+00 0.0000000000000000e+00 0.0000000000000000e+00  -8.2404905850403762e-02 2.5714685622048409e-04 0.0000000000000000e+00 2.5714685622048409e-04 -9.3860860851412181e-02 0.0000000000000000e+00 0.0000000000000000e+00 0.0000000000000000e+00 0.0000000000000000e+00  -8.2615573906757750e-02 1.1206854834351734e-03 0.0000000000000000e+00 1.1206854834351734e-03 -9.3344704144450771e-02 0.0000000000000000e+00 0.0000000000000000e+00 0.0000000000000000e+00 0.0000000000000000e+00  -8.2954950592214291e-02 2.4174923027558350e-03 0.0000000000000000e+00 2.4174923027558350e-03 -9.2669348558311021e-02 0.0000000000000000e+00 0.0000000000000000e+00 0.0000000000000000e+00 0.0000000000000000e+00  -8.3572405590802409e-02 4.3845432200257488e-03 0.0000000000000000e+00 4.3845432200257488e-03 -9.1810236179010365e-02 0.0000000000000000e+00 0.0000000000000000e+00 0.0000000000000000e+00 0.0000000000000000e+00  -8.4696034126630224e-02 7.3788919214566404e-03 0.0000000000000000e+00 7.3788919214566404e-03 -9.0786420184968256e-02 0.0000000000000000e+00 0.0000000000000000e+00 0.0000000000000000e+00 0.0000000000000000e+00  -8.6621526034327836e-02 1.1935412908815666e-02 0.0000000000000000e+00 1.1935412908815666e-02 -8.9821051698578069e-02 0.0000000000000000e+00 0.0000000000000000e+00 0.0000000000000000e+00 0.0000000000000000e+00  -9.1718223027360837e-02 1.8574915419822112e-02 0.0000000000000000e+00 1.8574915419822112e-02 -8.8854028548464692e-02 0.0000000000000000e+00 0.0000000000000000e+00 0.0000000000000000e+00 0.0000000000000000e+00  -1.4350048780380384e-01 2.5191535600192567e-02 0.0000000000000000e+00 2.5191535600192567e-02 -8.1705350687578032e-02 0.0000000000000000e+00 0.0000000000000000e+00 0.0000000000000000e+00 0.0000000000000000e+00  -2.6634454679179487e-01 3.8880229015819452e-02 0.0000000000000000e+00 3.8880229015819452e-02 -1.6300172654048878e-01 0.0000000000000000e+00 0.0000000000000000e+00 0.0000000000000000e+00 0.0000000000000000e+00  3.7777353527669111e-01 1.4381033618482154e-02 0.0000000000000000e+00 1.4381033618482158e-02 -1.7774566467488312e-01 0.0000000000000000e+00 0.0000000000000000e+00 0.0000000000000000e+00 0.0000000000000000e+00  1.0114137319295394e-01 1.1357352141703762e-03 0.0000000000000000e+00 1.1357352141703769e-03 2.1768183244822017e-01 0.0000000000000000e+00 0.0000000000000000e+00 0.0000000000000000e+00 0.0000000000000000e+00  1.9718580711099850e-03 -2.7101263777197022e-04 0.0000000000000000e+00 -2.7101263777197022e-04 1.2367836549044324e-02 0.0000000000000000e+00 0.0000000000000000e+00 0.0000000000000000e+00 0.0000000000000000e+00  7.7182929342619767e-03 -4.8954423149648998e-06 0.0000000000000000e+00 -4.8954423149648973e-06 8.1877156410856723e-03 0.0000000000000000e+00 0.0000000000000000e+00 0.0000000000000000e+00 0.0000000000000000e+00  7.9458215194401199e-03 -7.9886815636922203e-06 0.0000000000000000e+00 -7.9886815636922203e-06 7.9293140665179004e-03 0.0000000000000000e+00 0.0000000000000000e+00 0.0000000000000000e+00 0.0000000000000000e+00  7.9719075954969524e-03 -1.9266766446252339e-05 0.0000000000000000e+00 -1.9266766446252339e-05 7.9565824025649261e-03 0.0000000000000000e+00 0.0000000000000000e+00 0.0000000000000000e+00 0.0000000000000000e+00  8.0021535749527466e-03 1.7864875287062953e-05 0.0000000000000000e+00 1.7864875287062953e-05 7.9842928952686999e-03 0.0000000000000000e+00 0.0000000000000000e+00 0.0000000000000000e+00 0.0000000000000000e+00  7.9655841815590676e-03 5.8728424685087740e-06 0.0000000000000000e+00 5.8728424685087740e-06 7.9536873676527304e-03 0.0000000000000000e+00 0.0000000000000000e+00 0.0000000000000000e+00 0.0000000000000000e+00  7.6359318462026690e-03 -5.6198047933688472e-06 0.0000000000000000e+00 -5.6198047933688472e-06 8.2761616639692413e-03 0.0000000000000000e+00 0.0000000000000000e+00 0.0000000000000000e+00 0.0000000000000000e+00  1.4846325829832151e-03 3.5701042113084967e-05 0.0000000000000000e+00 3.5701042113084967e-05 1.3087615805715850e-02 0.0000000000000000e+00 0.0000000000000000e+00 0.0000000000000000e+00 0.0000000000000000e+00  1.3101180798983844e-01 2.0158833684952959e-03 0.0000000000000000e+00 2.0158833684952959e-03 2.3202913230669558e-01 0.0000000000000000e+00 0.0000000000000000e+00 0.0000000000000000e+00 0.0000000000000000e+00  3.3229170651593265e-01 -5.1056403682292447e-03 0.0000000000000000e+00 -5.1056403682292447e-03 -1.7174892586672605e-01 0.0000000000000000e+00 0.0000000000000000e+00 0.0000000000000000e+00 0.0000000000000000e+00  -2.4461291696731294e-01 -1.7868991208517006e-02 0.0000000000000000e+00 -1.7868991208517006e-02 -1.5999392501031651e-01 0.0000000000000000e+00 0.0000000000000000e+00 0.0000000000000000e+00 0.0000000000000000e+00  -1.1316823351695207e-01 -1.8463361875829396e-02 0.0000000000000000e+00 -1.8463361875829396e-02 -8.5658740997710300e-02 0.0000000000000000e+00 0.0000000000000000e+00 0.0000000000000000e+00 0.0000000000000000e+00  -7.4176206253175767e-02 -1.6305930884749898e-02 0.0000000000000000e+00 -1.6305930884749898e-02 -9.5504255316060327e-02 0.0000000000000000e+00 0.0000000000000000e+00 0.0000000000000000e+00 0.0000000000000000e+00  -7.5709595065524396e-02 -1.1416792182867423e-02 0.0000000000000000e+00 -1.1416792182867423e-02 -9.5249073806761730e-02 0.0000000000000000e+00 0.0000000000000000e+00 0.0000000000000000e+00 0.0000000000000000e+00  -7.7958297002076210e-02 -7.2916215247544134e-03 0.0000000000000000e+00 -7.2916215247544134e-03 -9.4681157150345280e-02 0.0000000000000000e+00 0.0000000000000000e+00 0.0000000000000000e+00 0.0000000000000000e+00  -7.9369964464266682e-02 -4.3921521666799709e-03 0.0000000000000000e+00 -4.3921521666799709e-03 -9.4482512592275164e-02 0.0000000000000000e+00 0.0000000000000000e+00 0.0000000000000000e+00 0.0000000000000000e+00  -8.0258443842824392e-02 -2.4787984751621279e-03 0.0000000000000000e+00 -2.4787984751621279e-03 -9.4494595243190704e-02 0.0000000000000000e+00 0.0000000000000000e+00 0.0000000000000000e+00 0.0000000000000000e+00  -8.0810974791674747e-02 -1.2440645957429376e-03 0.0000000000000000e+00 -1.2440645957429376e-03 -9.4607561508564295e-02 0.0000000000000000e+00 0.0000000000000000e+00 0.0000000000000000e+00 0.0000000000000000e+00  -8.1126416535058032e-02 -4.4812858180624706e-04 0.0000000000000000e+00 -4.4812858180624706e-04 -9.4754822468415670e-02 0.0000000000000000e+00 0.0000000000000000e+00 0.0000000000000000e+00 0.0000000000000000e+00  -8.1263686704717786e-02 7.3261970637400088e-05 0.0000000000000000e+00 7.3261970637400088e-05 -9.4892444401720275e-02 0.0000000000000000e+00 0.0000000000000000e+00 0.0000000000000000e+00 0.0000000000000000e+00  -8.1259954761292982e-02 4.2700329896091122e-04 0.0000000000000000e+00 4.2700329896091122e-04 -9.4991590063743234e-02 0.0000000000000000e+00 0.0000000000000000e+00 0.0000000000000000e+00 0.0000000000000000e+00  -8.1138656163910999e-02 6.8093045041507888e-04 0.0000000000000000e+00 6.8093045041507888e-04 -9.5034687157344769e-02 0.0000000000000000e+00 0.0000000000000000e+00 0.0000000000000000e+00 0.0000000000000000e+00  -8.0914227003397163e-02 8.7746749016259003e-04 0.0000000000000000e+00 8.7746749016259003e-04 -9.5012242544069786e-02 0.0000000000000000e+00 0.0000000000000000e+00 0.0000000000000000e+00 0.0000000000000000e+00  -8.0595222477094899e-02 1.0428640904093206e-03 0.0000000000000000e+00 1.0428640904093206e-03 -9.4920077101048980e-02 0.0000000000000000e+00 0.0000000000000000e+00 0.0000000000000000e+00 0.0000000000000000e+00  -8.0186409627238983e-02 1.1931472453220601e-03 0.0000000000000000e+00 1.1931472453220601e-03 -9.4757045714568583e-02 0.0000000000000000e+00 0.0000000000000000e+00 0.0000000000000000e+00 0.0000000000000000e+00  -7.9690173961643893e-02 1.3377976910722638e-03 0.0000000000000000e+00 1.3377976910722638e-03 -9.4523219746177278e-02 0.0000000000000000e+00 0.0000000000000000e+00 0.0000000000000000e+00 0.0000000000000000e+00  -7.9107526285720514e-02 1.4818930322870085e-03 0.0000000000000000e+00 1.4818930322870085e-03 -9.4218396652903338e-02 0.0000000000000000e+00 0.0000000000000000e+00 0.0000000000000000e+00 0.0000000000000000e+00  -7.8438945751020991e-02 1.6272373401045026e-03 0.0000000000000000e+00 1.6272373401045026e-03 -9.3840764847195057e-02 0.0000000000000000e+00 0.0000000000000000e+00 0.0000000000000000e+00 0.0000000000000000e+00  -7.7685234486177021e-02 1.7728414143812548e-03 0.0000000000000000e+00 1.7728414143812548e-03 -9.3385569704774227e-02 0.0000000000000000e+00 0.0000000000000000e+00 0.0000000000000000e+00 0.0000000000000000e+00  -7.6848492362478052e-02 1.9150087039144148e-03 0.0000000000000000e+00 1.9150087039144148e-03 -9.2843677114936810e-02 0.0000000000000000e+00 0.0000000000000000e+00 0.0000000000000000e+00 0.0000000000000000e+00  -7.5933260665856706e-02 2.0471956833129916e-03 0.0000000000000000e+00 2.0471956833129916e-03 -9.2199989641334315e-02 0.0000000000000000e+00 0.0000000000000000e+00 0.0000000000000000e+00 0.0000000000000000e+00  -7.4947843621633675e-02 2.1597394618218246e-03 0.0000000000000000e+00 2.1597394618218246e-03 -9.1431716156942469e-02 0.0000000000000000e+00 0.0000000000000000e+00 0.0000000000000000e+00 0.0000000000000000e+00  -7.3905806011054925e-02 2.2394789958561636e-03 0.0000000000000000e+00 2.2394789958561636e-03 -9.0506514649021430e-02 0.0000000000000000e+00 0.0000000000000000e+00 0.0000000000000000e+00 0.0000000000000000e+00  -7.2827664756438926e-02 2.2692487199786312e-03 0.0000000000000000e+00 2.2692487199786312e-03 -8.9380516921125655e-02 0.0000000000000000e+00 0.0000000000000000e+00 0.0000000000000000e+00 0.0000000000000000e+00  -7.1742833076766321e-02 2.2272085058884393e-03 0.0000000000000000e+00 2.2272085058884393e-03 -8.7996214178036533e-02 0.0000000000000000e+00 0.0000000000000000e+00 0.0000000000000000e+00 0.0000000000000000e+00  -7.0691918518630645e-02 2.0860046647753795e-03 0.0000000000000000e+00 2.0860046647753795e-03 -8.6280157606397220e-02 0.0000000000000000e+00 0.0000000000000000e+00 0.0000000000000000e+00 0.0000000000000000e+00  -6.9729495164634003e-02 1.8118421941336715e-03 0.0000000000000000e+00 1.8118421941336715e-03 -8.4140439797181152e-02 0.0000000000000000e+00 0.0000000000000000e+00 0.0000000000000000e+00 0.0000000000000000e+00  -6.8927437498478419e-02 1.3636932793166731e-03 0.0000000000000000e+00 1.3636932793166731e-03 -8.1464005238510856e-02 0.0000000000000000e+00 0.0000000000000000e+00 0.0000000000000000e+00 0.0000000000000000e+00  -6.8378790774739628e-02 6.9307373831642102e-04 0.0000000000000000e+00 6.9307373831642102e-04 -7.8114023164887608e-02 0.0000000000000000e+00 0.0000000000000000e+00 0.0000000000000000e+00 0.0000000000000000e+00  -6.8201931415379932e-02 -2.5491004468631206e-04 0.0000000000000000e+00 -2.5491004468631206e-04 -7.3927872932248020e-02 0.0000000000000000e+00 0.0000000000000000e+00 0.0000000000000000e+00 0.0000000000000000e+00  -6.8544406941369970e-02 -1.5382079988827530e-03 0.0000000000000000e+00 -1.5382079988827530e-03 -6.8716768838618381e-02 0.0000000000000000e+00 0.0000000000000000e+00 0.0000000000000000e+00 0.0000000000000000e+00  -6.9585291627641141e-02 -3.2107585452076925e-03 0.0000000000000000e+00 -3.2107585452076925e-03 -6.2268717765483261e-02 0.0000000000000000e+00 0.0000000000000000e+00 0.0000000000000000e+00 0.0000000000000000e+00  -7.1534101986905865e-02 -5.3099714955004047e-03 0.0000000000000000e+00 -5.3099714955004047e-03 -5.4357372765566528e-02 0.0000000000000000e+00 0.0000000000000000e+00 0.0000000000000000e+00 0.0000000000000000e+00  -7.4623218368830041e-02 -7.8369568220278841e-03 0.0000000000000000e+00 -7.8369568220278841e-03 -4.4760416037907834e-02 0.0000000000000000e+00 0.0000000000000000e+00 0.0000000000000000e+00 0.0000000000000000e+00  -7.9089447396951770e-02 -1.0728388624991095e-02 0.0000000000000000e+00 -1.0728388624991095e-02 -3.3292146237669830e-02 0.0000000000000000e+00 0.0000000000000000e+00 0.0000000000000000e+00 0.0000000000000000e+00  -8.5138935368443733e-02 -1.3821032436690530e-02 0.0000000000000000e+00 -1.3821032436690530e-02 -1.9855670100850441e-02 0.0000000000000000e+00 0.0000000000000000e+00 0.0000000000000000e+00 0.0000000000000000e+00  -9.2889066187013536e-02 -1.6815406743844845e-02 0.0000000000000000e+00 -1.6815406743844845e-02 -4.5190749387343278e-03 0.0000000000000000e+00 0.0000000000000000e+00 0.0000000000000000e+00 0.0000000000000000e+00  -1.0228373053342299e-01 -1.9253546744017979e-02 0.0000000000000000e+00 -1.9253546744017979e-02 1.2385270650374845e-02 0.0000000000000000e+00 0.0000000000000000e+00 0.0000000000000000e+00 0.0000000000000000e+00  -1.1298366447958264e-01 -2.0542123749061624e-02 0.0000000000000000e+00 -2.0542123749061624e-02 3.0149080910321778e-02 0.0000000000000000e+00 0.0000000000000000e+00 0.0000000000000000e+00 0.0000000000000000e+00  -1.2427323596750282e-01 -2.0060859030085566e-02 0.0000000000000000e+00 -2.0060859030085566e-02 4.7616166196304176e-02 0.0000000000000000e+00 0.0000000000000000e+00 0.0000000000000000e+00 0.0000000000000000e+00  -1.3512124586865423e-01 -1.7395724386037870e-02 0.0000000000000000e+00 -1.7395724386037870e-02 6.3251320382320730e-02 0.0000000000000000e+00 0.0000000000000000e+00 0.0000000000000000e+00 0.0000000000000000e+00  -1.4685445428314040e-01 -1.2666363945227669e-02 0.0000000000000000e+00 -1.2666363945227669e-02 7.6498389241115919e-02 0.0000000000000000e+00 0.0000000000000000e+00 0.0000000000000000e+00 0.0000000000000000e+00  -1.9637621696052557e-01 -6.7387821015786652e-03 0.0000000000000000e+00 -6.7387821015786652e-03 8.8848537413424439e-02 0.0000000000000000e+00 0.0000000000000000e+00 0.0000000000000000e+00 0.0000000000000000e+00  -2.9917384471689512e-01 -5.7097007584504624e-04 0.0000000000000000e+00 -5.7097007584504624e-04 6.2615930442041209e-02 0.0000000000000000e+00 0.0000000000000000e+00 0.0000000000000000e+00 0.0000000000000000e+00  2.4569139078921970e-02 4.1548651625657696e-03 0.0000000000000000e+00 4.1548651625657696e-03 -1.0978521835601157e-01 0.0000000000000000e+00 0.0000000000000000e+00 0.0000000000000000e+00 0.0000000000000000e+00  -2.9329118778459379e-01 1.0261167146802934e-02 0.0000000000000000e+00 1.0261167146802934e-02 5.8113263109874483e-02 0.0000000000000000e+00 0.0000000000000000e+00 0.0000000000000000e+00 0.0000000000000000e+00  -1.8331470423385876e-01 1.4876524909820176e-02 0.0000000000000000e+00 1.4876524909820176e-02 7.8050388451995217e-02 0.0000000000000000e+00 0.0000000000000000e+00 0.0000000000000000e+00 0.0000000000000000e+00  -1.3071829555761091e-01 1.8317912314618854e-02 0.0000000000000000e+00 1.8317912314618854e-02 5.8600672534089578e-02 0.0000000000000000e+00 0.0000000000000000e+00 0.0000000000000000e+00 0.0000000000000000e+00  -1.1725953587355264e-01 1.9896697979234282e-02 0.0000000000000000e+00 1.9896697979234282e-02 4.0754076213320736e-02 0.0000000000000000e+00 0.0000000000000000e+00 0.0000000000000000e+00 0.0000000000000000e+00  -1.0638697078776108e-01 1.9656295802313036e-02 0.0000000000000000e+00 1.9656295802313036e-02 2.2862486999626976e-02 0.0000000000000000e+00 0.0000000000000000e+00 0.0000000000000000e+00 0.0000000000000000e+00  -9.6405672277491500e-02 1.7964866698618080e-02 0.0000000000000000e+00 1.7964866698618080e-02 5.1637211926071876e-03 0.0000000000000000e+00 0.0000000000000000e+00 0.0000000000000000e+00 0.0000000000000000e+00  -8.7803525937542107e-02 1.5352938901839709e-02 0.0000000000000000e+00 1.5352938901839709e-02 -1.1396399149195019e-02 0.0000000000000000e+00 0.0000000000000000e+00 0.0000000000000000e+00 0.0000000000000000e+00  -8.0845207445503359e-02 1.2335379705520740e-02 0.0000000000000000e+00 1.2335379705520740e-02 -2.6224537935814897e-02 0.0000000000000000e+00 0.0000000000000000e+00 0.0000000000000000e+00 0.0000000000000000e+00  -7.5544956788044543e-02 9.3123521205394529e-03 0.0000000000000000e+00 9.3123521205394529e-03 -3.9068008572306183e-02 0.0000000000000000e+00 0.0000000000000000e+00 0.0000000000000000e+00 0.0000000000000000e+00  -7.1761148012523493e-02 6.5432163833165592e-03 0.0000000000000000e+00 6.5432163833165592e-03 -4.9914402805887048e-02 0.0000000000000000e+00 0.0000000000000000e+00 0.0000000000000000e+00 0.0000000000000000e+00  -6.9275340441923225e-02 4.1638041284543644e-03 0.0000000000000000e+00 4.1638041284543644e-03 -5.8898346211849681e-02 0.0000000000000000e+00 0.0000000000000000e+00 0.0000000000000000e+00 0.0000000000000000e+00  -6.7846893521524052e-02 2.2191273233782972e-03 0.0000000000000000e+00 2.2191273233782972e-03 -6.6229512746022526e-02 0.0000000000000000e+00 0.0000000000000000e+00 0.0000000000000000e+00 0.0000000000000000e+00  -6.7245442113707699e-02 6.9632563663064926e-04 0.0000000000000000e+00 6.9632563663064948e-04 -7.2143873330553610e-02 0.0000000000000000e+00 0.0000000000000000e+00 0.0000000000000000e+00 0.0000000000000000e+00  -6.7267215079998624e-02 -4.4898877304100007e-04 0.0000000000000000e+00 -4.4898877304100007e-04 -7.6874006215857771e-02 0.0000000000000000e+00 0.0000000000000000e+00 0.0000000000000000e+00 0.0000000000000000e+00  -6.7740947538832405e-02 -1.2743207145992992e-03 0.0000000000000000e+00 -1.2743207145992992e-03 -8.0633088650161028e-02 0.0000000000000000e+00 0.0000000000000000e+00 0.0000000000000000e+00 0.0000000000000000e+00  -6.8527736360346689e-02 -1.8388367442862636e-03 0.0000000000000000e+00 -1.8388367442862636e-03 -8.3607889257819493e-02 0.0000000000000000e+00 0.0000000000000000e+00 0.0000000000000000e+00 0.0000000000000000e+00  -6.9517844551634136e-02 -2.1971196806597204e-03 0.0000000000000000e+00 -2.1971196806597195e-03 -8.5957171599312404e-02 0.0000000000000000e+00 0.0000000000000000e+00 0.0000000000000000e+00 0.0000000000000000e+00  -7.0626338706744451e-02 -2.3964321320386812e-03 0.0000000000000000e+00 -2.3964321320386808e-03 -8.7813020805309991e-02 0.0000000000000000e+00 0.0000000000000000e+00 0.0000000000000000e+00 0.0000000000000000e+00  -7.1788645176519325e-02 -2.4761112795218536e-03 0.0000000000000000e+00 -2.4761112795218536e-03 -8.9283486759539524e-02 0.0000000000000000e+00 0.0000000000000000e+00 0.0000000000000000e+00 0.0000000000000000e+00  -7.2956563877452044e-02 -2.4680915892599407e-03 0.0000000000000000e+00 -2.4680915892599411e-03 -9.0455599723601537e-02 0.0000000000000000e+00 0.0000000000000000e+00 0.0000000000000000e+00 0.0000000000000000e+00  -7.4094927446812855e-02 -2.3978852531430124e-03 0.0000000000000000e+00 -2.3978852531430128e-03 -9.1398278884169085e-02 0.0000000000000000e+00 0.0000000000000000e+00 0.0000000000000000e+00 0.0000000000000000e+00  -7.5178886326411454e-02 -2.2856182867445817e-03 0.0000000000000000e+00 -2.2856182867445817e-03 -9.2164956381543706e-02 0.0000000000000000e+00 0.0000000000000000e+00 0.0000000000000000e+00 0.0000000000000000e+00  -7.6191700698301251e-02 -2.1469222968299988e-03 0.0000000000000000e+00 -2.1469222968299988e-03 -9.2795910194947873e-02 0.0000000000000000e+00 0.0000000000000000e+00 0.0000000000000000e+00 0.0000000000000000e+00  -7.7122898000116819e-02 -1.9936214252244348e-03 0.0000000000000000e+00 -1.9936214252244348e-03 -9.3320369475364595e-02 0.0000000000000000e+00 0.0000000000000000e+00 0.0000000000000000e+00 0.0000000000000000e+00  -7.7966681816690989e-02 -1.8342342912972208e-03 0.0000000000000000e+00 -1.8342342912972208e-03 -9.3758458019757282e-02 0.0000000000000000e+00 0.0000000000000000e+00 0.0000000000000000e+00 0.0000000000000000e+00  -7.8720526396049387e-02 -1.6743370307650042e-03 0.0000000000000000e+00 -1.6743370307650042e-03 -9.4123009529469850e-02 0.0000000000000000e+00 0.0000000000000000e+00 0.0000000000000000e+00 0.0000000000000000e+00  -7.9383935587300031e-02 -1.5168149402033945e-03 0.0000000000000000e+00 -1.5168149402033945e-03 -9.4421253497347313e-02 0.0000000000000000e+00 0.0000000000000000e+00 0.0000000000000000e+00 0.0000000000000000e+00  -7.9957366959850465e-02 -1.3619798714926516e-03 0.0000000000000000e+00 -1.3619798714926516e-03 -9.4656356257310906e-02 0.0000000000000000e+00 0.0000000000000000e+00 0.0000000000000000e+00 0.0000000000000000e+00  -8.0441312354022063e-02 -1.2074621158699509e-03 0.0000000000000000e+00 -1.2074621158699509e-03 -9.4828818534924156e-02 0.0000000000000000e+00 0.0000000000000000e+00 0.0000000000000000e+00 0.0000000000000000e+00  -8.0835486662809874e-02 -1.0477081906300183e-03 0.0000000000000000e+00 -1.0477081906300183e-03 -9.4937775565624563e-02 0.0000000000000000e+00 0.0000000000000000e+00 0.0000000000000000e+00 0.0000000000000000e+00  -8.1138016645226435e-02 -8.7282901903815993e-04 0.0000000000000000e+00 -8.7282901903815993e-04 -9.4982304096307354e-02 0.0000000000000000e+00 0.0000000000000000e+00 0.0000000000000000e+00 0.0000000000000000e+00  -8.1344454137146999e-02 -6.6643351916693516e-04 0.0000000000000000e+00 -6.6643351916693516e-04 -9.4962890976996978e-02 0.0000000000000000e+00 0.0000000000000000e+00 0.0000000000000000e+00 0.0000000000000000e+00  -8.1446376575214544e-02 -4.0192706507691218e-04 0.0000000000000000e+00 -4.0192706507691218e-04 -9.4883235698598190e-02 0.0000000000000000e+00 0.0000000000000000e+00 0.0000000000000000e+00 0.0000000000000000e+00  -8.1429286745075533e-02 -3.6532142037582300e-05 0.0000000000000000e+00 -3.6532142037582300e-05 -9.4752521782903137e-02 0.0000000000000000e+00 0.0000000000000000e+00 0.0000000000000000e+00 0.0000000000000000e+00  -8.1269470416155648e-02 4.9797916122030052e-04 0.0000000000000000e+00 4.9797916122030052e-04 -9.4588176671658655e-02 0.0000000000000000e+00 0.0000000000000000e+00 0.0000000000000000e+00 0.0000000000000000e+00  -8.0929221653749897e-02 1.3089705097393109e-03 0.0000000000000000e+00 1.3089705097393109e-03 -9.4419046369874277e-02 0.0000000000000000e+00 0.0000000000000000e+00 0.0000000000000000e+00 0.0000000000000000e+00  -8.0348779852134330e-02 2.5612743351349646e-03 0.0000000000000000e+00 2.5612743351349646e-03 -9.4289187520423673e-02 0.0000000000000000e+00 0.0000000000000000e+00 0.0000000000000000e+00 0.0000000000000000e+00  -7.9428107228865397e-02 4.4954285599857037e-03 0.0000000000000000e+00 4.4954285599857037e-03 -9.4265301935436627e-02 0.0000000000000000e+00 0.0000000000000000e+00 0.0000000000000000e+00 0.0000000000000000e+00  -7.7978581985709491e-02 7.4197135825996036e-03 0.0000000000000000e+00 7.4197135825996036e-03 -9.4456964581189767e-02 0.0000000000000000e+00 0.0000000000000000e+00 0.0000000000000000e+00 0.0000000000000000e+00  -7.5685765310481989e-02 1.1574203243509787e-02 0.0000000000000000e+00 1.1574203243509787e-02 -9.5021039469379995e-02 0.0000000000000000e+00 0.0000000000000000e+00 0.0000000000000000e+00 0.0000000000000000e+00  -7.4113194274840893e-02 1.6497014763728397e-02 0.0000000000000000e+00 1.6497014763728397e-02 -9.5266357054074394e-02 0.0000000000000000e+00 0.0000000000000000e+00 0.0000000000000000e+00 0.0000000000000000e+00  -1.1319770739183911e-01 1.8698442570578958e-02 0.0000000000000000e+00 1.8698442570578958e-02 -8.5411493037993433e-02 0.0000000000000000e+00 0.0000000000000000e+00 0.0000000000000000e+00 0.0000000000000000e+00  -2.4458706082759105e-01 1.8122020155970756e-02 0.0000000000000000e+00 1.8122020155970756e-02 -1.5978339605694514e-01 0.0000000000000000e+00 0.0000000000000000e+00 0.0000000000000000e+00 0.0000000000000000e+00  3.3327526233715232e-01 5.1861756712956149e-03 0.0000000000000000e+00 5.1861756712956149e-03 -1.7118794343772287e-01 0.0000000000000000e+00 0.0000000000000000e+00 0.0000000000000000e+00 0.0000000000000000e+00  1.3002912181240311e-01 -1.9023580908481812e-03 0.0000000000000000e+00 -1.9023580908481812e-03 2.3156385277030275e-01 0.0000000000000000e+00 0.0000000000000000e+00 0.0000000000000000e+00 0.0000000000000000e+00  1.3616232867787754e-03 -4.5900775338729679e-05 0.0000000000000000e+00 -4.5900775338729659e-05 1.2980804746759179e-02 0.0000000000000000e+00 0.0000000000000000e+00 0.0000000000000000e+00 0.0000000000000000e+00  7.6360783126527684e-03 -5.2685023716310733e-06 0.0000000000000000e+00 -5.2685023716310767e-06 8.2801084642847977e-03 0.0000000000000000e+00 0.0000000000000000e+00 0.0000000000000000e+00 0.0000000000000000e+00  7.9425637446606401e-03 -3.7343532874367321e-06 0.0000000000000000e+00 -3.7343532874367321e-06 7.9345158839027076e-03 0.0000000000000000e+00 0.0000000000000000e+00 0.0000000000000000e+00 0.0000000000000000e+00  7.9850890412795153e-03 -1.0386445073881692e-05 0.0000000000000000e+00 -1.0386445073881694e-05 7.9690379356045470e-03 0.0000000000000000e+00 0.0000000000000000e+00 0.0000000000000000e+00 0.0000000000000000e+00  8.0146368204377216e-03 7.8161136811868694e-06 0.0000000000000000e+00 7.8161136811868694e-06 7.9955977460767057e-03 0.0000000000000000e+00 0.0000000000000000e+00 0.0000000000000000e+00 0.0000000000000000e+00  7.9663777167853951e-03 2.7769479040397281e-06 0.0000000000000000e+00 2.7769479040397281e-06 7.9610958104950960e-03 0.0000000000000000e+00 0.0000000000000000e+00 0.0000000000000000e+00 0.0000000000000000e+00  7.5770453991622043e-03 -1.9113429796937513e-06 0.0000000000000000e+00 -1.9113429796937513e-06 8.3433827331094116e-03 0.0000000000000000e+00 0.0000000000000000e+00 0.0000000000000000e+00 0.0000000000000000e+00  1.0946466141898174e-03 -1.4274658896147617e-05 0.0000000000000000e+00 -1.4274658896147617e-05 1.3556536044961744e-02 0.0000000000000000e+00 0.0000000000000000e+00 0.0000000000000000e+00 0.0000000000000000e+00  1.4889372538784021e-01 1.9640895071348836e-03 0.0000000000000000e+00 1.9640895071348836e-03 2.3506760777314317e-01 0.0000000000000000e+00 0.0000000000000000e+00 0.0000000000000000e+00 0.0000000000000000e+00  3.0118144930468926e-01 -1.1246105598742393e-03 0.0000000000000000e+00 -1.1246105598742393e-03 -1.7003780224216172e-01 0.0000000000000000e+00 0.0000000000000000e+00 0.0000000000000000e+00 0.0000000000000000e+00  -2.3399959498501205e-01 -5.7412670435574810e-03 0.0000000000000000e+00 -5.7412670435574810e-03 -1.5025646741379145e-01 0.0000000000000000e+00 0.0000000000000000e+00 0.0000000000000000e+00 0.0000000000000000e+00  -9.6651476443666132e-02 -8.8670130452680358e-03 0.0000000000000000e+00 -8.8670130452680358e-03 -8.5114407048107812e-02 0.0000000000000000e+00 0.0000000000000000e+00 0.0000000000000000e+00 0.0000000000000000e+00  -6.2735500975269295e-02 -9.0221795740082315e-03 0.0000000000000000e+00 -9.0221795740082315e-03 -9.8794592019406782e-02 0.0000000000000000e+00 0.0000000000000000e+00 0.0000000000000000e+00 0.0000000000000000e+00  -6.7661092260996342e-02 -6.7667575164757823e-03 0.0000000000000000e+00 -6.7667575164757823e-03 -9.8827171630288868e-02 0.0000000000000000e+00 0.0000000000000000e+00 0.0000000000000000e+00 0.0000000000000000e+00  -7.2718279136877353e-02 -4.4687702501833414e-03 0.0000000000000000e+00 -4.4687702501833414e-03 -9.7474011549689654e-02 0.0000000000000000e+00 0.0000000000000000e+00 0.0000000000000000e+00 0.0000000000000000e+00  -7.6088688632746912e-02 -2.7359331592618466e-03 0.0000000000000000e+00 -2.7359331592618466e-03 -9.6410032626390821e-02 0.0000000000000000e+00 0.0000000000000000e+00 0.0000000000000000e+00 0.0000000000000000e+00  -7.8217897392353214e-02 -1.5658212572800219e-03 0.0000000000000000e+00 -1.5658212572800219e-03 -9.5761958183526605e-02 0.0000000000000000e+00 0.0000000000000000e+00 0.0000000000000000e+00 0.0000000000000000e+00  -7.9522576599015349e-02 -8.1007842736416607e-04 0.0000000000000000e+00 -8.1007842736416607e-04 -9.5431045238403275e-02 0.0000000000000000e+00 0.0000000000000000e+00 0.0000000000000000e+00 0.0000000000000000e+00  -8.0285493675967046e-02 -3.2771637162810544e-04 0.0000000000000000e+00 -3.2771637162810544e-04 -9.5295946300546525e-02 0.0000000000000000e+00 0.0000000000000000e+00 0.0000000000000000e+00 0.0000000000000000e+00  -8.0686274118457621e-02 -1.6791466620382855e-05 0.0000000000000000e+00 -1.6791466620382855e-05 -9.5259288131780293e-02 0.0000000000000000e+00 0.0000000000000000e+00 0.0000000000000000e+00 0.0000000000000000e+00  -8.0835893386904348e-02 1.8970688197224487e-04 0.0000000000000000e+00 1.8970688197224487e-04 -9.5253254526593945e-02 0.0000000000000000e+00 0.0000000000000000e+00 0.0000000000000000e+00 0.0000000000000000e+00  -8.0801755936366182e-02 3.3409384657059383e-04 0.0000000000000000e+00 3.3409384657059383e-04 -9.5234385013319281e-02 0.0000000000000000e+00 0.0000000000000000e+00 0.0000000000000000e+00 0.0000000000000000e+00  -8.0624236993636730e-02 4.4258781007870782e-04 0.0000000000000000e+00 4.4258781007870782e-04 -9.5176675618046172e-02 0.0000000000000000e+00 0.0000000000000000e+00 0.0000000000000000e+00 0.0000000000000000e+00  -8.0327164568417361e-02 5.3125251758357752e-04 0.0000000000000000e+00 5.3125251758357752e-04 -9.5065596652969070e-02 0.0000000000000000e+00 0.0000000000000000e+00 0.0000000000000000e+00 0.0000000000000000e+00  -7.9924336084033404e-02 6.0980683159865556e-04 0.0000000000000000e+00 6.0980683159865556e-04 -9.4893514103271862e-02 0.0000000000000000e+00 0.0000000000000000e+00 0.0000000000000000e+00 0.0000000000000000e+00  -7.9423569706513597e-02 6.8396179587292352e-04 0.0000000000000000e+00 6.8396179587292352e-04 -9.4656321432289164e-02 0.0000000000000000e+00 0.0000000000000000e+00 0.0000000000000000e+00 0.0000000000000000e+00  -7.8829299716471998e-02 7.5678834155504574e-04 0.0000000000000000e+00 7.5678834155504574e-04 -9.4350928781865351e-02 0.0000000000000000e+00 0.0000000000000000e+00 0.0000000000000000e+00 0.0000000000000000e+00  -7.8144379077725090e-02 8.2945978965199012e-04 0.0000000000000000e+00 8.2945978965199012e-04 -9.3973270527479752e-02 0.0000000000000000e+00 0.0000000000000000e+00 0.0000000000000000e+00 0.0000000000000000e+00  -7.7371513519933779e-02 9.0159924846206808e-04 0.0000000000000000e+00 9.0159924846206808e-04 -9.3516563447380047e-02 0.0000000000000000e+00 0.0000000000000000e+00 0.0000000000000000e+00 0.0000000000000000e+00  -7.6514587559166222e-02 9.7138484173232094e-04 0.0000000000000000e+00 9.7138484173232094e-04 -9.2969630673663484e-02 0.0000000000000000e+00 0.0000000000000000e+00 0.0000000000000000e+00 0.0000000000000000e+00  -7.5580032829752328e-02 1.0355103998680119e-03 0.0000000000000000e+00 1.0355103998680119e-03 -9.2315181256139828e-02 0.0000000000000000e+00 0.0000000000000000e+00 0.0000000000000000e+00 0.0000000000000000e+00  -7.4578322279706649e-02 1.0890559616266496e-03 0.0000000000000000e+00 1.0890559616266496e-03 -9.1527990262466538e-02 0.0000000000000000e+00 0.0000000000000000e+00 0.0000000000000000e+00 0.0000000000000000e+00  -7.3525643686498082e-02 1.1252883147026436e-03 0.0000000000000000e+00 1.1252883147026436e-03 -9.0572954863368693e-02 0.0000000000000000e+00 0.0000000000000000e+00 0.0000000000000000e+00 0.0000000000000000e+00  -7.2445804515330864e-02 1.1353894063462510e-03 0.0000000000000000e+00 1.1353894063462510e-03 -8.9403010853438367e-02 0.0000000000000000e+00 0.0000000000000000e+00 0.0000000000000000e+00 0.0000000000000000e+00  -7.1372434019666156e-02 1.1081051757291123e-03 0.0000000000000000e+00 1.1081051757291123e-03 -8.7956894211340231e-02 0.0000000000000000e+00 0.0000000000000000e+00 0.0000000000000000e+00 0.0000000000000000e+00  -7.0351557894539965e-02 1.0293249349350101e-03 0.0000000000000000e+00 1.0293249349350101e-03 -8.6156745511324198e-02 0.0000000000000000e+00 0.0000000000000000e+00 0.0000000000000000e+00 0.0000000000000000e+00  -6.9444600511322105e-02 8.8164634956101927e-04 0.0000000000000000e+00 8.8164634956101927e-04 -8.3905609834697664e-02 0.0000000000000000e+00 0.0000000000000000e+00 0.0000000000000000e+00 0.0000000000000000e+00  -6.8731790989018257e-02 6.4405627341072380e-04 0.0000000000000000e+00 6.4405627341072380e-04 -8.1085012887438038e-02 0.0000000000000000e+00 0.0000000000000000e+00 0.0000000000000000e+00 0.0000000000000000e+00  -6.8315781176403689e-02 2.9196500968774636e-04 0.0000000000000000e+00 2.9196500968774636e-04 -7.7553026389481805e-02 0.0000000000000000e+00 0.0000000000000000e+00 0.0000000000000000e+00 0.0000000000000000e+00  -6.8324993704338824e-02 -2.0202857321657177e-04 0.0000000000000000e+00 -2.0202857321657177e-04 -7.3143599760714120e-02 0.0000000000000000e+00 0.0000000000000000e+00 0.0000000000000000e+00 0.0000000000000000e+00  -6.8915774182910824e-02 -8.6609601361143371e-04 0.0000000000000000e+00 -8.6609601361143371e-04 -6.7668449282925452e-02 0.0000000000000000e+00 0.0000000000000000e+00 0.0000000000000000e+00 0.0000000000000000e+00  -7.0271799132888113e-02 -1.7251433856269197e-03 0.0000000000000000e+00 -1.7251433856269197e-03 -6.0923456534413140e-02 0.0000000000000000e+00 0.0000000000000000e+00 0.0000000000000000e+00 0.0000000000000000e+00  -7.2598393554312940e-02 -2.7939419472885548e-03 0.0000000000000000e+00 -2.7939419472885548e-03 -5.2702281927688624e-02 0.0000000000000000e+00 0.0000000000000000e+00 0.0000000000000000e+00 0.0000000000000000e+00  -7.6108532951675856e-02 -4.0666661825807726e-03 0.0000000000000000e+00 -4.0666661825807726e-03 -4.2820570788624779e-02 0.0000000000000000e+00 0.0000000000000000e+00 0.0000000000000000e+00 0.0000000000000000e+00  -8.0996601246922803e-02 -5.5026168517804995e-03 0.0000000000000000e+00 -5.5026168517804995e-03 -3.1154343171614102e-02 0.0000000000000000e+00 0.0000000000000000e+00 0.0000000000000000e+00 0.0000000000000000e+00  -8.7396077498667388e-02 -7.0094088293565322e-03 0.0000000000000000e+00 -7.0094088293565322e-03 -1.7695118839711928e-02 0.0000000000000000e+00 0.0000000000000000e+00 0.0000000000000000e+00 0.0000000000000000e+00  -9.5319455990426530e-02 -8.4277741985994570e-03 0.0000000000000000e+00 -8.4277741985994570e-03 -2.6206954955861096e-03 0.0000000000000000e+00 0.0000000000000000e+00 0.0000000000000000e+00 0.0000000000000000e+00  -1.0458420088787940e-01 -9.5272474392521737e-03 0.0000000000000000e+00 -9.5272474392521737e-03 1.3627175405137266e-02 0.0000000000000000e+00 0.0000000000000000e+00 0.0000000000000000e+00 0.0000000000000000e+00  -1.1474182480395879e-01 -1.0027174131639383e-02 0.0000000000000000e+00 -1.0027174131639383e-02 3.0282461274595447e-02 0.0000000000000000e+00 0.0000000000000000e+00 0.0000000000000000e+00 0.0000000000000000e+00  -1.2504493088777388e-01 -9.6608813623684370e-03 0.0000000000000000e+00 -9.6608813623684370e-03 4.6253369760667545e-02 0.0000000000000000e+00 0.0000000000000000e+00 0.0000000000000000e+00 0.0000000000000000e+00  -1.3460994025070522e-01 -8.2871831822972086e-03 0.0000000000000000e+00 -8.2871831822972086e-03 6.0286915423177941e-02 0.0000000000000000e+00 0.0000000000000000e+00 0.0000000000000000e+00 0.0000000000000000e+00  -1.4507753728185926e-01 -6.0140908120845816e-03 0.0000000000000000e+00 -6.0140908120845816e-03 7.2288997374373665e-02 0.0000000000000000e+00 0.0000000000000000e+00 0.0000000000000000e+00 0.0000000000000000e+00  -1.9371958711334941e-01 -3.2512158738345442e-03 0.0000000000000000e+00 -3.2512158738345442e-03 8.4285859982719313e-02 0.0000000000000000e+00 0.0000000000000000e+00 0.0000000000000000e+00 0.0000000000000000e+00  -2.9672856658211505e-01 -3.6316721722698251e-04 0.0000000000000000e+00 -3.6316721722698251e-04 5.8233754924751802e-02 0.0000000000000000e+00 0.0000000000000000e+00 0.0000000000000000e+00 0.0000000000000000e+00  2.6659979146563147e-02 1.9630963721718039e-03 0.0000000000000000e+00 1.9630963721718039e-03 -1.1390284116989874e-01 0.0000000000000000e+00 0.0000000000000000e+00 0.0000000000000000e+00 0.0000000000000000e+00  -2.9178759377287750e-01 4.9130621974640071e-03 0.0000000000000000e+00 4.9130621974640071e-03 5.4158070957738516e-02 0.0000000000000000e+00 0.0000000000000000e+00 0.0000000000000000e+00 0.0000000000000000e+00  -1.8285414665421743e-01 7.1648895970049149e-03 0.0000000000000000e+00 7.1648895970049149e-03 7.4748597450469981e-02 0.0000000000000000e+00 0.0000000000000000e+00 0.0000000000000000e+00 0.0000000000000000e+00  -1.3107100592708743e-01 8.8544614227611569e-03 0.0000000000000000e+00 8.8544614227611569e-03 5.6569944703743193e-02 0.0000000000000000e+00 0.0000000000000000e+00 0.0000000000000000e+00 0.0000000000000000e+00  -1.1849732090784526e-01 9.6851304926277183e-03 0.0000000000000000e+00 9.6851304926277183e-03 4.0080785992135555e-02 0.0000000000000000e+00 0.0000000000000000e+00 0.0000000000000000e+00 0.0000000000000000e+00  -1.0830485458036179e-01 9.6635325824291091e-03 0.0000000000000000e+00 9.6635325824291091e-03 2.3423189385679145e-02 0.0000000000000000e+00 0.0000000000000000e+00 0.0000000000000000e+00 0.0000000000000000e+00  -9.8667033371730273e-02 8.9332462217368517e-03 0.0000000000000000e+00 8.9332462217368517e-03 6.6233963191514441e-03 0.0000000000000000e+00 0.0000000000000000e+00 0.0000000000000000e+00 0.0000000000000000e+00  -9.0083730214704338e-02 7.7251768227159763e-03 0.0000000000000000e+00 7.7251768227159763e-03 -9.4250656460369668e-03 0.0000000000000000e+00 0.0000000000000000e+00 0.0000000000000000e+00 0.0000000000000000e+00  -8.2900500545924752e-02 6.2807609060314051e-03 0.0000000000000000e+00 6.2807609060314051e-03 -2.4083524305502608e-02 0.0000000000000000e+00 0.0000000000000000e+00 0.0000000000000000e+00 0.0000000000000000e+00  -7.7235197930522859e-02 4.7993238568332774e-03 0.0000000000000000e+00 4.7993238568332774e-03 -3.7004553764191025e-02 0.0000000000000000e+00 0.0000000000000000e+00 0.0000000000000000e+00 0.0000000000000000e+00  -7.3035800598019091e-02 3.4180246208558875e-03 0.0000000000000000e+00 3.4180246208558875e-03 -4.8077833316693554e-02 0.0000000000000000e+00 0.0000000000000000e+00 0.0000000000000000e+00 0.0000000000000000e+00  -7.0146854647239826e-02 2.2142863680039582e-03 0.0000000000000000e+00 2.2142863680039582e-03 -5.7358089846153752e-02 0.0000000000000000e+00 0.0000000000000000e+00 0.0000000000000000e+00 0.0000000000000000e+00  -6.8364088689337327e-02 1.2189654630085113e-03 0.0000000000000000e+00 1.2189654630085113e-03 -6.4999345305814291e-02 0.0000000000000000e+00 0.0000000000000000e+00 0.0000000000000000e+00 0.0000000000000000e+00  -6.7472748678272118e-02 4.3165819937378004e-04 0.0000000000000000e+00 4.3165819937378004e-04 -7.1203954389098767e-02 0.0000000000000000e+00 0.0000000000000000e+00 0.0000000000000000e+00 0.0000000000000000e+00  -6.7270917053063428e-02 -1.6608431053976978e-04 0.0000000000000000e+00 -1.6608431053976975e-04 -7.6187590540460814e-02 0.0000000000000000e+00 0.0000000000000000e+00 0.0000000000000000e+00 0.0000000000000000e+00  -6.7581365342107222e-02 -6.0105839682623010e-04 0.0000000000000000e+00 -6.0105839682623010e-04 -8.0157718377204201e-02 0.0000000000000000e+00 0.0000000000000000e+00 0.0000000000000000e+00 0.0000000000000000e+00  -6.8255697647734384e-02 -9.0210776522594270e-04 0.0000000000000000e+00 -9.0210776522594270e-04 -8.3302046226660889e-02 0.0000000000000000e+00 0.0000000000000000e+00 0.0000000000000000e+00 0.0000000000000000e+00  -6.9173884609346079e-02 -1.0965156182579827e-03 0.0000000000000000e+00 -1.0965156182579827e-03 -8.5783665402287324e-02 0.0000000000000000e+00 0.0000000000000000e+00 0.0000000000000000e+00 0.0000000000000000e+00  -7.0241427866710532e-02 -1.2082800196160693e-03 0.0000000000000000e+00 -1.2082800196160693e-03 -8.7740259847411253e-02 0.0000000000000000e+00 0.0000000000000000e+00 0.0000000000000000e+00 0.0000000000000000e+00  -7.1385610188163723e-02 -1.2575743114367286e-03 0.0000000000000000e+00 -1.2575743114367286e-03 -8.9285524032974475e-02 0.0000000000000000e+00 0.0000000000000000e+00 0.0000000000000000e+00 0.0000000000000000e+00  -7.2551677178826018e-02 -1.2608656556257493e-03 0.0000000000000000e+00 -1.2608656556257496e-03 -9.0511581425505680e-02 0.0000000000000000e+00 0.0000000000000000e+00 0.0000000000000000e+00 0.0000000000000000e+00  -7.3699367029887206e-02 -1.2313311117839057e-03 0.0000000000000000e+00 -1.2313311117839057e-03 -9.1491698850017081e-02 0.0000000000000000e+00 0.0000000000000000e+00 0.0000000000000000e+00 0.0000000000000000e+00  -7.4799929611167479e-02 -1.1793487905428063e-03 0.0000000000000000e+00 -1.1793487905428063e-03 -9.2282942627433279e-02 0.0000000000000000e+00 0.0000000000000000e+00 0.0000000000000000e+00 0.0000000000000000e+00  -7.5833621521408157e-02 -1.1129465674157559e-03 0.0000000000000000e+00 -1.1129465674157559e-03 -9.2928641304553861e-02 0.0000000000000000e+00 0.0000000000000000e+00 0.0000000000000000e+00 0.0000000000000000e+00  -7.6787596305153624e-02 -1.0381633516831960e-03 0.0000000000000000e+00 -1.0381633516831960e-03 -9.3460635826913163e-02 0.0000000000000000e+00 0.0000000000000000e+00 0.0000000000000000e+00 0.0000000000000000e+00  -7.7654097711437303e-02 -9.5932017669171611e-04 0.0000000000000000e+00 -9.5932017669171611e-04 -9.3901342878033339e-02 0.0000000000000000e+00 0.0000000000000000e+00 0.0000000000000000e+00 0.0000000000000000e+00  -7.8428879909219873e-02 -8.7921359544962895e-04 0.0000000000000000e+00 -8.7921359544962895e-04 -9.4265662552543178e-02 0.0000000000000000e+00 0.0000000000000000e+00 0.0000000000000000e+00 0.0000000000000000e+00  -7.9109797071632904e-02 -7.9923665485880872e-04 0.0000000000000000e+00 -7.9923665485880872e-04 -9.4562755953103386e-02 0.0000000000000000e+00 0.0000000000000000e+00 0.0000000000000000e+00 0.0000000000000000e+00  -7.9695506296153185e-02 -7.1940886611421946e-04 0.0000000000000000e+00 -7.1940886611421946e-04 -9.4797723295435149e-02 0.0000000000000000e+00 0.0000000000000000e+00 0.0000000000000000e+00 0.0000000000000000e+00  -8.0184199454621116e-02 -6.3826148036100108e-04 0.0000000000000000e+00 -6.3826148036100108e-04 -9.4973240997041991e-02 0.0000000000000000e+00 0.0000000000000000e+00 0.0000000000000000e+00 0.0000000000000000e+00  -8.0572213499481321e-02 -5.5248054430156383e-04 0.0000000000000000e+00 -5.5248054430156383e-04 -9.5091269722238261e-02 0.0000000000000000e+00 0.0000000000000000e+00 0.0000000000000000e+00 0.0000000000000000e+00  -8.0852258701964802e-02 -4.5615475064937687e-04 0.0000000000000000e+00 -4.5615475064937687e-04 -9.5155019158979823e-02 0.0000000000000000e+00 0.0000000000000000e+00 0.0000000000000000e+00 0.0000000000000000e+00  -8.1010839782125366e-02 -3.3939809413258815e-04 0.0000000000000000e+00 -3.3939809413258815e-04 -9.5171437800588288e-02 0.0000000000000000e+00 0.0000000000000000e+00 0.0000000000000000e+00 0.0000000000000000e+00  -8.1024204859976079e-02 -1.8600361525611072e-04 0.0000000000000000e+00 -1.8600361525611072e-04 -9.5154567015078045e-02 0.0000000000000000e+00 0.0000000000000000e+00 0.0000000000000000e+00 0.0000000000000000e+00  -8.0851809206512526e-02 3.0374461497337152e-05 0.0000000000000000e+00 3.0374461497337152e-05 -9.5130112017780641e-02 0.0000000000000000e+00 0.0000000000000000e+00 0.0000000000000000e+00 0.0000000000000000e+00  -8.0425787730930468e-02 3.5216971465988698e-04 0.0000000000000000e+00 3.5216971465988698e-04 -9.5141420575288849e-02 0.0000000000000000e+00 0.0000000000000000e+00 0.0000000000000000e+00 0.0000000000000000e+00  -7.9634333583437564e-02 8.4650957832643433e-04 0.0000000000000000e+00 8.4650957832643433e-04 -9.5256375148415437e-02 0.0000000000000000e+00 0.0000000000000000e+00 0.0000000000000000e+00 0.0000000000000000e+00  -7.8296497748654936e-02 1.6154680234076527e-03 0.0000000000000000e+00 1.6154680234076527e-03 -9.5572561299979514e-02 0.0000000000000000e+00 0.0000000000000000e+00 0.0000000000000000e+00 0.0000000000000000e+00  -7.6127543472811102e-02 2.8002187001765944e-03 0.0000000000000000e+00 2.8002187001765944e-03 -9.6211563200077149e-02 0.0000000000000000e+00 0.0000000000000000e+00 0.0000000000000000e+00 0.0000000000000000e+00  -7.2708075136800110e-02 4.5494727495479729e-03 0.0000000000000000e+00 4.5494727495479729e-03 -9.7272008882702848e-02 0.0000000000000000e+00 0.0000000000000000e+00 0.0000000000000000e+00 0.0000000000000000e+00  -6.7589595225969315e-02 6.8664697581198317e-03 0.0000000000000000e+00 6.8664697581198317e-03 -9.8625524166423492e-02 0.0000000000000000e+00 0.0000000000000000e+00 0.0000000000000000e+00 0.0000000000000000e+00  -6.2598859747015970e-02 9.1457435806535318e-03 0.0000000000000000e+00 9.1457435806535318e-03 -9.8586844379118563e-02 0.0000000000000000e+00 0.0000000000000000e+00 0.0000000000000000e+00 0.0000000000000000e+00  -9.6606739631011518e-02 9.0284117092874032e-03 0.0000000000000000e+00 9.0284117092874032e-03 -8.4885839487039580e-02 0.0000000000000000e+00 0.0000000000000000e+00 0.0000000000000000e+00 0.0000000000000000e+00  -2.3389733198478418e-01 5.9406336659341436e-03 0.0000000000000000e+00 5.9406336659341436e-03 -1.5008993866528045e-01 0.0000000000000000e+00 0.0000000000000000e+00 0.0000000000000000e+00 0.0000000000000000e+00  3.0276703976391761e-01 1.2199909619332681e-03 0.0000000000000000e+00 1.2199909619332681e-03 -1.6954366766662218e-01 0.0000000000000000e+00 0.0000000000000000e+00 0.0000000000000000e+00 0.0000000000000000e+00  1.4777127501102982e-01 -1.8619785693075141e-03 0.0000000000000000e+00 -1.8619785693075141e-03 2.3486656029081041e-01 0.0000000000000000e+00 0.0000000000000000e+00 0.0000000000000000e+00 0.0000000000000000e+00  1.0160145577484238e-03 5.3307449372841111e-07 0.0000000000000000e+00 5.3307449372841619e-07 1.3452334615227666e-02 0.0000000000000000e+00 0.0000000000000000e+00 0.0000000000000000e+00 0.0000000000000000e+00  7.5651378105494474e-03 -1.0098988608117403e-05 0.0000000000000000e+00 -1.0098988608117403e-05 8.3320608613455770e-03 0.0000000000000000e+00 0.0000000000000000e+00 0.0000000000000000e+00 0.0000000000000000e+00  7.9392549696426142e-03 -2.4534386135679106e-07 0.0000000000000000e+00 -2.4534386135679122e-07 7.9376532418547682e-03 0.0000000000000000e+00 0.0000000000000000e+00 0.0000000000000000e+00 0.0000000000000000e+00  7.9911751898195053e-03 -7.0195917077840435e-07 0.0000000000000000e+00 -7.0195917077840467e-07 7.9735405355210072e-03 0.0000000000000000e+00 0.0000000000000000e+00 0.0000000000000000e+00 0.0000000000000000e+00  8.0168599067601317e-03 -2.8551525009889333e-06 0.0000000000000000e+00 -2.8551525009889333e-06 7.9973968006329509e-03 0.0000000000000000e+00 0.0000000000000000e+00 0.0000000000000000e+00 0.0000000000000000e+00  7.9645124804235516e-03 8.0706833757244487e-07 0.0000000000000000e+00 8.0706833757244487e-07 7.9617231012073606e-03 0.0000000000000000e+00 0.0000000000000000e+00 0.0000000000000000e+00 0.0000000000000000e+00  7.5524667719342204e-03 1.5819202491284819e-06 0.0000000000000000e+00 1.5819202491284819e-06 8.3658445577403390e-03 0.0000000000000000e+00 0.0000000000000000e+00 0.0000000000000000e+00 0.0000000000000000e+00  9.4678696261679587e-04 7.9300151784973313e-06 0.0000000000000000e+00 7.9300151784973313e-06 1.3737101328043812e-02 0.0000000000000000e+00 0.0000000000000000e+00 0.0000000000000000e+00 0.0000000000000000e+00  1.5496668436388331e-01 3.6949097058797402e-05 0.0000000000000000e+00 3.6949097058797402e-05 2.3508149967155578e-01 0.0000000000000000e+00 0.0000000000000000e+00 0.0000000000000000e+00 0.0000000000000000e+00  2.9004244771651089e-01 1.7318439222595824e-05 0.0000000000000000e+00 1.7318439222595824e-05 -1.6951887345805033e-01 0.0000000000000000e+00 0.0000000000000000e+00 0.0000000000000000e+00 0.0000000000000000e+00  -2.3114889712799672e-01 -1.0287330036336637e-05 0.0000000000000000e+00 -1.0287330036336637e-05 -1.4605795436472402e-01 0.0000000000000000e+00 0.0000000000000000e+00 0.0000000000000000e+00 0.0000000000000000e+00  -9.1673414828823935e-02 -2.9747105046407027e-05 0.0000000000000000e+00 -2.9747105046407027e-05 -8.4346601616626063e-02 0.0000000000000000e+00 0.0000000000000000e+00 0.0000000000000000e+00 0.0000000000000000e+00  -5.8920338370398395e-02 -2.9210840664584891e-05 0.0000000000000000e+00 -2.9210840664584891e-05 -9.9689368933508313e-02 0.0000000000000000e+00 0.0000000000000000e+00 0.0000000000000000e+00 0.0000000000000000e+00  -6.4769714742643397e-02 -1.3548476076756747e-05 0.0000000000000000e+00 -1.3548476076756747e-05 -1.0005826104135301e-01 0.0000000000000000e+00 0.0000000000000000e+00 0.0000000000000000e+00 0.0000000000000000e+00  -7.0761738392545542e-02 2.5979590200264413e-06 0.0000000000000000e+00 2.5979590200264413e-06 -9.8506160090983952e-02 0.0000000000000000e+00 0.0000000000000000e+00 0.0000000000000000e+00 0.0000000000000000e+00  -7.4845868004504101e-02 1.4990341816758355e-05 0.0000000000000000e+00 1.4990341816758355e-05 -9.7141021339175210e-02 0.0000000000000000e+00 0.0000000000000000e+00 0.0000000000000000e+00 0.0000000000000000e+00  -7.7445965896677266e-02 2.3357448818008881e-05 0.0000000000000000e+00 2.3357448818008881e-05 -9.6245398426374418e-02 0.0000000000000000e+00 0.0000000000000000e+00 0.0000000000000000e+00 0.0000000000000000e+00  -7.9040657570281225e-02 2.8533179677526509e-05 0.0000000000000000e+00 2.8533179677526509e-05 -9.5743555504271563e-02 0.0000000000000000e+00 0.0000000000000000e+00 0.0000000000000000e+00 0.0000000000000000e+00  -7.9976529733266563e-02 3.1408362398404147e-05 0.0000000000000000e+00 3.1408362398404147e-05 -9.5498905185325902e-02 0.0000000000000000e+00 0.0000000000000000e+00 0.0000000000000000e+00 0.0000000000000000e+00  -8.0478825921539918e-02 3.2674341846500311e-05 0.0000000000000000e+00 3.2674341846500311e-05 -9.5394568929421900e-02 0.0000000000000000e+00 0.0000000000000000e+00 0.0000000000000000e+00 0.0000000000000000e+00  -8.0687248846398094e-02 3.2818710319628268e-05 0.0000000000000000e+00 3.2818710319628268e-05 -9.5347684534272725e-02 0.0000000000000000e+00 0.0000000000000000e+00 0.0000000000000000e+00 0.0000000000000000e+00  -8.0686429977769494e-02 3.2173373069809778e-05 0.0000000000000000e+00 3.2173373069809778e-05 -9.5304682287264963e-02 0.0000000000000000e+00 0.0000000000000000e+00 0.0000000000000000e+00 0.0000000000000000e+00  -8.0526889228115212e-02 3.0959649514875037e-05 0.0000000000000000e+00 3.0959649514875037e-05 -9.5233117311471008e-02 0.0000000000000000e+00 0.0000000000000000e+00 0.0000000000000000e+00 0.0000000000000000e+00  -8.0238398887255397e-02 2.9322277436564995e-05 0.0000000000000000e+00 2.9322277436564995e-05 -9.5114442372765409e-02 0.0000000000000000e+00 0.0000000000000000e+00 0.0000000000000000e+00 0.0000000000000000e+00  -7.9838251472980515e-02 2.7354709139474921e-05 0.0000000000000000e+00 2.7354709139474921e-05 -9.4938520823406439e-02 0.0000000000000000e+00 0.0000000000000000e+00 0.0000000000000000e+00 0.0000000000000000e+00  -7.9336352034672111e-02 2.5118599329954286e-05 0.0000000000000000e+00 2.5118599329954286e-05 -9.4699651328944756e-02 0.0000000000000000e+00 0.0000000000000000e+00 0.0000000000000000e+00 0.0000000000000000e+00  -7.8738432675260886e-02 2.2659073884743238e-05 0.0000000000000000e+00 2.2659073884743238e-05 -9.4393662900513611e-02 0.0000000000000000e+00 0.0000000000000000e+00 0.0000000000000000e+00 0.0000000000000000e+00  -7.8048225562571669e-02 2.0016339858132064e-05 0.0000000000000000e+00 2.0016339858132064e-05 -9.4015671095873748e-02 0.0000000000000000e+00 0.0000000000000000e+00 0.0000000000000000e+00 0.0000000000000000e+00  -7.7269119995903468e-02 1.7233701617689246e-05 0.0000000000000000e+00 1.7233701617689246e-05 -9.3558179786419629e-02 0.0000000000000000e+00 0.0000000000000000e+00 0.0000000000000000e+00 0.0000000000000000e+00  -7.6405624491410237e-02 1.4361932177480478e-05 0.0000000000000000e+00 1.4361932177480478e-05 -9.3009310902979314e-02 0.0000000000000000e+00 0.0000000000000000e+00 0.0000000000000000e+00 0.0000000000000000e+00  -7.5464823180285565e-02 1.1460042478900147e-05 0.0000000000000000e+00 1.1460042478900147e-05 -9.2351027508723163e-02 0.0000000000000000e+00 0.0000000000000000e+00 0.0000000000000000e+00 0.0000000000000000e+00  -7.4457937162261234e-02 8.5926818617628938e-06 0.0000000000000000e+00 8.5926818617628938e-06 -9.1557275638386740e-02 0.0000000000000000e+00 0.0000000000000000e+00 0.0000000000000000e+00 0.0000000000000000e+00  -7.3402063300996787e-02 5.8246284690486400e-06 0.0000000000000000e+00 5.8246284690486400e-06 -9.0592005876351453e-02 0.0000000000000000e+00 0.0000000000000000e+00 0.0000000000000000e+00 0.0000000000000000e+00  -7.2322153669025904e-02 3.2130609109083493e-06 0.0000000000000000e+00 3.2130609109083493e-06 -8.9407051793962466e-02 0.0000000000000000e+00 0.0000000000000000e+00 0.0000000000000000e+00 0.0000000000000000e+00  -7.1253303380249100e-02 7.9853288512049237e-07 0.0000000000000000e+00 7.9853288512049237e-07 -8.7939852577183023e-02 0.0000000000000000e+00 0.0000000000000000e+00 0.0000000000000000e+00 0.0000000000000000e+00  -7.0243412568449765e-02 -1.4042008189717927e-06 0.0000000000000000e+00 -1.4042008189717927e-06 -8.6111033036592524e-02 0.0000000000000000e+00 0.0000000000000000e+00 0.0000000000000000e+00 0.0000000000000000e+00  -6.9356254422800773e-02 -3.4141372983735644e-06 0.0000000000000000e+00 -3.4141372983735644e-06 -8.3821923472376075e-02 0.0000000000000000e+00 0.0000000000000000e+00 0.0000000000000000e+00 0.0000000000000000e+00  -6.8674886288185147e-02 -5.2891774491040486e-06 0.0000000000000000e+00 -5.2891774491040486e-06 -8.0952245456858946e-02 0.0000000000000000e+00 0.0000000000000000e+00 0.0000000000000000e+00 0.0000000000000000e+00  -6.8305153113083675e-02 -7.1267099483198659e-06 0.0000000000000000e+00 -7.1267099483198659e-06 -7.7358438050044373e-02 0.0000000000000000e+00 0.0000000000000000e+00 0.0000000000000000e+00 0.0000000000000000e+00  -6.8378719030990645e-02 -9.0577270645546309e-06 0.0000000000000000e+00 -9.0577270645546309e-06 -7.2873478309777542e-02 0.0000000000000000e+00 0.0000000000000000e+00 0.0000000000000000e+00 0.0000000000000000e+00  -6.9054593522986735e-02 -1.1232570506224707e-05 0.0000000000000000e+00 -1.1232570506224707e-05 -6.7309573764197828e-02 0.0000000000000000e+00 0.0000000000000000e+00 0.0000000000000000e+00 0.0000000000000000e+00  -7.0517477819249011e-02 -1.3796721230329924e-05 0.0000000000000000e+00 -1.3796721230329924e-05 -6.0465756847332318e-02 0.0000000000000000e+00 0.0000000000000000e+00 0.0000000000000000e+00 0.0000000000000000e+00  -7.2970476158122383e-02 -1.6856070391017165e-05 0.0000000000000000e+00 -1.6856070391017165e-05 -5.2143107228700795e-02 0.0000000000000000e+00 0.0000000000000000e+00 0.0000000000000000e+00 0.0000000000000000e+00  -7.6618931405190840e-02 -2.0433516544092302e-05 0.0000000000000000e+00 -2.0433516544092302e-05 -4.2170848856155012e-02 0.0000000000000000e+00 0.0000000000000000e+00 0.0000000000000000e+00 0.0000000000000000e+00  -8.1641715587054769e-02 -2.4423513596831344e-05 0.0000000000000000e+00 -2.4423513596831344e-05 -3.0446439282583754e-02 0.0000000000000000e+00 0.0000000000000000e+00 0.0000000000000000e+00 0.0000000000000000e+00  -8.8146970030245936e-02 -2.8559082138563921e-05 0.0000000000000000e+00 -2.8559082138563921e-05 -1.6991130976579547e-02 0.0000000000000000e+00 0.0000000000000000e+00 0.0000000000000000e+00 0.0000000000000000e+00  -9.6112207371362723e-02 -3.2416194515643043e-05 0.0000000000000000e+00 -3.2416194515643043e-05 -2.0180831534180842e-03 0.0000000000000000e+00 0.0000000000000000e+00 0.0000000000000000e+00 0.0000000000000000e+00  -1.0531587113218985e-01 -3.5486749883037839e-05 0.0000000000000000e+00 -3.5486749883037839e-05 1.3998940587190738e-02 0.0000000000000000e+00 0.0000000000000000e+00 0.0000000000000000e+00 0.0000000000000000e+00  -1.1527889913239178e-01 -3.7343310010972437e-05 0.0000000000000000e+00 -3.7343310010972437e-05 3.0281397679092485e-02 0.0000000000000000e+00 0.0000000000000000e+00 0.0000000000000000e+00 0.0000000000000000e+00  -1.2525613217348811e-01 -3.7865291441190094e-05 0.0000000000000000e+00 -3.7865291441190094e-05 4.5770761697611358e-02 0.0000000000000000e+00 0.0000000000000000e+00 0.0000000000000000e+00 0.0000000000000000e+00  -1.3441594313670607e-01 -3.7418577965851793e-05 0.0000000000000000e+00 -3.7418577965851793e-05 5.9307218107065095e-02 0.0000000000000000e+00 0.0000000000000000e+00 0.0000000000000000e+00 0.0000000000000000e+00  -1.4450790012321998e-01 -3.6796840612057377e-05 0.0000000000000000e+00 -3.6796840612057377e-05 7.0943159183425308e-02 0.0000000000000000e+00 0.0000000000000000e+00 0.0000000000000000e+00 0.0000000000000000e+00  -1.9289189632037668e-01 -3.6778846970398682e-05 0.0000000000000000e+00 -3.6778846970398682e-05 8.2836266561353900e-02 0.0000000000000000e+00 0.0000000000000000e+00 0.0000000000000000e+00 0.0000000000000000e+00  -2.9596778406716956e-01 -3.6827214345624812e-05 0.0000000000000000e+00 -3.6827214345624812e-05 5.6825147169841904e-02 0.0000000000000000e+00 0.0000000000000000e+00 0.0000000000000000e+00 0.0000000000000000e+00  2.7317104137822096e-02 -3.6968284503111217e-05 0.0000000000000000e+00 -3.6968284503111217e-05 -1.1525644585241858e-01 0.0000000000000000e+00 0.0000000000000000e+00 0.0000000000000000e+00 0.0000000000000000e+00  -2.9130966765709793e-01 -3.0227747982459238e-05 0.0000000000000000e+00 -3.0227747982459238e-05 5.2857242073486611e-02 0.0000000000000000e+00 0.0000000000000000e+00 0.0000000000000000e+00 0.0000000000000000e+00  -1.8270557618197772e-01 -1.9457238209589285e-05 0.0000000000000000e+00 -1.9457238209589285e-05 7.3665535532885559e-02 0.0000000000000000e+00 0.0000000000000000e+00 0.0000000000000000e+00 0.0000000000000000e+00  -1.3117462680517386e-01 -5.2054182829307446e-06 0.0000000000000000e+00 -5.2054182829307446e-06 5.5884454100979399e-02 0.0000000000000000e+00 0.0000000000000000e+00 0.0000000000000000e+00 0.0000000000000000e+00  -1.1888335764636669e-01 9.6118945532514386e-06 0.0000000000000000e+00 9.6118945532514386e-06 3.9826651397616514e-02 0.0000000000000000e+00 0.0000000000000000e+00 0.0000000000000000e+00 0.0000000000000000e+00  -1.0891422597430712e-01 2.2377780344353350e-05 0.0000000000000000e+00 2.2377780344353350e-05 2.3567578204475959e-02 0.0000000000000000e+00 0.0000000000000000e+00 0.0000000000000000e+00 0.0000000000000000e+00  -9.9400670487552481e-02 3.1215710181346224e-05 0.0000000000000000e+00 3.1215710181346224e-05 7.0709432102658877e-03 0.0000000000000000e+00 0.0000000000000000e+00 0.0000000000000000e+00 0.0000000000000000e+00  -9.0837565954114255e-02 3.5419838542025680e-05 0.0000000000000000e+00 3.5419838542025680e-05 -8.7958091266797708e-03 0.0000000000000000e+00 0.0000000000000000e+00 0.0000000000000000e+00 0.0000000000000000e+00  -8.3592663097234926e-02 3.5277452325124216e-05 0.0000000000000000e+00 3.5277452325124216e-05 -2.3384015967112901e-02 0.0000000000000000e+00 0.0000000000000000e+00 0.0000000000000000e+00 0.0000000000000000e+00  -7.7815028149160276e-02 3.1647681801829360e-05 0.0000000000000000e+00 3.1647681801829360e-05 -3.6319167006717647e-02 0.0000000000000000e+00 0.0000000000000000e+00 0.0000000000000000e+00 0.0000000000000000e+00  -7.3482064347097517e-02 2.5565936483810505e-05 0.0000000000000000e+00 2.5565936483810505e-05 -4.7459811090430709e-02 0.0000000000000000e+00 0.0000000000000000e+00 0.0000000000000000e+00 0.0000000000000000e+00  -7.0460110803744688e-02 1.7985420321808251e-05 0.0000000000000000e+00 1.7985420321808251e-05 -5.6834028723916442e-02 0.0000000000000000e+00 0.0000000000000000e+00 0.0000000000000000e+00 0.0000000000000000e+00  -6.8558226615339904e-02 9.6589593399881048e-06 0.0000000000000000e+00 9.6589593399881048e-06 -6.4576544585593171e-02 0.0000000000000000e+00 0.0000000000000000e+00 0.0000000000000000e+00 0.0000000000000000e+00  -6.7567964409062528e-02 1.1162502587099019e-06 0.0000000000000000e+00 1.1162502587099019e-06 -7.0877613294492187e-02 0.0000000000000000e+00 0.0000000000000000e+00 0.0000000000000000e+00 0.0000000000000000e+00  -6.7288834328245936e-02 -7.3077243791567985e-06 0.0000000000000000e+00 -7.3077243791567985e-06 -7.5946508068257965e-02 0.0000000000000000e+00 0.0000000000000000e+00 0.0000000000000000e+00 0.0000000000000000e+00  -6.7542132260093993e-02 -1.5424991208517063e-05 0.0000000000000000e+00 -1.5424991208517063e-05 -7.9988233081163443e-02 0.0000000000000000e+00 0.0000000000000000e+00 0.0000000000000000e+00 0.0000000000000000e+00  -6.8176572274509226e-02 -2.3145428883220069e-05 0.0000000000000000e+00 -2.3145428883220069e-05 -8.3190454734796054e-02 0.0000000000000000e+00 0.0000000000000000e+00 0.0000000000000000e+00 0.0000000000000000e+00  -6.9068804244465209e-02 -3.0434515349940142e-05 0.0000000000000000e+00 -3.0434515349940142e-05 -8.5717509648692111e-02 0.0000000000000000e+00 0.0000000000000000e+00 0.0000000000000000e+00 0.0000000000000000e+00  -7.0121149532355959e-02 -3.7280829655053299e-05 0.0000000000000000e+00 -3.7280829655053299e-05 -8.7708861781327516e-02 0.0000000000000000e+00 0.0000000000000000e+00 0.0000000000000000e+00 0.0000000000000000e+00  -7.1258128330105044e-02 -4.3673450902397207e-05 0.0000000000000000e+00 -4.3673450902397187e-05 -8.9280071711047002e-02 0.0000000000000000e+00 0.0000000000000000e+00 0.0000000000000000e+00 0.0000000000000000e+00  -7.2422728405408948e-02 -4.9588226640848829e-05 0.0000000000000000e+00 -4.9588226640848809e-05 -9.0524985174857769e-02 0.0000000000000000e+00 0.0000000000000000e+00 0.0000000000000000e+00 0.0000000000000000e+00  -7.3572911566815544e-02 -5.4981454698529033e-05 0.0000000000000000e+00 -5.4981454698529033e-05 -9.1518360345078431e-02 0.0000000000000000e+00 0.0000000000000000e+00 0.0000000000000000e+00 0.0000000000000000e+00  -7.4678555830151455e-02 -5.9789404043476485e-05 0.0000000000000000e+00 -5.9789404043476485e-05 -9.2318519491700779e-02 0.0000000000000000e+00 0.0000000000000000e+00 0.0000000000000000e+00 0.0000000000000000e+00  -7.5718857255171051e-02 -6.3932094332656036e-05 0.0000000000000000e+00 -6.3932094332656036e-05 -9.2969845916973659e-02 0.0000000000000000e+00 0.0000000000000000e+00 0.0000000000000000e+00 0.0000000000000000e+00  -7.6680132119232358e-02 -6.7319783890547278e-05 0.0000000000000000e+00 -6.7319783890547278e-05 -9.3505078657363613e-02 0.0000000000000000e+00 0.0000000000000000e+00 0.0000000000000000e+00 0.0000000000000000e+00  -7.7553935470514548e-02 -6.9860661335697372e-05 0.0000000000000000e+00 -6.9860661335697372e-05 -9.3947416656746885e-02 0.0000000000000000e+00 0.0000000000000000e+00 0.0000000000000000e+00 0.0000000000000000e+00  -7.8335417045316796e-02 -7.1468304335697147e-05 0.0000000000000000e+00 -7.1468304335697147e-05 -9.4312462003613082e-02 0.0000000000000000e+00 0.0000000000000000e+00 0.0000000000000000e+00 0.0000000000000000e+00  -7.9021844972745031e-02 -7.2067585145619512e-05 0.0000000000000000e+00 -7.2067585145619512e-05 -9.4610036041341092e-02 0.0000000000000000e+00 0.0000000000000000e+00 0.0000000000000000e+00 0.0000000000000000e+00  -7.9611221677163516e-02 -7.1597903897557428e-05 0.0000000000000000e+00 -7.1597903897557428e-05 -9.4845914008440155e-02 0.0000000000000000e+00 0.0000000000000000e+00 0.0000000000000000e+00 0.0000000000000000e+00  -8.0100880220700860e-02 -7.0012955817195350e-05 0.0000000000000000e+00 -7.0012955817195350e-05 -9.5023556456669919e-02 0.0000000000000000e+00 0.0000000000000000e+00 0.0000000000000000e+00 0.0000000000000000e+00  -8.0485871687699162e-02 -6.7276712573597781e-05 0.0000000000000000e+00 -6.7276712573597781e-05 -9.5145973874701695e-02 0.0000000000000000e+00 0.0000000000000000e+00 0.0000000000000000e+00 0.0000000000000000e+00  -8.0756822790161470e-02 -6.3355907936426081e-05 0.0000000000000000e+00 -6.3355907936426081e-05 -9.5217942714808074e-02 0.0000000000000000e+00 0.0000000000000000e+00 0.0000000000000000e+00 0.0000000000000000e+00  -8.0896737852338113e-02 -5.8209976309089994e-05 0.0000000000000000e+00 -5.8209976309089994e-05 -9.5248888370120952e-02 0.0000000000000000e+00 0.0000000000000000e+00 0.0000000000000000e+00 0.0000000000000000e+00  -8.0875907512586165e-02 -5.1779894182354700e-05 0.0000000000000000e+00 -5.1779894182354700e-05 -9.5256843789294235e-02 0.0000000000000000e+00 0.0000000000000000e+00 0.0000000000000000e+00 0.0000000000000000e+00  -8.0643622970072409e-02 -4.3977401709350811e-05 0.0000000000000000e+00 -4.3977401709350818e-05 -9.5273924341748667e-02 0.0000000000000000e+00 0.0000000000000000e+00 0.0000000000000000e+00 0.0000000000000000e+00  -8.0114768465302771e-02 -3.4675434342778855e-05 0.0000000000000000e+00 -3.4675434342778855e-05 -9.5353545472417950e-02 0.0000000000000000e+00 0.0000000000000000e+00 0.0000000000000000e+00 0.0000000000000000e+00  -7.9148780025188561e-02 -2.3700136478706347e-05 0.0000000000000000e+00 -2.3700136478706347e-05 -9.5578578984656978e-02 0.0000000000000000e+00 0.0000000000000000e+00 0.0000000000000000e+00 0.0000000000000000e+00  -7.7519035253985513e-02 -1.0829164528840815e-05 0.0000000000000000e+00 -1.0829164528840815e-05 -9.6066051588640566e-02 0.0000000000000000e+00 0.0000000000000000e+00 0.0000000000000000e+00 0.0000000000000000e+00  -7.4876818166740813e-02 4.1738996544224973e-06 0.0000000000000000e+00 4.1738996544224973e-06 -9.6952765822966178e-02 0.0000000000000000e+00 0.0000000000000000e+00 0.0000000000000000e+00 0.0000000000000000e+00  -7.0740265270476416e-02 2.1376999654107261e-05 0.0000000000000000e+00 2.1376999654107261e-05 -9.8314519578306878e-02 0.0000000000000000e+00 0.0000000000000000e+00 0.0000000000000000e+00 0.0000000000000000e+00  -6.4681085484326800e-02 4.0039530789273409e-05 0.0000000000000000e+00 4.0039530789273409e-05 -9.9867821012221622e-02 0.0000000000000000e+00 0.0000000000000000e+00 0.0000000000000000e+00 0.0000000000000000e+00  -5.8755276484395345e-02 5.6991197526447974e-05 0.0000000000000000e+00 5.6991197526447974e-05 -9.9495630948263150e-02 0.0000000000000000e+00 0.0000000000000000e+00 0.0000000000000000e+00 0.0000000000000000e+00  -9.1598803984619448e-02 6.4029650317210448e-05 0.0000000000000000e+00 6.4029650317210448e-05 -8.4132522340009064e-02 0.0000000000000000e+00 0.0000000000000000e+00 0.0000000000000000e+00 0.0000000000000000e+00  -2.3100483125886601e-01 5.3920849923846667e-05 0.0000000000000000e+00 5.3920849923846667e-05 -1.4592905060488032e-01 0.0000000000000000e+00 0.0000000000000000e+00 0.0000000000000000e+00 0.0000000000000000e+00  2.9195520768419253e-01 1.7023157697780100e-05 0.0000000000000000e+00 1.7023157697780100e-05 -1.6906837322257562e-01 0.0000000000000000e+00 0.0000000000000000e+00 0.0000000000000000e+00 0.0000000000000000e+00  1.5382896705191457e-01 -8.2959525445426115e-06 0.0000000000000000e+00 -8.2959525445426115e-06 2.3508640694002028e-01 0.0000000000000000e+00 0.0000000000000000e+00 0.0000000000000000e+00 0.0000000000000000e+00  9.1286468951810266e-04 -2.1058418387318765e-05 0.0000000000000000e+00 -2.1058418387318765e-05 1.3648368846115536e-02 0.0000000000000000e+00 0.0000000000000000e+00 0.0000000000000000e+00 0.0000000000000000e+00  7.5280753498892733e-03 -1.3429096965538339e-05 0.0000000000000000e+00 -1.3429096965538334e-05 8.3383645390071818e-03 0.0000000000000000e+00 0.0000000000000000e+00 0.0000000000000000e+00 0.0000000000000000e+00  7.9334188313220401e-03 1.4248141528212035e-06 0.0000000000000000e+00 1.4248141528212035e-06 7.9337819821941619e-03 0.0000000000000000e+00 0.0000000000000000e+00 0.0000000000000000e+00 0.0000000000000000e+00  7.9875074409666152e-03 9.5409406566741557e-06 0.0000000000000000e+00 9.5409406566741557e-06 7.9691747515980172e-03 0.0000000000000000e+00 0.0000000000000000e+00 0.0000000000000000e+00 0.0000000000000000e+00  8.0076342575253097e-03 -1.3433600001190015e-05 0.0000000000000000e+00 -1.3433600001190015e-05 7.9893236995072798e-03 0.0000000000000000e+00 0.0000000000000000e+00 0.0000000000000000e+00 0.0000000000000000e+00  7.9581687838540700e-03 -1.2729714136952043e-06 0.0000000000000000e+00 -1.2729714136952043e-06 7.9535164085192869e-03 0.0000000000000000e+00 0.0000000000000000e+00 0.0000000000000000e+00 0.0000000000000000e+00  7.5749969552699019e-03 4.7119713153536898e-06 0.0000000000000000e+00 4.7119713153536906e-06 8.3428014972703763e-03 0.0000000000000000e+00 0.0000000000000000e+00 0.0000000000000000e+00 0.0000000000000000e+00  1.0581875814961463e-03 3.1167967460803826e-05 0.0000000000000000e+00 3.1167967460803826e-05 1.3532713721308593e-02 0.0000000000000000e+00 0.0000000000000000e+00 0.0000000000000000e+00 0.0000000000000000e+00  1.4897433979550923e-01 -1.9021074013909451e-03 0.0000000000000000e+00 -1.9021074013909451e-03 2.3501056053965233e-01 0.0000000000000000e+00 0.0000000000000000e+00 0.0000000000000000e+00 0.0000000000000000e+00  3.0092857544121721e-01 1.1406086979021243e-03 0.0000000000000000e+00 1.1406086979021243e-03 -1.7000022597178727e-01 0.0000000000000000e+00 0.0000000000000000e+00 0.0000000000000000e+00 0.0000000000000000e+00  -2.3394357556371476e-01 5.6827430787465038e-03 0.0000000000000000e+00 5.6827430787465038e-03 -1.5017068588157373e-01 0.0000000000000000e+00 0.0000000000000000e+00 0.0000000000000000e+00 0.0000000000000000e+00  -9.6551773408861119e-02 8.7994106014273512e-03 0.0000000000000000e+00 8.7994106014273512e-03 -8.5108960367269601e-02 0.0000000000000000e+00 0.0000000000000000e+00 0.0000000000000000e+00 0.0000000000000000e+00  -6.2666403600953782e-02 8.9714427572323494e-03 0.0000000000000000e+00 8.9714427572323494e-03 -9.8823818406147429e-02 0.0000000000000000e+00 0.0000000000000000e+00 0.0000000000000000e+00 0.0000000000000000e+00  -6.7614082795630415e-02 6.7510195548143304e-03 0.0000000000000000e+00 6.7510195548143304e-03 -9.8861002789482968e-02 0.0000000000000000e+00 0.0000000000000000e+00 0.0000000000000000e+00 0.0000000000000000e+00  -7.2691965237941789e-02 4.4833200799541230e-03 0.0000000000000000e+00 4.4833200799541230e-03 -9.7501285110801444e-02 0.0000000000000000e+00 0.0000000000000000e+00 0.0000000000000000e+00 0.0000000000000000e+00  -7.6077531319425296e-02 2.7721927644410510e-03 0.0000000000000000e+00 2.7721927644410510e-03 -9.6428936496862405e-02 0.0000000000000000e+00 0.0000000000000000e+00 0.0000000000000000e+00 0.0000000000000000e+00  -7.8216392358934822e-02 1.6163489968279625e-03 0.0000000000000000e+00 1.6163489968279625e-03 -9.5773872655808376e-02 0.0000000000000000e+00 0.0000000000000000e+00 0.0000000000000000e+00 0.0000000000000000e+00  -7.9526743643145145e-02 8.6931469012147596e-04 0.0000000000000000e+00 8.6931469012147596e-04 -9.5437800744066936e-02 0.0000000000000000e+00 0.0000000000000000e+00 0.0000000000000000e+00 0.0000000000000000e+00  -8.0292784343741680e-02 3.9168837383042713e-04 0.0000000000000000e+00 3.9168837383042713e-04 -9.5299047675006354e-02 0.0000000000000000e+00 0.0000000000000000e+00 0.0000000000000000e+00 0.0000000000000000e+00  -8.0695143862553137e-02 8.2691645074694695e-05 0.0000000000000000e+00 8.2691645074694695e-05 -9.5259826044102394e-02 0.0000000000000000e+00 0.0000000000000000e+00 0.0000000000000000e+00 0.0000000000000000e+00  -8.0845437574965873e-02 -1.2386512896098826e-04 0.0000000000000000e+00 -1.2386512896098826e-04 -9.5251986063900104e-02 0.0000000000000000e+00 0.0000000000000000e+00 0.0000000000000000e+00 0.0000000000000000e+00  -8.0811468421951388e-02 -2.6973041170699362e-04 0.0000000000000000e+00 -2.6973041170699362e-04 -9.5231823658539966e-02 0.0000000000000000e+00 0.0000000000000000e+00 0.0000000000000000e+00 0.0000000000000000e+00  -8.0633859758891771e-02 -3.8073999723711120e-04 0.0000000000000000e+00 -3.8073999723711120e-04 -9.5173161618464758e-02 0.0000000000000000e+00 0.0000000000000000e+00 0.0000000000000000e+00 0.0000000000000000e+00  -8.0336593252515215e-02 -4.7270653949869061e-04 0.0000000000000000e+00 -4.7270653949869061e-04 -9.5061349901009604e-02 0.0000000000000000e+00 0.0000000000000000e+00 0.0000000000000000e+00 0.0000000000000000e+00  -7.9933557963982382e-02 -5.5518781047662717e-04 0.0000000000000000e+00 -5.5518781047662717e-04 -9.4888675374265596e-02 0.0000000000000000e+00 0.0000000000000000e+00 0.0000000000000000e+00 0.0000000000000000e+00  -7.9432621056499036e-02 -6.3378956760825060e-04 0.0000000000000000e+00 -6.3378956760825060e-04 -9.4650985494175346e-02 0.0000000000000000e+00 0.0000000000000000e+00 0.0000000000000000e+00 0.0000000000000000e+00  -7.8838235881840302e-02 -7.1150507225461752e-04 0.0000000000000000e+00 -7.1150507225461752e-04 -9.4345170625490152e-02 0.0000000000000000e+00 0.0000000000000000e+00 0.0000000000000000e+00 0.0000000000000000e+00  -7.8153254021285062e-02 -7.8943550589045529e-04 0.0000000000000000e+00 -7.8943550589045529e-04 -9.3967164766692063e-02 0.0000000000000000e+00 0.0000000000000000e+00 0.0000000000000000e+00 0.0000000000000000e+00  -7.7380367233600936e-02 -8.6712192727715761e-04 0.0000000000000000e+00 -8.6712192727715761e-04 -9.3510196584955657e-02 0.0000000000000000e+00 0.0000000000000000e+00 0.0000000000000000e+00 0.0000000000000000e+00  -7.6523440410672369e-02 -9.4264215414992269e-04 0.0000000000000000e+00 -9.4264215414992269e-04 -9.2963106066756632e-02 0.0000000000000000e+00 0.0000000000000000e+00 0.0000000000000000e+00 0.0000000000000000e+00  -7.5588886110786055e-02 -1.0125702842968764e-03 0.0000000000000000e+00 -1.0125702842968764e-03 -9.2308616987377537e-02 0.0000000000000000e+00 0.0000000000000000e+00 0.0000000000000000e+00 0.0000000000000000e+00  -7.4587164188028257e-02 -1.0718528165194136e-03 0.0000000000000000e+00 -1.0718528165194136e-03 -9.1521510583398982e-02 0.0000000000000000e+00 0.0000000000000000e+00 0.0000000000000000e+00 0.0000000000000000e+00  -7.3534459829425386e-02 -1.1136207233646937e-03 0.0000000000000000e+00 -1.1136207233646937e-03 -9.0566676354659426e-02 0.0000000000000000e+00 0.0000000000000000e+00 0.0000000000000000e+00 0.0000000000000000e+00  -7.2454591811304397e-02 -1.1289339535942465e-03 0.0000000000000000e+00 -1.1289339535942465e-03 -8.9397024916395978e-02 0.0000000000000000e+00 0.0000000000000000e+00 0.0000000000000000e+00 0.0000000000000000e+00  -7.1381216607343076e-02 -1.1064491028806476e-03 0.0000000000000000e+00 -1.1064491028806476e-03 -8.7951247966768425e-02 0.0000000000000000e+00 0.0000000000000000e+00 0.0000000000000000e+00 0.0000000000000000e+00  -7.0360403329302934e-02 -1.0320181175144311e-03 0.0000000000000000e+00 -1.0320181175144311e-03 -8.6151423635894023e-02 0.0000000000000000e+00 0.0000000000000000e+00 0.0000000000000000e+00 0.0000000000000000e+00  -6.9453634127391126e-02 -8.8827038338214355e-04 0.0000000000000000e+00 -8.8827038338214355e-04 -8.3900520305541709e-02 0.0000000000000000e+00 0.0000000000000000e+00 0.0000000000000000e+00 0.0000000000000000e+00  -6.8741205816292783e-02 -6.5430534320692153e-04 0.0000000000000000e+00 -6.5430534320692153e-04 -8.1079980013634770e-02 0.0000000000000000e+00 0.0000000000000000e+00 0.0000000000000000e+00 0.0000000000000000e+00  -6.8325840206902785e-02 -3.0572973361054696e-04 0.0000000000000000e+00 -3.0572973361054696e-04 -7.7547794848756152e-02 0.0000000000000000e+00 0.0000000000000000e+00 0.0000000000000000e+00 0.0000000000000000e+00  -6.8336020603627909e-02 1.8458690014425914e-04 0.0000000000000000e+00 1.8458690014425914e-04 -7.3137853543189413e-02 0.0000000000000000e+00 0.0000000000000000e+00 0.0000000000000000e+00 0.0000000000000000e+00  -6.8928127836966377e-02 8.4449723618971496e-04 0.0000000000000000e+00 8.4449723618971496e-04 -6.7661849251330369e-02 0.0000000000000000e+00 0.0000000000000000e+00 0.0000000000000000e+00 0.0000000000000000e+00  -7.0285827059016787e-02 1.6985863706696326e-03 0.0000000000000000e+00 1.6985863706696326e-03 -6.0915699241869944e-02 0.0000000000000000e+00 0.0000000000000000e+00 0.0000000000000000e+00 0.0000000000000000e+00  -7.2614360066299732e-02 2.7613706863587519e-03 0.0000000000000000e+00 2.7613706863587519e-03 -5.2693179399733302e-02 0.0000000000000000e+00 0.0000000000000000e+00 0.0000000000000000e+00 0.0000000000000000e+00  -7.6126521754541432e-02 4.0269247047666160e-03 0.0000000000000000e+00 4.0269247047666160e-03 -4.2810144530800495e-02 0.0000000000000000e+00 0.0000000000000000e+00 0.0000000000000000e+00 0.0000000000000000e+00  -8.1016401594511608e-02 5.4547039701902424e-03 0.0000000000000000e+00 5.4547039701902424e-03 -3.1142913634252610e-02 0.0000000000000000e+00 0.0000000000000000e+00 0.0000000000000000e+00 0.0000000000000000e+00  -8.7417080813507894e-02 6.9528191604457563e-03 0.0000000000000000e+00 6.9528191604457563e-03 -1.7683352707031669e-02 0.0000000000000000e+00 0.0000000000000000e+00 0.0000000000000000e+00 0.0000000000000000e+00  -9.5340616659405797e-02 8.3628646944628755e-03 0.0000000000000000e+00 8.3628646944628755e-03 -2.6095508243783841e-03 0.0000000000000000e+00 0.0000000000000000e+00 0.0000000000000000e+00 0.0000000000000000e+00  -1.0460413521647210e-01 9.4554955408710627e-03 0.0000000000000000e+00 9.4554955408710627e-03 1.3636673336991230e-02 0.0000000000000000e+00 0.0000000000000000e+00 0.0000000000000000e+00 0.0000000000000000e+00  -1.1475911620550341e-01 9.9511252323899128e-03 0.0000000000000000e+00 9.9511252323899128e-03 3.0289640595001995e-02 0.0000000000000000e+00 0.0000000000000000e+00 0.0000000000000000e+00 0.0000000000000000e+00  -1.2505862555090061e-01 9.5835713930175273e-03 0.0000000000000000e+00 9.5835713930175273e-03 4.6258435701464026e-02 0.0000000000000000e+00 0.0000000000000000e+00 0.0000000000000000e+00 0.0000000000000000e+00  -1.3461992295443878e-01 8.2110555257592730e-03 0.0000000000000000e+00 8.2110555257592730e-03 6.0291144900613942e-02 0.0000000000000000e+00 0.0000000000000000e+00 0.0000000000000000e+00 0.0000000000000000e+00  -1.4508474778266947e-01 5.9398709107446740e-03 0.0000000000000000e+00 5.9398709107446740e-03 7.2294409650269856e-02 0.0000000000000000e+00 0.0000000000000000e+00 0.0000000000000000e+00 0.0000000000000000e+00  -1.9372493669381979e-01 3.1774719341276488e-03 0.0000000000000000e+00 3.1774719341276488e-03 8.4293765335450924e-02 0.0000000000000000e+00 0.0000000000000000e+00 0.0000000000000000e+00 0.0000000000000000e+00  -2.9673504858542143e-01 2.8936967610354504e-04 0.0000000000000000e+00 2.8936967610354504e-04 5.8241323907246734e-02 0.0000000000000000e+00 0.0000000000000000e+00 0.0000000000000000e+00 0.0000000000000000e+00  2.6656206542081774e-02 -2.0384877939456990e-03 0.0000000000000000e+00 -2.0384877939456990e-03 -1.1390055156940168e-01 0.0000000000000000e+00 0.0000000000000000e+00 0.0000000000000000e+00 0.0000000000000000e+00  -2.9179179890103135e-01 -4.9748350820199797e-03 0.0000000000000000e+00 -4.9748350820199797e-03 5.4147309126027131e-02 0.0000000000000000e+00 0.0000000000000000e+00 0.0000000000000000e+00 0.0000000000000000e+00  -1.8285900665855445e-01 -7.2042336023751619e-03 0.0000000000000000e+00 -7.2042336023751619e-03 7.4727225865688585e-02 0.0000000000000000e+00 0.0000000000000000e+00 0.0000000000000000e+00 0.0000000000000000e+00  -1.3107771902626120e-01 -8.8636363510027696e-03 0.0000000000000000e+00 -8.8636363510027696e-03 5.6543197556963964e-02 0.0000000000000000e+00 0.0000000000000000e+00 0.0000000000000000e+00 0.0000000000000000e+00  -1.1850923044574538e-01 -9.6632386045791985e-03 0.0000000000000000e+00 -9.6632386045791985e-03 4.0054728606685734e-02 0.0000000000000000e+00 0.0000000000000000e+00 0.0000000000000000e+00 0.0000000000000000e+00  -1.0832369354754876e-01 -9.6155366836702619e-03 0.0000000000000000e+00 -9.6155366836702619e-03 2.3403105530726963e-02 0.0000000000000000e+00 0.0000000000000000e+00 0.0000000000000000e+00 0.0000000000000000e+00  -9.8692669049259246e-02 -8.8679081722538595e-03 0.0000000000000000e+00 -8.8679081722538595e-03 6.6120566678741170e-03 0.0000000000000000e+00 0.0000000000000000e+00 0.0000000000000000e+00 0.0000000000000000e+00  -9.0114610583181445e-02 -7.6523401296032349e-03 0.0000000000000000e+00 -7.6523401296032349e-03 -9.4273396051189375e-03 0.0000000000000000e+00 0.0000000000000000e+00 0.0000000000000000e+00 0.0000000000000000e+00  -8.2934421511709835e-02 -6.2092861955644384e-03 0.0000000000000000e+00 -6.2092861955644384e-03 -2.4078050191861967e-02 0.0000000000000000e+00 0.0000000000000000e+00 0.0000000000000000e+00 0.0000000000000000e+00  -7.7270019397586945e-02 -4.7360581772071019e-03 0.0000000000000000e+00 -4.7360581772071019e-03 -3.6993339574668785e-02 0.0000000000000000e+00 0.0000000000000000e+00 0.0000000000000000e+00 0.0000000000000000e+00  -7.3069841237418540e-02 -3.3676091381727950e-03 0.0000000000000000e+00 -3.3676091381727950e-03 -4.8062904713650531e-02 0.0000000000000000e+00 0.0000000000000000e+00 0.0000000000000000e+00 0.0000000000000000e+00  -7.0179016885941262e-02 -2.1794367673787425e-03 0.0000000000000000e+00 -2.1794367673787425e-03 -5.7341136197419429e-02 0.0000000000000000e+00 0.0000000000000000e+00 0.0000000000000000e+00 0.0000000000000000e+00  -6.8393811141929800e-02 -1.2009359477738576e-03 0.0000000000000000e+00 -1.2009359477738576e-03 -6.4981606303617864e-02 0.0000000000000000e+00 0.0000000000000000e+00 0.0000000000000000e+00 0.0000000000000000e+00  -6.7499883707887412e-02 -4.3070894669308538e-04 0.0000000000000000e+00 -4.3070894669308538e-04 -7.1186245490041933e-02 0.0000000000000000e+00 0.0000000000000000e+00 0.0000000000000000e+00 0.0000000000000000e+00  -6.7295595614330947e-02 1.5029940399427817e-04 0.0000000000000000e+00 1.5029940399427817e-04 -7.6170389227650029e-02 0.0000000000000000e+00 0.0000000000000000e+00 0.0000000000000000e+00 0.0000000000000000e+00  -6.7603878987701732e-02 5.6920917794766061e-04 0.0000000000000000e+00 5.6920917794766061e-04 -8.0141264910769852e-02 0.0000000000000000e+00 0.0000000000000000e+00 0.0000000000000000e+00 0.0000000000000000e+00  -6.8276407685114518e-02 8.5500579649501528e-04 0.0000000000000000e+00 8.5500579649501528e-04 -8.3286435573807494e-02 0.0000000000000000e+00 0.0000000000000000e+00 0.0000000000000000e+00 0.0000000000000000e+00  -6.9193158209437042e-02 1.0350154796016137e-03 0.0000000000000000e+00 1.0350154796016137e-03 -8.5768921111173638e-02 0.0000000000000000e+00 0.0000000000000000e+00 0.0000000000000000e+00 0.0000000000000000e+00  -7.0259597077276276e-02 1.1332433428170884e-03 0.0000000000000000e+00 1.1332433428170884e-03 -8.7726387853556881e-02 0.0000000000000000e+00 0.0000000000000000e+00 0.0000000000000000e+00 0.0000000000000000e+00  -7.1402949019020140e-02 1.1698766992232032e-03 0.0000000000000000e+00 1.1698766992232032e-03 -8.9272547685378068e-02 0.0000000000000000e+00 0.0000000000000000e+00 0.0000000000000000e+00 0.0000000000000000e+00  -7.2568392346739563e-02 1.1614290354227759e-03 0.0000000000000000e+00 1.1614290354227759e-03 -9.0499560332279322e-02 0.0000000000000000e+00 0.0000000000000000e+00 0.0000000000000000e+00 0.0000000000000000e+00  -7.3715598649260902e-02 1.1211670234997854e-03 0.0000000000000000e+00 1.1211670234997854e-03 -9.1480734584409168e-02 0.0000000000000000e+00 0.0000000000000000e+00 0.0000000000000000e+00 0.0000000000000000e+00  -7.4815758734849122e-02 1.0596011909672427e-03 0.0000000000000000e+00 1.0596011909672427e-03 -9.2273174436600450e-02 0.0000000000000000e+00 0.0000000000000000e+00 0.0000000000000000e+00 0.0000000000000000e+00  -7.5849081883450492e-02 9.8492581187763890e-04 0.0000000000000000e+00 9.8492581187763890e-04 -9.2920234945519126e-02 0.0000000000000000e+00 0.0000000000000000e+00 0.0000000000000000e+00 0.0000000000000000e+00  -7.6802687903028022e-02 9.0336604386683493e-04 0.0000000000000000e+00 9.0336604386683493e-04 -9.3453768593541417e-02 0.0000000000000000e+00 0.0000000000000000e+00 0.0000000000000000e+00 0.0000000000000000e+00  -7.7668800028578358e-02 8.1943253975632214e-04 0.0000000000000000e+00 8.1943253975632214e-04 -9.3896187789703170e-02 0.0000000000000000e+00 0.0000000000000000e+00 0.0000000000000000e+00 0.0000000000000000e+00  -7.8443162675536790e-02 7.3609887466711936e-04 0.0000000000000000e+00 7.3609887466711936e-04 -9.4262374517274330e-02 0.0000000000000000e+00 0.0000000000000000e+00 0.0000000000000000e+00 0.0000000000000000e+00  -7.9123626559019666e-02 6.5490972429624642e-04 0.0000000000000000e+00 6.5490972429624642e-04 -9.4561462428939980e-02 0.0000000000000000e+00 0.0000000000000000e+00 0.0000000000000000e+00 0.0000000000000000e+00  -7.9708845324950817e-02 5.7600350827488849e-04 0.0000000000000000e+00 5.7600350827488849e-04 -9.4798521469013672e-02 0.0000000000000000e+00 0.0000000000000000e+00 0.0000000000000000e+00 0.0000000000000000e+00  -8.0196999606119285e-02 4.9799747539151134e-04 0.0000000000000000e+00 4.9799747539151134e-04 -9.4976202698927245e-02 0.0000000000000000e+00 0.0000000000000000e+00 0.0000000000000000e+00 0.0000000000000000e+00  -8.0584398500671492e-02 4.1763840789298747e-04 0.0000000000000000e+00 4.1763840789298747e-04 -9.5096454169120478e-02 0.0000000000000000e+00 0.0000000000000000e+00 0.0000000000000000e+00 0.0000000000000000e+00  -8.0863698469623532e-02 3.2906534080724616e-04 0.0000000000000000e+00 3.2906534080724616e-04 -9.5162492212490429e-02 0.0000000000000000e+00 0.0000000000000000e+00 0.0000000000000000e+00 0.0000000000000000e+00  -8.1021314848911952e-02 2.2245211149156339e-04 0.0000000000000000e+00 2.2245211149156339e-04 -9.5181295004278188e-02 0.0000000000000000e+00 0.0000000000000000e+00 0.0000000000000000e+00 0.0000000000000000e+00  -8.1033360134445662e-02 8.1682318627337874e-05 0.0000000000000000e+00 8.1682318627337861e-05 -9.5166956723804610e-02 0.0000000000000000e+00 0.0000000000000000e+00 0.0000000000000000e+00 0.0000000000000000e+00  -8.0859093011973013e-02 -1.1945049357660095e-04 0.0000000000000000e+00 -1.1945049357660095e-04 -9.5145255181129346e-02 0.0000000000000000e+00 0.0000000000000000e+00 0.0000000000000000e+00 0.0000000000000000e+00  -8.0430365477147214e-02 -4.2318065070603891e-04 0.0000000000000000e+00 -4.2318065070603891e-04 -9.5159625417302690e-02 0.0000000000000000e+00 0.0000000000000000e+00 0.0000000000000000e+00 0.0000000000000000e+00  -7.9634955780630373e-02 -8.9637323614610701e-04 0.0000000000000000e+00 -8.9637323614610701e-04 -9.5278045159920693e-02 0.0000000000000000e+00 0.0000000000000000e+00 0.0000000000000000e+00 0.0000000000000000e+00  -7.8291298388477704e-02 -1.6407817962375225e-03 0.0000000000000000e+00 -1.6407817962375225e-03 -9.5598181029689672e-02 0.0000000000000000e+00 0.0000000000000000e+00 0.0000000000000000e+00 0.0000000000000000e+00  -7.6113789155085598e-02 -2.7972302067674603e-03 0.0000000000000000e+00 -2.7972302067674603e-03 -9.6241574962183801e-02 0.0000000000000000e+00 0.0000000000000000e+00 0.0000000000000000e+00 0.0000000000000000e+00  -7.2682073562088834e-02 -4.5142080105570080e-03 0.0000000000000000e+00 -4.5142080105570080e-03 -9.7306287166488287e-02 0.0000000000000000e+00 0.0000000000000000e+00 0.0000000000000000e+00 0.0000000000000000e+00  -6.7547442626850265e-02 -6.7955637838208304e-03 0.0000000000000000e+00 -6.7955637838208304e-03 -9.8661675460272061e-02 0.0000000000000000e+00 0.0000000000000000e+00 0.0000000000000000e+00 0.0000000000000000e+00  -6.2539009977024079e-02 -9.0397964882820564e-03 0.0000000000000000e+00 -9.0397964882820564e-03 -9.8616203880974307e-02 0.0000000000000000e+00 0.0000000000000000e+00 0.0000000000000000e+00 0.0000000000000000e+00  -9.6531787391845189e-02 -8.9017894941441286e-03 0.0000000000000000e+00 -8.9017894941441286e-03 -8.4887216283759753e-02 0.0000000000000000e+00 0.0000000000000000e+00 0.0000000000000000e+00 0.0000000000000000e+00  -2.3383935596276195e-01 -5.8223809518859904e-03 0.0000000000000000e+00 -5.8223809518859904e-03 -1.5003755486871023e-01 0.0000000000000000e+00 0.0000000000000000e+00 0.0000000000000000e+00 0.0000000000000000e+00  3.0275977428306250e-01 -1.1880659714998008e-03 0.0000000000000000e+00 -1.1880659714998008e-03 -1.6951391451769382e-01 0.0000000000000000e+00 0.0000000000000000e+00 0.0000000000000000e+00 0.0000000000000000e+00  1.4797804480340218e-01 1.8456991931019018e-03 0.0000000000000000e+00 1.8456991931019018e-03 2.3505230386814691e-01 0.0000000000000000e+00 0.0000000000000000e+00 0.0000000000000000e+00 0.0000000000000000e+00  1.0649450326025256e-03 -4.0912735478702216e-05 0.0000000000000000e+00 -4.0912735478702216e-05 1.3472762064333147e-02 0.0000000000000000e+00 0.0000000000000000e+00 0.0000000000000000e+00 0.0000000000000000e+00  7.5379441466417920e-03 -1.5819959094551905e-05 0.0000000000000000e+00 -1.5819959094551905e-05 8.3006734948286465e-03 0.0000000000000000e+00 0.0000000000000000e+00 0.0000000000000000e+00 0.0000000000000000e+00  7.9230940186771331e-03 3.1671942845504812e-06 0.0000000000000000e+00 3.1671942845504812e-06 7.9210270021698465e-03 0.0000000000000000e+00 0.0000000000000000e+00 0.0000000000000000e+00 0.0000000000000000e+00  7.9723944600211764e-03 1.9713962604899083e-05 0.0000000000000000e+00 1.9713962604899083e-05 7.9550973625269073e-03 0.0000000000000000e+00 0.0000000000000000e+00 0.0000000000000000e+00 0.0000000000000000e+00  7.9884189010619409e-03 -2.3193632424129927e-05 0.0000000000000000e+00 -2.3193632424129927e-05 7.9722374066426970e-03 0.0000000000000000e+00 0.0000000000000000e+00 0.0000000000000000e+00 0.0000000000000000e+00  7.9491972140972554e-03 -5.0175386168548063e-06 0.0000000000000000e+00 -5.0175386168548063e-06 7.9386762231576837e-03 0.0000000000000000e+00 0.0000000000000000e+00 0.0000000000000000e+00 0.0000000000000000e+00  7.6320680126304493e-03 7.8096850265142299e-06 0.0000000000000000e+00 7.8096850265142316e-06 8.2745479484283915e-03 0.0000000000000000e+00 0.0000000000000000e+00 0.0000000000000000e+00 0.0000000000000000e+00  1.4088516176483433e-03 -1.5970087343830679e-05 0.0000000000000000e+00 -1.5970087343830679e-05 1.3037011905420394e-02 0.0000000000000000e+00 0.0000000000000000e+00 0.0000000000000000e+00 0.0000000000000000e+00  1.3116826681231447e-01 -1.9898028715139315e-03 0.0000000000000000e+00 -1.9898028715139315e-03 2.3198621938419878e-01 0.0000000000000000e+00 0.0000000000000000e+00 0.0000000000000000e+00 0.0000000000000000e+00  3.3184803821690523e-01 5.0703029717577893e-03 0.0000000000000000e+00 5.0703029717577893e-03 -1.7166955293997477e-01 0.0000000000000000e+00 0.0000000000000000e+00 0.0000000000000000e+00 0.0000000000000000e+00  -2.4446099566036014e-01 1.7712358696736444e-02 0.0000000000000000e+00 1.7712358696736444e-02 -1.5989243648304913e-01 0.0000000000000000e+00 0.0000000000000000e+00 0.0000000000000000e+00 0.0000000000000000e+00  -1.1294114978958769e-01 1.8396881276233974e-02 0.0000000000000000e+00 1.8396881276233974e-02 -8.5684716190893642e-02 0.0000000000000000e+00 0.0000000000000000e+00 0.0000000000000000e+00 0.0000000000000000e+00  -7.4042195123488419e-02 1.6290279906955384e-02 0.0000000000000000e+00 1.6290279906955384e-02 -9.5574077739111529e-02 0.0000000000000000e+00 0.0000000000000000e+00 0.0000000000000000e+00 0.0000000000000000e+00  -7.5630777854801698e-02 1.1437012722015047e-02 0.0000000000000000e+00 1.1437012722015047e-02 -9.5313509886285550e-02 0.0000000000000000e+00 0.0000000000000000e+00 0.0000000000000000e+00 0.0000000000000000e+00  -7.7919642576381593e-02 7.3323929420174728e-03 0.0000000000000000e+00 7.3323929420174728e-03 -9.4729188720637000e-02 0.0000000000000000e+00 0.0000000000000000e+00 0.0000000000000000e+00 0.0000000000000000e+00  -7.9357303702643781e-02 4.4450649766591748e-03 0.0000000000000000e+00 4.4450649766591748e-03 -9.4514822708225019e-02 0.0000000000000000e+00 0.0000000000000000e+00 0.0000000000000000e+00 0.0000000000000000e+00  -8.0261337178849035e-02 2.5391748038494900e-03 0.0000000000000000e+00 2.5391748038494900e-03 -9.4514673789833553e-02 0.0000000000000000e+00 0.0000000000000000e+00 0.0000000000000000e+00 0.0000000000000000e+00  -8.0822703939705726e-02 1.3088186082438186e-03 0.0000000000000000e+00 1.3088186082438186e-03 -9.4618725388559657e-02 0.0000000000000000e+00 0.0000000000000000e+00 0.0000000000000000e+00 0.0000000000000000e+00  -8.1142874182157029e-02 5.1498054033347052e-04 0.0000000000000000e+00 5.1498054033347052e-04 -9.4759609518235088e-02 0.0000000000000000e+00 0.0000000000000000e+00 0.0000000000000000e+00 0.0000000000000000e+00  -8.1282410243018313e-02 -6.0492042230276109e-06 0.0000000000000000e+00 -6.0492042230276109e-06 -9.4892688900839808e-02 0.0000000000000000e+00 0.0000000000000000e+00 0.0000000000000000e+00 0.0000000000000000e+00  -8.1279503448245083e-02 -3.6074921471983983e-04 0.0000000000000000e+00 -3.6074921471983983e-04 -9.4988585692082558e-02 0.0000000000000000e+00 0.0000000000000000e+00 0.0000000000000000e+00 0.0000000000000000e+00  -8.1158231567543024e-02 -6.1663527116989387e-04 0.0000000000000000e+00 -6.1663527116989387e-04 -9.5029325095339207e-02 0.0000000000000000e+00 0.0000000000000000e+00 0.0000000000000000e+00 0.0000000000000000e+00  -8.0933439845371227e-02 -8.1590286104497845e-04 0.0000000000000000e+00 -8.1590286104497845e-04 -9.5005117303544856e-02 0.0000000000000000e+00 0.0000000000000000e+00 0.0000000000000000e+00 0.0000000000000000e+00  -8.0613942115489959e-02 -9.8465143381464373e-04 0.0000000000000000e+00 -9.8465143381464373e-04 -9.4911571021545543e-02 0.0000000000000000e+00 0.0000000000000000e+00 0.0000000000000000e+00 0.0000000000000000e+00  -8.0204660630881969e-02 -1.1388168104571644e-03 0.0000000000000000e+00 -1.1388168104571644e-03 -9.4747400090668732e-02 0.0000000000000000e+00 0.0000000000000000e+00 0.0000000000000000e+00 0.0000000000000000e+00  -7.9708061655011861e-02 -1.2878245671865958e-03 0.0000000000000000e+00 -1.2878245671865958e-03 -9.4512595451374068e-02 0.0000000000000000e+00 0.0000000000000000e+00 0.0000000000000000e+00 0.0000000000000000e+00  -7.9125182626322510e-02 -1.4367102712847708e-03 0.0000000000000000e+00 -1.4367102712847708e-03 -9.4206923953848026e-02 0.0000000000000000e+00 0.0000000000000000e+00 0.0000000000000000e+00 0.0000000000000000e+00  -7.8456491567231501e-02 -1.5872294862639470e-03 0.0000000000000000e+00 -1.5872294862639470e-03 -9.3828580909574161e-02 0.0000000000000000e+00 0.0000000000000000e+00 0.0000000000000000e+00 0.0000000000000000e+00  -7.7702756140863014e-02 -1.7383239138312110e-03 0.0000000000000000e+00 -1.7383239138312110e-03 -9.3372842354435437e-02 0.0000000000000000e+00 0.0000000000000000e+00 0.0000000000000000e+00 0.0000000000000000e+00  -7.6866031624852671e-02 -1.8861999280334058e-03 0.0000000000000000e+00 -1.8861999280334058e-03 -9.2830614115585672e-02 0.0000000000000000e+00 0.0000000000000000e+00 0.0000000000000000e+00 0.0000000000000000e+00  -7.5950816650372108e-02 -2.0241887684827129e-03 0.0000000000000000e+00 -2.0241887684827129e-03 -9.2186833712349162e-02 0.0000000000000000e+00 0.0000000000000000e+00 0.0000000000000000e+00 0.0000000000000000e+00  -7.4965385440210655e-02 -2.1424809565071096e-03 0.0000000000000000e+00 -2.1424809565071096e-03 -9.1418726977120474e-02 0.0000000000000000e+00 0.0000000000000000e+00 0.0000000000000000e+00 0.0000000000000000e+00  -7.3923294440541132e-02 -2.2277605191377290e-03 0.0000000000000000e+00 -2.2277605191377290e-03 -9.0493940081678298e-02 0.0000000000000000e+00 0.0000000000000000e+00 0.0000000000000000e+00 0.0000000000000000e+00  -7.2845080795240755e-02 -2.2627165547859590e-03 0.0000000000000000e+00 -2.2627165547859590e-03 -8.9368556637668267e-02 0.0000000000000000e+00 0.0000000000000000e+00 0.0000000000000000e+00 0.0000000000000000e+00  -7.1760210744343425e-02 -2.2253943202592669e-03 0.0000000000000000e+00 -2.2253943202592669e-03 -8.7984979770597369e-02 0.0000000000000000e+00 0.0000000000000000e+00 0.0000000000000000e+00 0.0000000000000000e+00  -7.0709378617797719e-02 -2.0883783903184300e-03 0.0000000000000000e+00 -2.0883783903184300e-03 -8.6269634178736856e-02 0.0000000000000000e+00 0.0000000000000000e+00 0.0000000000000000e+00 0.0000000000000000e+00  -6.9747275963299327e-02 -1.8178855039166981e-03 0.0000000000000000e+00 -1.8178855039166981e-03 -8.4130454891180012e-02 0.0000000000000000e+00 0.0000000000000000e+00 0.0000000000000000e+00 0.0000000000000000e+00  -6.8945917371888987e-02 -1.3729891308933389e-03 0.0000000000000000e+00 -1.3729891308933389e-03 -8.1454211749784997e-02 0.0000000000000000e+00 0.0000000000000000e+00 0.0000000000000000e+00 0.0000000000000000e+00  -6.8398496730653582e-02 -7.0540413201050948e-04 0.0000000000000000e+00 -7.0540413201050948e-04 -7.8103903569951366e-02 0.0000000000000000e+00 0.0000000000000000e+00 0.0000000000000000e+00 0.0000000000000000e+00  -6.8223526042195143e-02 2.3946956411986350e-04 0.0000000000000000e+00 2.3946956411986350e-04 -7.3916772583230747e-02 0.0000000000000000e+00 0.0000000000000000e+00 0.0000000000000000e+00 0.0000000000000000e+00  -6.8568644710236229e-02 1.5192125158867971e-03 0.0000000000000000e+00 1.5192125158867971e-03 -6.8703965990791913e-02 0.0000000000000000e+00 0.0000000000000000e+00 0.0000000000000000e+00 0.0000000000000000e+00  -6.9612934065098456e-02 3.1873563588125887e-03 0.0000000000000000e+00 3.1873563588125887e-03 -6.2253536621330777e-02 0.0000000000000000e+00 0.0000000000000000e+00 0.0000000000000000e+00 0.0000000000000000e+00  -7.1565781256804531e-02 5.2809294039913484e-03 0.0000000000000000e+00 5.2809294039913484e-03 -5.4339341546963758e-02 0.0000000000000000e+00 0.0000000000000000e+00 0.0000000000000000e+00 0.0000000000000000e+00  -7.4659243227104849e-02 7.8007764581212551e-03 0.0000000000000000e+00 7.8007764581212551e-03 -4.4739461842638238e-02 0.0000000000000000e+00 0.0000000000000000e+00 0.0000000000000000e+00 0.0000000000000000e+00  -7.9129559608161606e-02 1.0683542966096601e-02 0.0000000000000000e+00 1.0683542966096601e-02 -3.3268797553834974e-02 0.0000000000000000e+00 0.0000000000000000e+00 0.0000000000000000e+00 0.0000000000000000e+00  -8.5182056671689224e-02 1.3766342548120605e-02 0.0000000000000000e+00 1.3766342548120605e-02 -1.9831201580859863e-02 0.0000000000000000e+00 0.0000000000000000e+00 0.0000000000000000e+00 0.0000000000000000e+00  -9.2933129297667769e-02 1.6750544735636471e-02 0.0000000000000000e+00 1.6750544735636471e-02 -4.4954767938400241e-03 0.0000000000000000e+00 0.0000000000000000e+00 0.0000000000000000e+00 0.0000000000000000e+00  -1.0232577035327836e-01 1.9179567952354499e-02 0.0000000000000000e+00 1.9179567952354499e-02 1.2405664199518234e-02 0.0000000000000000e+00 0.0000000000000000e+00 0.0000000000000000e+00 0.0000000000000000e+00  -1.1302033503469540e-01 2.0461775135915735e-02 0.0000000000000000e+00 2.0461775135915735e-02 3.0164433985274158e-02 0.0000000000000000e+00 0.0000000000000000e+00 0.0000000000000000e+00 0.0000000000000000e+00  -1.2430184777827384e-01 1.9978262909718381e-02 0.0000000000000000e+00 1.9978262909718381e-02 4.7626348881612303e-02 0.0000000000000000e+00 0.0000000000000000e+00 0.0000000000000000e+00 0.0000000000000000e+00  -1.3514123129051969e-01 1.7315018051774947e-02 0.0000000000000000e+00 1.7315018051774947e-02 6.3258982630211055e-02 0.0000000000000000e+00 0.0000000000000000e+00 0.0000000000000000e+00 0.0000000000000000e+00  -1.4686687446965155e-01 1.2589543136843125e-02 0.0000000000000000e+00 1.2589543136843125e-02 7.6507710302625306e-02 0.0000000000000000e+00 0.0000000000000000e+00 0.0000000000000000e+00 0.0000000000000000e+00  -1.9638404475373458e-01 6.6645833145286696e-03 0.0000000000000000e+00 6.6645833145286696e-03 8.8864576242611612e-02 0.0000000000000000e+00 0.0000000000000000e+00 0.0000000000000000e+00 0.0000000000000000e+00  -2.9918431833953907e-01 4.9669079234017691e-04 0.0000000000000000e+00 4.9669079234017691e-04 6.2632666490717429e-02 0.0000000000000000e+00 0.0000000000000000e+00 0.0000000000000000e+00 0.0000000000000000e+00  2.4564122111138977e-02 -4.2345115329961358e-03 0.0000000000000000e+00 -4.2345115329961358e-03 -1.0977868434849265e-01 0.0000000000000000e+00 0.0000000000000000e+00 0.0000000000000000e+00 0.0000000000000000e+00  -2.9329828272288933e-01 -1.0327266236755823e-02 0.0000000000000000e+00 -1.0327266236755823e-02 5.8091329192823893e-02 0.0000000000000000e+00 0.0000000000000000e+00 0.0000000000000000e+00 0.0000000000000000e+00  -1.8332276491043514e-01 -1.4917116944410067e-02 0.0000000000000000e+00 -1.4917116944410067e-02 7.8004264213725014e-02 0.0000000000000000e+00 0.0000000000000000e+00 0.0000000000000000e+00 0.0000000000000000e+00  -1.3073091801919673e-01 -1.8322665494082759e-02 0.0000000000000000e+00 -1.8322665494082759e-02 5.8543723295683553e-02 0.0000000000000000e+00 0.0000000000000000e+00 0.0000000000000000e+00 0.0000000000000000e+00  -1.1728429784891146e-01 -1.9865950655443703e-02 0.0000000000000000e+00 -1.9865950655443703e-02 4.0699938458308597e-02 0.0000000000000000e+00 0.0000000000000000e+00 0.0000000000000000e+00 0.0000000000000000e+00  -1.0642706804321318e-01 -1.9598001730983444e-02 0.0000000000000000e+00 -1.9598001730983444e-02 2.2822278695484446e-02 0.0000000000000000e+00 0.0000000000000000e+00 0.0000000000000000e+00 0.0000000000000000e+00  -9.6460051048523773e-02 -1.7890701692869635e-02 0.0000000000000000e+00 -1.7890701692869635e-02 5.1425791122612901e-03 0.0000000000000000e+00 0.0000000000000000e+00 0.0000000000000000e+00 0.0000000000000000e+00  -8.7868151495119617e-02 -1.5274376945162607e-02 0.0000000000000000e+00 -1.5274376945162607e-02 -1.1398777084245585e-02 0.0000000000000000e+00 0.0000000000000000e+00 0.0000000000000000e+00 0.0000000000000000e+00  -8.0915163777644211e-02 -1.2261575144083700e-02 0.0000000000000000e+00 -1.2261575144083700e-02 -2.6211512876570087e-02 0.0000000000000000e+00 0.0000000000000000e+00 0.0000000000000000e+00 0.0000000000000000e+00  -7.5615813052592559e-02 -9.2496104007014270e-03 0.0000000000000000e+00 -9.2496104007014270e-03 -3.9043984195825117e-02 0.0000000000000000e+00 0.0000000000000000e+00 0.0000000000000000e+00 0.0000000000000000e+00  -7.1829640681060666e-02 -6.4953013511652048e-03 0.0000000000000000e+00 -6.4953013511652048e-03 -4.9883534550318173e-02 0.0000000000000000e+00 0.0000000000000000e+00 0.0000000000000000e+00 0.0000000000000000e+00  -6.9339478016635953e-02 -4.1325610469117409e-03 0.0000000000000000e+00 -4.1325610469117409e-03 -5.8863950737151227e-02 0.0000000000000000e+00 0.0000000000000000e+00 0.0000000000000000e+00 0.0000000000000000e+00  -6.7905766012481175e-02 -2.2051063630047561e-03 0.0000000000000000e+00 -2.2051063630047561e-03 -6.6193941937152917e-02 0.0000000000000000e+00 0.0000000000000000e+00 0.0000000000000000e+00 0.0000000000000000e+00  -6.7298931781853824e-02 -6.9929248412468404e-04 0.0000000000000000e+00 -6.9929248412468404e-04 -7.2108623247518169e-02 0.0000000000000000e+00 0.0000000000000000e+00 0.0000000000000000e+00 0.0000000000000000e+00  -6.7315713615309455e-02 4.2968248036888293e-04 0.0000000000000000e+00 4.2968248036888293e-04 -7.6839916730536806e-02 0.0000000000000000e+00 0.0000000000000000e+00 0.0000000000000000e+00 0.0000000000000000e+00  -6.7785124009825712e-02 1.2394943354426850e-03 0.0000000000000000e+00 1.2394943354426850e-03 -8.0600552830671801e-02 0.0000000000000000e+00 0.0000000000000000e+00 0.0000000000000000e+00 0.0000000000000000e+00  -6.8568364957736133e-02 1.7893408134290218e-03 0.0000000000000000e+00 1.7893408134290218e-03 -8.3577036164867738e-02 0.0000000000000000e+00 0.0000000000000000e+00 0.0000000000000000e+00 0.0000000000000000e+00  -6.9555686505068312e-02 2.1337741771543382e-03 0.0000000000000000e+00 2.1337741771543382e-03 -8.5928009739891981e-02 0.0000000000000000e+00 0.0000000000000000e+00 0.0000000000000000e+00 0.0000000000000000e+00  -7.0662068287015128e-02 2.3200202023553117e-03 0.0000000000000000e+00 2.3200202023553117e-03 -8.7785540965704262e-02 0.0000000000000000e+00 0.0000000000000000e+00 0.0000000000000000e+00 0.0000000000000000e+00  -7.1822809802832427e-02 2.3874089470377817e-03 0.0000000000000000e+00 2.3874089470377817e-03 -8.9257727783617985e-02 0.0000000000000000e+00 0.0000000000000000e+00 0.0000000000000000e+00 0.0000000000000000e+00  -7.2989569835081453e-02 2.3679170371285964e-03 0.0000000000000000e+00 2.3679170371285964e-03 -9.0431682620383383e-02 0.0000000000000000e+00 0.0000000000000000e+00 0.0000000000000000e+00 0.0000000000000000e+00  -7.4127044259459859e-02 2.2871541675258699e-03 0.0000000000000000e+00 2.2871541675258699e-03 -9.1376415239439332e-02 0.0000000000000000e+00 0.0000000000000000e+00 0.0000000000000000e+00 0.0000000000000000e+00  -7.5210264017672696e-02 2.1653945850848926e-03 0.0000000000000000e+00 2.1653945850848926e-03 -9.2145437189542018e-02 0.0000000000000000e+00 0.0000000000000000e+00 0.0000000000000000e+00 0.0000000000000000e+00  -7.6222394986106459e-02 2.0184563934154752e-03 0.0000000000000000e+00 2.0184563934154752e-03 -9.2779081205062702e-02 0.0000000000000000e+00 0.0000000000000000e+00 0.0000000000000000e+00 0.0000000000000000e+00  -7.7152898961431488e-02 1.8583710113338943e-03 0.0000000000000000e+00 1.8583710113338943e-03 -9.3306599063085180e-02 0.0000000000000000e+00 0.0000000000000000e+00 0.0000000000000000e+00 0.0000000000000000e+00  -7.7995941815977257e-02 1.6938654285414316e-03 0.0000000000000000e+00 1.6938654285414316e-03 -9.3748103456429935e-02 0.0000000000000000e+00 0.0000000000000000e+00 0.0000000000000000e+00 0.0000000000000000e+00  -7.8748983190846569e-02 1.5307061637882349e-03 0.0000000000000000e+00 1.5307061637882349e-03 -9.4116387280143335e-02 0.0000000000000000e+00 0.0000000000000000e+00 0.0000000000000000e+00 0.0000000000000000e+00  -7.9411526650517678e-02 1.3719351656004803e-03 0.0000000000000000e+00 1.3719351656004803e-03 -9.4418618679724522e-02 0.0000000000000000e+00 0.0000000000000000e+00 0.0000000000000000e+00 0.0000000000000000e+00  -7.9984031359672969e-02 1.2179772864610880e-03 0.0000000000000000e+00 1.2179772864610880e-03 -9.4657895455517546e-02 0.0000000000000000e+00 0.0000000000000000e+00 0.0000000000000000e+00 0.0000000000000000e+00  -8.0466977164010314e-02 1.0665300163884800e-03 0.0000000000000000e+00 1.0665300163884800e-03 -9.4834658591199689e-02 0.0000000000000000e+00 0.0000000000000000e+00 0.0000000000000000e+00 0.0000000000000000e+00  -8.0860035925732210e-02 9.1206786667219215e-04 0.0000000000000000e+00 9.1206786667219215e-04 -9.4948008643252424e-02 0.0000000000000000e+00 0.0000000000000000e+00 0.0000000000000000e+00 0.0000000000000000e+00  -8.1161242315288845e-02 7.4470534686633483e-04 0.0000000000000000e+00 7.4470534686633483e-04 -9.4997026231421228e-02 0.0000000000000000e+00 0.0000000000000000e+00 0.0000000000000000e+00 0.0000000000000000e+00  -8.1365989770316782e-02 5.4805080088276073e-04 0.0000000000000000e+00 5.4805080088276073e-04 -9.4982247810323411e-02 0.0000000000000000e+00 0.0000000000000000e+00 0.0000000000000000e+00 0.0000000000000000e+00  -8.1465614691144828e-02 2.9552496822398376e-04 0.0000000000000000e+00 2.9552496822398376e-04 -9.4907465981956263e-02 0.0000000000000000e+00 0.0000000000000000e+00 0.0000000000000000e+00 0.0000000000000000e+00  -8.1445277541555117e-02 -5.5607023315666487e-05 0.0000000000000000e+00 -5.5607023315666487e-05 -9.4781988103092116e-02 0.0000000000000000e+00 0.0000000000000000e+00 0.0000000000000000e+00 0.0000000000000000e+00  -8.1280789425497504e-02 -5.7351093932868228e-04 0.0000000000000000e+00 -5.7351093932868228e-04 -9.4623375417705796e-02 0.0000000000000000e+00 0.0000000000000000e+00 0.0000000000000000e+00 0.0000000000000000e+00  -8.0933773357419456e-02 -1.3655030558465009e-03 0.0000000000000000e+00 -1.3655030558465009e-03 -9.4460594872458420e-02 0.0000000000000000e+00 0.0000000000000000e+00 0.0000000000000000e+00 0.0000000000000000e+00  -8.0343474580373789e-02 -2.5964361936862334e-03 0.0000000000000000e+00 -2.5964361936862334e-03 -9.4337783498858158e-02 0.0000000000000000e+00 0.0000000000000000e+00 0.0000000000000000e+00 0.0000000000000000e+00  -7.9408334044805226e-02 -4.5069542442808244e-03 0.0000000000000000e+00 -4.5069542442808244e-03 -9.4321600660096955e-02 0.0000000000000000e+00 0.0000000000000000e+00 0.0000000000000000e+00 0.0000000000000000e+00  -7.7937564164575396e-02 -7.4053442477154605e-03 0.0000000000000000e+00 -7.4053442477154605e-03 -9.4521039035437737e-02 0.0000000000000000e+00 0.0000000000000000e+00 0.0000000000000000e+00 0.0000000000000000e+00  -7.5614492793972032e-02 -1.1530930421899401e-02 0.0000000000000000e+00 -1.1530930421899401e-02 -9.5090376592768977e-02 0.0000000000000000e+00 0.0000000000000000e+00 0.0000000000000000e+00 0.0000000000000000e+00  -7.4002854288973421e-02 -1.6419898267965652e-02 0.0000000000000000e+00 -1.6419898267965652e-02 -9.5329769687745480e-02 0.0000000000000000e+00 0.0000000000000000e+00 0.0000000000000000e+00 0.0000000000000000e+00  -1.1304087588604113e-01 -1.8585255935738065e-02 0.0000000000000000e+00 -1.8585255935738065e-02 -8.5433430611638453e-02 0.0000000000000000e+00 0.0000000000000000e+00 0.0000000000000000e+00 0.0000000000000000e+00  -2.4445910850822050e-01 -1.7968450688940513e-02 0.0000000000000000e+00 -1.7968450688940513e-02 -1.5970921968399440e-01 0.0000000000000000e+00 0.0000000000000000e+00 0.0000000000000000e+00 0.0000000000000000e+00  3.3323531415162921e-01 -5.1516745883044132e-03 0.0000000000000000e+00 -5.1516745883044132e-03 -1.7109092172708337e-01 0.0000000000000000e+00 0.0000000000000000e+00 0.0000000000000000e+00 0.0000000000000000e+00  1.3043899758076763e-01 1.8866714494033478e-03 0.0000000000000000e+00 1.8866714494033478e-03 2.3193063118850510e-01 0.0000000000000000e+00 0.0000000000000000e+00 0.0000000000000000e+00 0.0000000000000000e+00  1.4484652785475970e-03 9.0111365338339610e-06 0.0000000000000000e+00 9.0111365338339610e-06 1.3011259615720949e-02 0.0000000000000000e+00 0.0000000000000000e+00 0.0000000000000000e+00 0.0000000000000000e+00  7.5834533276861911e-03 -1.7388435870325632e-05 0.0000000000000000e+00 -1.7388435870325632e-05 8.2210641290236686e-03 0.0000000000000000e+00 0.0000000000000000e+00 0.0000000000000000e+00 0.0000000000000000e+00  7.9104613244639268e-03 6.3098413617042890e-06 0.0000000000000000e+00 6.3098413617042890e-06 7.9019993110769748e-03 0.0000000000000000e+00 0.0000000000000000e+00 0.0000000000000000e+00 0.0000000000000000e+00  7.9478839224903924e-03 2.9036354033971259e-05 0.0000000000000000e+00 2.9036354033971259e-05 7.9323611029144155e-03 0.0000000000000000e+00 0.0000000000000000e+00 0.0000000000000000e+00 0.0000000000000000e+00  7.9622490182968686e-03 -3.1820219386205251e-05 0.0000000000000000e+00 -3.1820219386205251e-05 7.9479041250589411e-03 0.0000000000000000e+00 0.0000000000000000e+00 0.0000000000000000e+00 0.0000000000000000e+00  7.9393188273982236e-03 -9.1044453988588568e-06 0.0000000000000000e+00 -9.1044453988588568e-06 7.9218715019970538e-03 0.0000000000000000e+00 0.0000000000000000e+00 0.0000000000000000e+00 0.0000000000000000e+00  7.7027107330951243e-03 4.1555232212687209e-06 0.0000000000000000e+00 4.1555232212687209e-06 8.1685058047227792e-03 0.0000000000000000e+00 0.0000000000000000e+00 0.0000000000000000e+00 0.0000000000000000e+00  2.0035160209521973e-03 -2.4008849603173056e-04 0.0000000000000000e+00 -2.4008849603173056e-04 1.2381897821095902e-02 0.0000000000000000e+00 0.0000000000000000e+00 0.0000000000000000e+00 0.0000000000000000e+00  1.0214537627589575e-01 1.0511388469429022e-03 0.0000000000000000e+00 1.0511388469429022e-03 2.1839029667903304e-01 0.0000000000000000e+00 0.0000000000000000e+00 0.0000000000000000e+00 0.0000000000000000e+00  3.7694153001945785e-01 1.4271563179164457e-02 0.0000000000000000e+00 1.4271563179164457e-02 -1.7812287579681291e-01 0.0000000000000000e+00 0.0000000000000000e+00 0.0000000000000000e+00 0.0000000000000000e+00  -2.6606649984771702e-01 3.8457366238765160e-02 0.0000000000000000e+00 3.8457366238765160e-02 -1.6328386796930355e-01 0.0000000000000000e+00 0.0000000000000000e+00 0.0000000000000000e+00 0.0000000000000000e+00  -1.4306386290808493e-01 2.4949019876985171e-02 0.0000000000000000e+00 2.4949019876985171e-02 -8.2054519601083717e-02 0.0000000000000000e+00 0.0000000000000000e+00 0.0000000000000000e+00 0.0000000000000000e+00  -9.1541559136363845e-02 1.8416511669583139e-02 0.0000000000000000e+00 1.8416511669583139e-02 -8.9230401834188872e-02 0.0000000000000000e+00 0.0000000000000000e+00 0.0000000000000000e+00 0.0000000000000000e+00  -8.6515464571339434e-02 1.1820790481216795e-02 0.0000000000000000e+00 1.1820790481216795e-02 -9.0161047942207889e-02 0.0000000000000000e+00 0.0000000000000000e+00 0.0000000000000000e+00 0.0000000000000000e+00  -8.4613093218184429e-02 7.2949798914365557e-03 0.0000000000000000e+00 7.2949798914365557e-03 -9.1093968627911720e-02 0.0000000000000000e+00 0.0000000000000000e+00 0.0000000000000000e+00 0.0000000000000000e+00  -8.3492346265562123e-02 4.3264915847348821e-03 0.0000000000000000e+00 4.3264915847348821e-03 -9.2087337369389941e-02 0.0000000000000000e+00 0.0000000000000000e+00 0.0000000000000000e+00 0.0000000000000000e+00  -8.2867426407016151e-02 2.3816975462270279e-03 0.0000000000000000e+00 2.3816975462270279e-03 -9.2916684959563400e-02 0.0000000000000000e+00 0.0000000000000000e+00 0.0000000000000000e+00 0.0000000000000000e+00  -8.2515166163600939e-02 1.1036315459656233e-03 0.0000000000000000e+00 1.1036315459656233e-03 -9.3561610065600084e-02 0.0000000000000000e+00 0.0000000000000000e+00 0.0000000000000000e+00 0.0000000000000000e+00  -8.2288647861119016e-02 2.5557972172388901e-04 0.0000000000000000e+00 2.5557972172388901e-04 -9.4045805907460658e-02 0.0000000000000000e+00 0.0000000000000000e+00 0.0000000000000000e+00 0.0000000000000000e+00  -8.2102437499210160e-02 -3.2040870570197082e-04 0.0000000000000000e+00 -3.2040870570197082e-04 -9.4391839233948879e-02 0.0000000000000000e+00 0.0000000000000000e+00 0.0000000000000000e+00 0.0000000000000000e+00  -8.1907856923803007e-02 -7.2862166655282958e-04 0.0000000000000000e+00 -7.2862166655282958e-04 -9.4616707985460860e-02 0.0000000000000000e+00 0.0000000000000000e+00 0.0000000000000000e+00 0.0000000000000000e+00  -8.1677132287651319e-02 -1.0368450938698535e-03 0.0000000000000000e+00 -1.0368450938698535e-03 -9.4733172893014583e-02 0.0000000000000000e+00 0.0000000000000000e+00 0.0000000000000000e+00 0.0000000000000000e+00  -8.1394127997182528e-02 -1.2884862239750726e-03 0.0000000000000000e+00 -1.2884862239750726e-03 -9.4751311533202306e-02 0.0000000000000000e+00 0.0000000000000000e+00 0.0000000000000000e+00 0.0000000000000000e+00  -8.1049161384462956e-02 -1.5109937209362538e-03 0.0000000000000000e+00 -1.5109937209362538e-03 -9.4679370441905650e-02 0.0000000000000000e+00 0.0000000000000000e+00 0.0000000000000000e+00 0.0000000000000000e+00  -8.0636069301668639e-02 -1.7214756843113984e-03 0.0000000000000000e+00 -1.7214756843113984e-03 -9.4524110126193189e-02 0.0000000000000000e+00 0.0000000000000000e+00 0.0000000000000000e+00 0.0000000000000000e+00  -8.0150538711622712e-02 -1.9302318752111782e-03 0.0000000000000000e+00 -1.9302318752111782e-03 -9.4290823359859846e-02 0.0000000000000000e+00 0.0000000000000000e+00 0.0000000000000000e+00 0.0000000000000000e+00  -7.9589210289629675e-02 -2.1427717881935633e-03 0.0000000000000000e+00 -2.1427717881935633e-03 -9.3983101281523318e-02 0.0000000000000000e+00 0.0000000000000000e+00 0.0000000000000000e+00 0.0000000000000000e+00  -7.8949346863490172e-02 -2.3607721321553293e-03 0.0000000000000000e+00 -2.3607721321553293e-03 -9.3602324212243307e-02 0.0000000000000000e+00 0.0000000000000000e+00 0.0000000000000000e+00 0.0000000000000000e+00  -7.8228977489897239e-02 -2.5823400913475496e-03 0.0000000000000000e+00 -2.5823400913475496e-03 -9.3146830690643487e-02 0.0000000000000000e+00 0.0000000000000000e+00 0.0000000000000000e+00 0.0000000000000000e+00  -7.7427454302857343e-02 -2.8018724085285998e-03 0.0000000000000000e+00 -2.8018724085285998e-03 -9.2610750450426937e-02 0.0000000000000000e+00 0.0000000000000000e+00 0.0000000000000000e+00 0.0000000000000000e+00  -7.6546342789931457e-02 -3.0097177332201277e-03 0.0000000000000000e+00 -3.0097177332201277e-03 -9.1982543772880260e-02 0.0000000000000000e+00 0.0000000000000000e+00 0.0000000000000000e+00 0.0000000000000000e+00  -7.5590547136417385e-02 -3.1917533471051956e-03 0.0000000000000000e+00 -3.1917533471051956e-03 -9.1243336713855247e-02 0.0000000000000000e+00 0.0000000000000000e+00 0.0000000000000000e+00 0.0000000000000000e+00  -7.4569580299316082e-02 -3.3288868750606234e-03 0.0000000000000000e+00 -3.3288868750606234e-03 -9.0365150649691528e-02 0.0000000000000000e+00 0.0000000000000000e+00 0.0000000000000000e+00 0.0000000000000000e+00  -7.3498936503897702e-02 -3.3964119888602838e-03 0.0000000000000000e+00 -3.3964119888602838e-03 -8.9309084181458040e-02 0.0000000000000000e+00 0.0000000000000000e+00 0.0000000000000000e+00 0.0000000000000000e+00  -7.2401606526496395e-02 -3.3631124198807180e-03 0.0000000000000000e+00 -3.3631124198807180e-03 -8.8023425814401646e-02 0.0000000000000000e+00 0.0000000000000000e+00 0.0000000000000000e+00 0.0000000000000000e+00  -7.1309872397024923e-02 -3.1900443360166546e-03 0.0000000000000000e+00 -3.1900443360166546e-03 -8.6441586191916484e-02 0.0000000000000000e+00 0.0000000000000000e+00 0.0000000000000000e+00 0.0000000000000000e+00  -7.0267598672838938e-02 -2.8290463903538452e-03 0.0000000000000000e+00 -2.8290463903538452e-03 -8.4479678731940094e-02 0.0000000000000000e+00 0.0000000000000000e+00 0.0000000000000000e+00 0.0000000000000000e+00  -6.9333273296189712e-02 -2.2212324602819558e-03 0.0000000000000000e+00 -2.2212324602819558e-03 -8.2033586943741077e-02 0.0000000000000000e+00 0.0000000000000000e+00 0.0000000000000000e+00 0.0000000000000000e+00  -6.8584019505878197e-02 -1.2960133230288616e-03 0.0000000000000000e+00 -1.2960133230288616e-03 -7.8975467817851072e-02 0.0000000000000000e+00 0.0000000000000000e+00 0.0000000000000000e+00 0.0000000000000000e+00  -6.8120683129042237e-02 2.8426395258589346e-05 0.0000000000000000e+00 2.8426395258589346e-05 -7.5149879441477330e-02 0.0000000000000000e+00 0.0000000000000000e+00 0.0000000000000000e+00 0.0000000000000000e+00  -6.8073870928187341e-02 1.8417899442106451e-03 0.0000000000000000e+00 1.8417899442106451e-03 -7.0370118990139591e-02 0.0000000000000000e+00 0.0000000000000000e+00 0.0000000000000000e+00 0.0000000000000000e+00  -6.8610423320135533e-02 4.2334792340965313e-03 0.0000000000000000e+00 4.2334792340965313e-03 -6.4415969741642862e-02 0.0000000000000000e+00 0.0000000000000000e+00 0.0000000000000000e+00 0.0000000000000000e+00  -6.9939120074439448e-02 7.2769191150938656e-03 0.0000000000000000e+00 7.2769191150938656e-03 -5.7035003998452516e-02 0.0000000000000000e+00 0.0000000000000000e+00 0.0000000000000000e+00 0.0000000000000000e+00  -7.2313300989238175e-02 1.1003252135531869e-02 0.0000000000000000e+00 1.1003252135531869e-02 -4.7950979014430239e-02 0.0000000000000000e+00 0.0000000000000000e+00 0.0000000000000000e+00 0.0000000000000000e+00  -7.6026003014551521e-02 1.5361291636768632e-02 0.0000000000000000e+00 1.5361291636768632e-02 -3.6885140897220170e-02 0.0000000000000000e+00 0.0000000000000000e+00 0.0000000000000000e+00 0.0000000000000000e+00  -8.1390532040993724e-02 2.0162587042159757e-02 0.0000000000000000e+00 2.0162587042159757e-02 -2.3598701974814170e-02 0.0000000000000000e+00 0.0000000000000000e+00 0.0000000000000000e+00 0.0000000000000000e+00  -8.8694352021090633e-02 2.5014846028116551e-02 0.0000000000000000e+00 2.5014846028116551e-02 -7.9690560184604246e-03 0.0000000000000000e+00 0.0000000000000000e+00 0.0000000000000000e+00 0.0000000000000000e+00  -9.8109480145399816e-02 2.9261509881259945e-02 0.0000000000000000e+00 2.9261509881259945e-02 9.8870406382540760e-03 0.0000000000000000e+00 0.0000000000000000e+00 0.0000000000000000e+00 0.0000000000000000e+00  -1.0954899705863039e-01 3.1961099897573959e-02 0.0000000000000000e+00 3.1961099897573959e-02 2.9439552466922255e-02 0.0000000000000000e+00 0.0000000000000000e+00 0.0000000000000000e+00 0.0000000000000000e+00  -1.2243888295358021e-01 3.1989938364506205e-02 0.0000000000000000e+00 3.1989938364506205e-02 4.9512729841677712e-02 0.0000000000000000e+00 0.0000000000000000e+00 0.0000000000000000e+00 0.0000000000000000e+00  -1.3566759493376565e-01 2.8367670464009322e-02 0.0000000000000000e+00 2.8367670464009322e-02 6.8219548255437010e-02 0.0000000000000000e+00 0.0000000000000000e+00 0.0000000000000000e+00 0.0000000000000000e+00  -1.4993870432611139e-01 2.0871297120195580e-02 0.0000000000000000e+00 2.0871297120195580e-02 8.4062392316966383e-02 0.0000000000000000e+00 0.0000000000000000e+00 0.0000000000000000e+00 0.0000000000000000e+00  -2.0146546824372380e-01 1.0903341209778757e-02 0.0000000000000000e+00 1.0903341209778757e-02 9.7303091737528824e-02 0.0000000000000000e+00 0.0000000000000000e+00 0.0000000000000000e+00 0.0000000000000000e+00  -3.0384063436859687e-01 3.3784509012912490e-04 0.0000000000000000e+00 3.3784509012912490e-04 7.0515513498817323e-02 0.0000000000000000e+00 0.0000000000000000e+00 0.0000000000000000e+00 0.0000000000000000e+00  2.0677232046085830e-02 -6.8288863965702213e-03 0.0000000000000000e+00 -6.8288863965702213e-03 -1.0276347726027375e-01 0.0000000000000000e+00 0.0000000000000000e+00 0.0000000000000000e+00 0.0000000000000000e+00  -2.9610639163729824e-01 -1.6572620381429048e-02 0.0000000000000000e+00 -1.6572620381429048e-02 6.4908906576525399e-02 0.0000000000000000e+00 0.0000000000000000e+00 0.0000000000000000e+00 0.0000000000000000e+00  -1.8409566947330325e-01 -2.3783275258720486e-02 0.0000000000000000e+00 -2.3783275258720486e-02 8.3717523791993168e-02 0.0000000000000000e+00 0.0000000000000000e+00 0.0000000000000000e+00 0.0000000000000000e+00  -1.2997817117063462e-01 -2.9125631019774636e-02 0.0000000000000000e+00 -2.9125631019774636e-02 6.1891555153404366e-02 0.0000000000000000e+00 0.0000000000000000e+00 0.0000000000000000e+00 0.0000000000000000e+00  -1.1487022004240625e-01 -3.1196484767915641e-02 0.0000000000000000e+00 -3.1196484767915641e-02 4.1501111977005560e-02 0.0000000000000000e+00 0.0000000000000000e+00 0.0000000000000000e+00 0.0000000000000000e+00  -1.0288199399147127e-01 -3.0250844054547980e-02 0.0000000000000000e+00 -3.0250844054547980e-02 2.1476372845227930e-02 0.0000000000000000e+00 0.0000000000000000e+00 0.0000000000000000e+00 0.0000000000000000e+00  -9.2443902347674023e-02 -2.7091046480326311e-02 0.0000000000000000e+00 -2.7091046480326311e-02 2.3315057070931273e-03 0.0000000000000000e+00 0.0000000000000000e+00 0.0000000000000000e+00 0.0000000000000000e+00  -8.3967918608115436e-02 -2.2685500192103681e-02 0.0000000000000000e+00 -2.2685500192103681e-02 -1.4945581269864767e-02 0.0000000000000000e+00 0.0000000000000000e+00 0.0000000000000000e+00 0.0000000000000000e+00  -7.7517838081731280e-02 -1.7865936308489587e-02 0.0000000000000000e+00 -1.7865936308489587e-02 -2.9913174541833017e-02 0.0000000000000000e+00 0.0000000000000000e+00 0.0000000000000000e+00 0.0000000000000000e+00  -7.2913041858953850e-02 -1.3215106986635855e-02 0.0000000000000000e+00 -1.3215106986635855e-02 -4.2511611381526690e-02 0.0000000000000000e+00 0.0000000000000000e+00 0.0000000000000000e+00 0.0000000000000000e+00  -6.9862857657062613e-02 -9.0737005663807380e-03 0.0000000000000000e+00 -9.0737005663807380e-03 -5.2902681488861271e-02 0.0000000000000000e+00 0.0000000000000000e+00 0.0000000000000000e+00 0.0000000000000000e+00  -6.8055067395475219e-02 -5.5940045891500253e-03 0.0000000000000000e+00 -5.5940045891500253e-03 -6.1350614996419035e-02 0.0000000000000000e+00 0.0000000000000000e+00 0.0000000000000000e+00 0.0000000000000000e+00  -6.7201658238773068e-02 -2.8023839890846040e-03 0.0000000000000000e+00 -2.8023839890846040e-03 -6.8148757869132007e-02 0.0000000000000000e+00 0.0000000000000000e+00 0.0000000000000000e+00 0.0000000000000000e+00  -6.7057199758192659e-02 -6.5157554744539928e-04 0.0000000000000000e+00 -6.5157554744539928e-04 -7.3579792336660885e-02 0.0000000000000000e+00 0.0000000000000000e+00 0.0000000000000000e+00 0.0000000000000000e+00  -6.7422459456537298e-02 9.4137540605286260e-04 0.0000000000000000e+00 9.4137540605286260e-04 -7.7896951069961334e-02 0.0000000000000000e+00 0.0000000000000000e+00 0.0000000000000000e+00 0.0000000000000000e+00  -6.8140682982868697e-02 2.0705860588753344e-03 0.0000000000000000e+00 2.0705860588753344e-03 -8.1317704230817786e-02 0.0000000000000000e+00 0.0000000000000000e+00 0.0000000000000000e+00 0.0000000000000000e+00  -6.9091080501248070e-02 2.8271406759681522e-03 0.0000000000000000e+00 2.8271406759681522e-03 -8.4024033628339101e-02 0.0000000000000000e+00 0.0000000000000000e+00 0.0000000000000000e+00 0.0000000000000000e+00  -7.0181845955212416e-02 3.2920828388425102e-03 0.0000000000000000e+00 3.2920828388425102e-03 -8.6165787634956581e-02 0.0000000000000000e+00 0.0000000000000000e+00 0.0000000000000000e+00 0.0000000000000000e+00  -7.1343857263484758e-02 3.5339723758385489e-03 0.0000000000000000e+00 3.5339723758385489e-03 -8.7865056369281769e-02 0.0000000000000000e+00 0.0000000000000000e+00 0.0000000000000000e+00 0.0000000000000000e+00  -7.2525504795759185e-02 3.6090502408837226e-03 0.0000000000000000e+00 3.6090502408837226e-03 -8.9220466599477799e-02 0.0000000000000000e+00 0.0000000000000000e+00 0.0000000000000000e+00 0.0000000000000000e+00  -7.3688709470290811e-02 3.5626497586204657e-03 0.0000000000000000e+00 3.5626497586204657e-03 -9.0310898208865009e-02 0.0000000000000000e+00 0.0000000000000000e+00 0.0000000000000000e+00 0.0000000000000000e+00  -7.4805976885764527e-02 3.4309748166798512e-03 0.0000000000000000e+00 3.4309748166798512e-03 -9.1198504276701453e-02 0.0000000000000000e+00 0.0000000000000000e+00 0.0000000000000000e+00 0.0000000000000000e+00  -7.5858231085758662e-02 3.2427418172241316e-03 0.0000000000000000e+00 3.2427418172241316e-03 -9.1931137236232113e-02 0.0000000000000000e+00 0.0000000000000000e+00 0.0000000000000000e+00 0.0000000000000000e+00  -7.6833152072912150e-02 3.0204664470133580e-03 0.0000000000000000e+00 3.0204664470133580e-03 -9.2544378968551652e-02 0.0000000000000000e+00 0.0000000000000000e+00 0.0000000000000000e+00 0.0000000000000000e+00  -7.7723786158220398e-02 2.7813742308695814e-03 0.0000000000000000e+00 2.7813742308695814e-03 -9.3063369890465680e-02 0.0000000000000000e+00 0.0000000000000000e+00 0.0000000000000000e+00 0.0000000000000000e+00  -7.8527285123245721e-02 2.5380258297110622e-03 0.0000000000000000e+00 2.5380258297110622e-03 -9.3504563236960200e-02 0.0000000000000000e+00 0.0000000000000000e+00 0.0000000000000000e+00 0.0000000000000000e+00  -7.9243730646155308e-02 2.2987777180922299e-03 0.0000000000000000e+00 2.2987777180922299e-03 -9.3877434872136442e-02 0.0000000000000000e+00 0.0000000000000000e+00 0.0000000000000000e+00 0.0000000000000000e+00  -7.9875085755926223e-02 2.0681594696132502e-03 0.0000000000000000e+00 2.0681594696132502e-03 -9.4186095117958293e-02 0.0000000000000000e+00 0.0000000000000000e+00 0.0000000000000000e+00 0.0000000000000000e+00  -8.0424364729397166e-02 1.8471637908557277e-03 0.0000000000000000e+00 1.8471637908557277e-03 -9.4430705845905114e-02 0.0000000000000000e+00 0.0000000000000000e+00 0.0000000000000000e+00 0.0000000000000000e+00  -8.0895121902442593e-02 1.6333424356811770e-03 0.0000000000000000e+00 1.6333424356811770e-03 -9.4608613054004143e-02 0.0000000000000000e+00 0.0000000000000000e+00 0.0000000000000000e+00 0.0000000000000000e+00  -8.1291341652708002e-02 1.4205029807913951e-03 0.0000000000000000e+00 1.4205029807913951e-03 -9.4715150720455790e-02 0.0000000000000000e+00 0.0000000000000000e+00 0.0000000000000000e+00 0.0000000000000000e+00  -8.1617796185693994e-02 1.1977173903648004e-03 0.0000000000000000e+00 1.1977173903648004e-03 -9.4744127097024788e-02 0.0000000000000000e+00 0.0000000000000000e+00 0.0000000000000000e+00 0.0000000000000000e+00  -8.1880965213101148e-02 9.4727557239042924e-04 0.0000000000000000e+00 9.4727557239042924e-04 -9.4688035510285609e-02 0.0000000000000000e+00 0.0000000000000000e+00 0.0000000000000000e+00 0.0000000000000000e+00  -8.2090732115868967e-02 6.4112834332731756e-04 0.0000000000000000e+00 6.4112834332731756e-04 -9.4538006987620798e-02 0.0000000000000000e+00 0.0000000000000000e+00 0.0000000000000000e+00 0.0000000000000000e+00  -8.2263355989500603e-02 2.3524445483983540e-04 0.0000000000000000e+00 2.3524445483983540e-04 -9.4283423520984261e-02 0.0000000000000000e+00 0.0000000000000000e+00 0.0000000000000000e+00 0.0000000000000000e+00  -8.2426719024690731e-02 -3.3883952236624847e-04 0.0000000000000000e+00 -3.3883952236624847e-04 -9.3911004277416832e-02 0.0000000000000000e+00 0.0000000000000000e+00 0.0000000000000000e+00 0.0000000000000000e+00  -8.2629695903139871e-02 -1.1861816729294790e-03 0.0000000000000000e+00 -1.1861816729294790e-03 -9.3403162849355945e-02 0.0000000000000000e+00 0.0000000000000000e+00 0.0000000000000000e+00 0.0000000000000000e+00  -8.2958181173387907e-02 -2.4656443431960171e-03 0.0000000000000000e+00 -2.4656443431960171e-03 -9.2736553027446531e-02 0.0000000000000000e+00 0.0000000000000000e+00 0.0000000000000000e+00 0.0000000000000000e+00  -8.3560129512647199e-02 -4.4150490536334127e-03 0.0000000000000000e+00 -4.4150490536334127e-03 -9.1886347401535812e-02 0.0000000000000000e+00 0.0000000000000000e+00 0.0000000000000000e+00 0.0000000000000000e+00  -8.4660950095633083e-02 -7.3927400945175076e-03 0.0000000000000000e+00 -7.3927400945175076e-03 -9.0871248645079034e-02 0.0000000000000000e+00 0.0000000000000000e+00 0.0000000000000000e+00 0.0000000000000000e+00  -8.6551239581800721e-02 -1.1934173599504555e-02 0.0000000000000000e+00 -1.1934173599504555e-02 -8.9913306203095761e-02 0.0000000000000000e+00 0.0000000000000000e+00 0.0000000000000000e+00 0.0000000000000000e+00  -9.1591453256334429e-02 -1.8555180092786033e-02 0.0000000000000000e+00 -1.8555180092786033e-02 -8.8948604286114633e-02 0.0000000000000000e+00 0.0000000000000000e+00 0.0000000000000000e+00 0.0000000000000000e+00  -1.4327238210175966e-01 -2.5135939579767733e-02 0.0000000000000000e+00 -2.5135939579767733e-02 -8.1772958874080523e-02 0.0000000000000000e+00 0.0000000000000000e+00 0.0000000000000000e+00 0.0000000000000000e+00  -2.6614388358844954e-01 -3.8697626667583709e-02 0.0000000000000000e+00 -3.8697626667583709e-02 -1.6302680789890261e-01 0.0000000000000000e+00 0.0000000000000000e+00 0.0000000000000000e+00 0.0000000000000000e+00  3.7771270200924045e-01 -1.4318404003204244e-02 0.0000000000000000e+00 -1.4318404003204244e-02 -1.7747249189216774e-01 0.0000000000000000e+00 0.0000000000000000e+00 0.0000000000000000e+00 0.0000000000000000e+00  1.0172232264228002e-01 -1.1408593183944772e-03 0.0000000000000000e+00 -1.1408593183944772e-03 2.1823273021811013e-01 0.0000000000000000e+00 0.0000000000000000e+00 0.0000000000000000e+00 0.0000000000000000e+00  2.0559578951390208e-03 2.3250322176922324e-04 0.0000000000000000e+00 2.3250322176922324e-04 1.2375524611317775e-02 0.0000000000000000e+00 0.0000000000000000e+00 0.0000000000000000e+00 0.0000000000000000e+00  7.6452874418812813e-03 -1.0532139820255229e-05 0.0000000000000000e+00 -1.0532139820255229e-05 8.1085036119373528e-03 0.0000000000000000e+00 0.0000000000000000e+00 0.0000000000000000e+00 0.0000000000000000e+00  7.8959566099629751e-03 9.3200670253566941e-06 0.0000000000000000e+00 9.3200670253566941e-06 7.8807027075110288e-03 0.0000000000000000e+00 0.0000000000000000e+00 0.0000000000000000e+00 0.0000000000000000e+00  7.9163129581955281e-03 3.7220429567080636e-05 0.0000000000000000e+00 3.7220429567080636e-05 7.9025600776285853e-03 0.0000000000000000e+00 0.0000000000000000e+00 0.0000000000000000e+00 0.0000000000000000e+00  7.9309752174706646e-03 -3.9020065567691097e-05 0.0000000000000000e+00 -3.9020065567691097e-05 7.9188142180969187e-03 0.0000000000000000e+00 0.0000000000000000e+00 0.0000000000000000e+00 0.0000000000000000e+00  7.9207896009809691e-03 -1.1565707036903217e-05 0.0000000000000000e+00 -1.1565707036903217e-05 7.9019400491285394e-03 0.0000000000000000e+00 0.0000000000000000e+00 0.0000000000000000e+00 0.0000000000000000e+00  7.7676051950911181e-03 5.0972965344081392e-06 0.0000000000000000e+00 5.0972965344081392e-06 8.0568691075704676e-03 0.0000000000000000e+00 0.0000000000000000e+00 0.0000000000000000e+00 0.0000000000000000e+00  3.0693304680883128e-03 -8.1796624041941414e-04 0.0000000000000000e+00 -8.1796624041941414e-04 1.1522239209374232e-02 0.0000000000000000e+00 0.0000000000000000e+00 0.0000000000000000e+00 0.0000000000000000e+00  6.3944696373374937e-02 7.8072714140860764e-03 0.0000000000000000e+00 7.8072714140860764e-03 1.8463987133528062e-01 0.0000000000000000e+00 0.0000000000000000e+00 0.0000000000000000e+00 0.0000000000000000e+00  4.1459883087976718e-01 2.6985409591712459e-02 0.0000000000000000e+00 2.6985409591712459e-02 -1.9721905307691856e-01 0.0000000000000000e+00 0.0000000000000000e+00 0.0000000000000000e+00 0.0000000000000000e+00  -2.8798831003607739e-01 5.1335030013486445e-02 0.0000000000000000e+00 5.1335030013486445e-02 -1.3268247905976999e-01 0.0000000000000000e+00 0.0000000000000000e+00 0.0000000000000000e+00 0.0000000000000000e+00  -1.8046727791660094e-01 1.7985215433883980e-02 0.0000000000000000e+00 1.7985215433883980e-02 -7.4106144929196233e-02 0.0000000000000000e+00 0.0000000000000000e+00 0.0000000000000000e+00 0.0000000000000000e+00  -1.0823106307624945e-01 1.1280945349989305e-02 0.0000000000000000e+00 1.1280945349989305e-02 -8.2095786482422925e-02 0.0000000000000000e+00 0.0000000000000000e+00 0.0000000000000000e+00 0.0000000000000000e+00  -9.5557094733868489e-02 6.9043911796363121e-03 0.0000000000000000e+00 6.9043911796363121e-03 -8.5546754768350358e-02 0.0000000000000000e+00 0.0000000000000000e+00 0.0000000000000000e+00 0.0000000000000000e+00  -9.0006611971038056e-02 4.2774813702462907e-03 0.0000000000000000e+00 4.2774813702462907e-03 -8.8083957042607353e-02 0.0000000000000000e+00 0.0000000000000000e+00 0.0000000000000000e+00 0.0000000000000000e+00  -8.6938694643659137e-02 2.4700619922886267e-03 0.0000000000000000e+00 2.4700619922886267e-03 -9.0066088835942693e-02 0.0000000000000000e+00 0.0000000000000000e+00 0.0000000000000000e+00 0.0000000000000000e+00  -8.5171279126802502e-02 1.1816670856558678e-03 0.0000000000000000e+00 1.1816670856558678e-03 -9.1529721116881971e-02 0.0000000000000000e+00 0.0000000000000000e+00 0.0000000000000000e+00 0.0000000000000000e+00  -8.4111512860330695e-02 2.6605737543444383e-04 0.0000000000000000e+00 2.6605737543444383e-04 -9.2596633617855625e-02 0.0000000000000000e+00 0.0000000000000000e+00 0.0000000000000000e+00 0.0000000000000000e+00  -8.3444275117392511e-02 -3.8724627026433272e-04 0.0000000000000000e+00 -3.8724627026433272e-04 -9.3356929056845589e-02 0.0000000000000000e+00 0.0000000000000000e+00 0.0000000000000000e+00 0.0000000000000000e+00  -8.2986427971276408e-02 -8.6498897837667451e-04 0.0000000000000000e+00 -8.6498897837667451e-04 -9.3878274888999233e-02 0.0000000000000000e+00 0.0000000000000000e+00 0.0000000000000000e+00 0.0000000000000000e+00  -8.2628511640932753e-02 -1.2315070635925210e-03 0.0000000000000000e+00 -1.2315070635925210e-03 -9.4210433444559483e-02 0.0000000000000000e+00 0.0000000000000000e+00 0.0000000000000000e+00 0.0000000000000000e+00  -8.2304405599320826e-02 -1.5320676702258525e-03 0.0000000000000000e+00 -1.5320676702258525e-03 -9.4389409873167435e-02 0.0000000000000000e+00 0.0000000000000000e+00 0.0000000000000000e+00 0.0000000000000000e+00  -8.1973984462226715e-02 -1.7973444351609808e-03 0.0000000000000000e+00 -1.7973444351609808e-03 -9.4441072288184727e-02 0.0000000000000000e+00 0.0000000000000000e+00 0.0000000000000000e+00 0.0000000000000000e+00  -8.1612715948086459e-02 -2.0476444969611419e-03 0.0000000000000000e+00 -2.0476444969611419e-03 -9.4384093568269503e-02 0.0000000000000000e+00 0.0000000000000000e+00 0.0000000000000000e+00 0.0000000000000000e+00  -8.1205299333383302e-02 -2.2961951668217765e-03 0.0000000000000000e+00 -2.2961951668217765e-03 -9.4232066190116412e-02 0.0000000000000000e+00 0.0000000000000000e+00 0.0000000000000000e+00 0.0000000000000000e+00  -8.0741666411852597e-02 -2.5513157167564994e-03 0.0000000000000000e+00 -2.5513157167564994e-03 -9.3994977655428247e-02 0.0000000000000000e+00 0.0000000000000000e+00 0.0000000000000000e+00 0.0000000000000000e+00  -8.0214511789331158e-02 -2.8175387614348723e-03 0.0000000000000000e+00 -2.8175387614348723e-03 -9.3680096808686969e-02 0.0000000000000000e+00 0.0000000000000000e+00 0.0000000000000000e+00 0.0000000000000000e+00  -7.9617926354997939e-02 -3.0958860127984866e-03 0.0000000000000000e+00 -3.0958860127984866e-03 -9.3292252250725557e-02 0.0000000000000000e+00 0.0000000000000000e+00 0.0000000000000000e+00 0.0000000000000000e+00  -7.8946902563564555e-02 -3.3835688517873121e-03 0.0000000000000000e+00 -3.3835688517873121e-03 -9.2833478837630004e-02 0.0000000000000000e+00 0.0000000000000000e+00 0.0000000000000000e+00 0.0000000000000000e+00  -7.8197536442258825e-02 -3.6733989972944432e-03 0.0000000000000000e+00 -3.6733989972944432e-03 -9.2302065540094180e-02 0.0000000000000000e+00 0.0000000000000000e+00 0.0000000000000000e+00 0.0000000000000000e+00  -7.7367730875149143e-02 -3.9531446388702141e-03 0.0000000000000000e+00 -3.9531446388702141e-03 -9.1691134750904707e-02 0.0000000000000000e+00 0.0000000000000000e+00 0.0000000000000000e+00 0.0000000000000000e+00  -7.6458175447952900e-02 -4.2049553971517523e-03 0.0000000000000000e+00 -4.2049553971517523e-03 -9.0986961478492251e-02 0.0000000000000000e+00 0.0000000000000000e+00 0.0000000000000000e+00 0.0000000000000000e+00  -7.5473389546182448e-02 -4.4048323514049182e-03 0.0000000000000000e+00 -4.4048323514049182e-03 -9.0167253629598973e-02 0.0000000000000000e+00 0.0000000000000000e+00 0.0000000000000000e+00 0.0000000000000000e+00  -7.4422693246321212e-02 -4.5219837988699574e-03 0.0000000000000000e+00 -4.5219837988699574e-03 -8.9199538531475137e-02 0.0000000000000000e+00 0.0000000000000000e+00 0.0000000000000000e+00 0.0000000000000000e+00  -7.3321110026979081e-02 -4.5178351134164416e-03 0.0000000000000000e+00 -4.5178351134164416e-03 -8.8039648227342920e-02 0.0000000000000000e+00 0.0000000000000000e+00 0.0000000000000000e+00 0.0000000000000000e+00  -7.2190376503360215e-02 -4.3444914290789276e-03 0.0000000000000000e+00 -4.3444914290789276e-03 -8.6630109861367544e-02 0.0000000000000000e+00 0.0000000000000000e+00 0.0000000000000000e+00 0.0000000000000000e+00  -7.1060396074988527e-02 -3.9426011263117315e-03 0.0000000000000000e+00 -3.9426011263117315e-03 -8.4898085395798392e-02 0.0000000000000000e+00 0.0000000000000000e+00 0.0000000000000000e+00 0.0000000000000000e+00  -6.9971590415417589e-02 -3.2388302148088390e-03 0.0000000000000000e+00 -3.2388302148088390e-03 -8.2752419230185351e-02 0.0000000000000000e+00 0.0000000000000000e+00 0.0000000000000000e+00 0.0000000000000000e+00  -6.8978658816062036e-02 -2.1435173692395180e-03 0.0000000000000000e+00 -2.1435173692395180e-03 -8.0079375007209311e-02 0.0000000000000000e+00 0.0000000000000000e+00 0.0000000000000000e+00 0.0000000000000000e+00  -6.8156253987839255e-02 -5.4953278037829587e-04 0.0000000000000000e+00 -5.4953278037829587e-04 -7.6736785460348608e-02 0.0000000000000000e+00 0.0000000000000000e+00 0.0000000000000000e+00 0.0000000000000000e+00  -6.7607029953596603e-02 1.6660637603805773e-03 0.0000000000000000e+00 1.6660637603805773e-03 -7.2546614176357910e-02 0.0000000000000000e+00 0.0000000000000000e+00 0.0000000000000000e+00 0.0000000000000000e+00  -6.7472380612531413e-02 4.6352210117092440e-03 0.0000000000000000e+00 4.6352210117092440e-03 -6.7286394573039962e-02 0.0000000000000000e+00 0.0000000000000000e+00 0.0000000000000000e+00 0.0000000000000000e+00  -6.7945867185028402e-02 8.4836215942656629e-03 0.0000000000000000e+00 8.4836215942656629e-03 -6.0680812938457653e-02 0.0000000000000000e+00 0.0000000000000000e+00 0.0000000000000000e+00 0.0000000000000000e+00  -6.9288380408227088e-02 1.3302390321004704e-02 0.0000000000000000e+00 1.3302390321004704e-02 -5.2396324531142902e-02 0.0000000000000000e+00 0.0000000000000000e+00 0.0000000000000000e+00 0.0000000000000000e+00  -7.1842578306693397e-02 1.9101172340730350e-02 0.0000000000000000e+00 1.9101172340730350e-02 -4.2044056805668667e-02 0.0000000000000000e+00 0.0000000000000000e+00 0.0000000000000000e+00 0.0000000000000000e+00  -7.6038660761316545e-02 2.5736273200525562e-02 0.0000000000000000e+00 2.5736273200525562e-02 -2.9202881188382476e-02 0.0000000000000000e+00 0.0000000000000000e+00 0.0000000000000000e+00 0.0000000000000000e+00  -8.2380185631655597e-02 3.2811839210824825e-02 0.0000000000000000e+00 3.2811839210824825e-02 -1.3477402489988506e-02 0.0000000000000000e+00 0.0000000000000000e+00 0.0000000000000000e+00 0.0000000000000000e+00  -9.1378631410714534e-02 3.9555291380711191e-02 0.0000000000000000e+00 3.9555291380711191e-02 5.3719301871280973e-03 0.0000000000000000e+00 0.0000000000000000e+00 0.0000000000000000e+00 0.0000000000000000e+00  -1.0338677670549939e-01 4.4707976926330745e-02 0.0000000000000000e+00 4.4707976926330745e-02 2.7190880482926172e-02 0.0000000000000000e+00 0.0000000000000000e+00 0.0000000000000000e+00 0.0000000000000000e+00  -1.1834754888247462e-01 4.6498826342428634e-02 0.0000000000000000e+00 4.6498826342428634e-02 5.1091443264809133e-02 0.0000000000000000e+00 0.0000000000000000e+00 0.0000000000000000e+00 0.0000000000000000e+00  -1.3518787082034484e-01 4.2899682870678184e-02 0.0000000000000000e+00 4.2899682870678184e-02 7.4797115291797403e-02 0.0000000000000000e+00 0.0000000000000000e+00 0.0000000000000000e+00 0.0000000000000000e+00  -1.5431209938277171e-01 3.2653606011227174e-02 0.0000000000000000e+00 3.2653606011227174e-02 9.5691956017527460e-02 0.0000000000000000e+00 0.0000000000000000e+00 0.0000000000000000e+00 0.0000000000000000e+00  -2.0986168759062054e-01 1.6712810177208888e-02 0.0000000000000000e+00 1.6712810177208888e-02 1.1110996009233297e-01 0.0000000000000000e+00 0.0000000000000000e+00 0.0000000000000000e+00 0.0000000000000000e+00  -3.1198843720486358e-01 -2.4815431210369222e-04 0.0000000000000000e+00 -2.4815431210369222e-04 8.3156952137726572e-02 0.0000000000000000e+00 0.0000000000000000e+00 0.0000000000000000e+00 0.0000000000000000e+00  1.4154839564095066e-02 -1.0550136221391589e-02 0.0000000000000000e+00 -1.0550136221391589e-02 -9.3013518303254855e-02 0.0000000000000000e+00 0.0000000000000000e+00 0.0000000000000000e+00 0.0000000000000000e+00  -3.0063759727161421e-01 -2.4071976363999419e-02 0.0000000000000000e+00 -2.4071976363999419e-02 7.4927607908529315e-02 0.0000000000000000e+00 0.0000000000000000e+00 0.0000000000000000e+00 0.0000000000000000e+00  -1.8530970459552909e-01 -3.4874015515955509e-02 0.0000000000000000e+00 -3.4874015515955509e-02 9.2400907574128902e-02 0.0000000000000000e+00 0.0000000000000000e+00 0.0000000000000000e+00 0.0000000000000000e+00  -1.2827731434082879e-01 -4.2356547242722885e-02 0.0000000000000000e+00 -4.2356547242722885e-02 6.6323024524404722e-02 0.0000000000000000e+00 0.0000000000000000e+00 0.0000000000000000e+00 0.0000000000000000e+00  -1.1057393183702852e-01 -4.4365901675115650e-02 0.0000000000000000e+00 -4.4365901675115650e-02 4.1917125662483214e-02 0.0000000000000000e+00 0.0000000000000000e+00 0.0000000000000000e+00 0.0000000000000000e+00  -9.7001391514481339e-02 -4.1790348785693224e-02 0.0000000000000000e+00 -4.1790348785693224e-02 1.8639543464566959e-02 0.0000000000000000e+00 0.0000000000000000e+00 0.0000000000000000e+00 0.0000000000000000e+00  -8.6219360700367842e-02 -3.6330062573699751e-02 0.0000000000000000e+00 -3.6330062573699751e-02 -2.4024115953223254e-03 0.0000000000000000e+00 0.0000000000000000e+00 0.0000000000000000e+00 0.0000000000000000e+00  -7.8249357274371309e-02 -2.9560126816605397e-02 0.0000000000000000e+00 -2.9560126816605397e-02 -2.0438468855307212e-02 0.0000000000000000e+00 0.0000000000000000e+00 0.0000000000000000e+00 0.0000000000000000e+00  -7.2776560102111101e-02 -2.2638670891354361e-02 0.0000000000000000e+00 -2.2638670891354361e-02 -3.5355167128486409e-02 0.0000000000000000e+00 0.0000000000000000e+00 0.0000000000000000e+00 0.0000000000000000e+00  -6.9313719721055989e-02 -1.6268368150318180e-02 0.0000000000000000e+00 -1.6268368150318180e-02 -4.7422700781566782e-02 0.0000000000000000e+00 0.0000000000000000e+00 0.0000000000000000e+00 0.0000000000000000e+00  -6.7371496317740795e-02 -1.0793781077161156e-02 0.0000000000000000e+00 -1.0793781077161156e-02 -5.7058408724030944e-02 0.0000000000000000e+00 0.0000000000000000e+00 0.0000000000000000e+00 0.0000000000000000e+00  -6.6532362414036886e-02 -6.3204509051679554e-03 0.0000000000000000e+00 -6.3204509051679554e-03 -6.4696068663395459e-02 0.0000000000000000e+00 0.0000000000000000e+00 0.0000000000000000e+00 0.0000000000000000e+00  -6.6466814381263520e-02 -2.8120549964048909e-03 0.0000000000000000e+00 -2.8120549964048909e-03 -7.0728845448478697e-02 0.0000000000000000e+00 0.0000000000000000e+00 0.0000000000000000e+00 0.0000000000000000e+00  -6.6927450491109250e-02 -1.6038799597250768e-04 0.0000000000000000e+00 -1.6038799597250768e-04 -7.5488634944067198e-02 0.0000000000000000e+00 0.0000000000000000e+00 0.0000000000000000e+00 0.0000000000000000e+00  -6.7733805058932464e-02 1.7697575091774784e-03 0.0000000000000000e+00 1.7697575091774784e-03 -7.9245481948305038e-02 0.0000000000000000e+00 0.0000000000000000e+00 0.0000000000000000e+00 0.0000000000000000e+00  -6.8756532871018364e-02 3.1143195947907973e-03 0.0000000000000000e+00 3.1143195947907973e-03 -8.2214810598399579e-02 0.0000000000000000e+00 0.0000000000000000e+00 0.0000000000000000e+00 0.0000000000000000e+00  -6.9903591246503083e-02 3.9964703731502202e-03 0.0000000000000000e+00 3.9964703731502202e-03 -8.4567108860688717e-02 0.0000000000000000e+00 0.0000000000000000e+00 0.0000000000000000e+00 0.0000000000000000e+00  -7.1109363226901756e-02 4.5212427566404256e-03 0.0000000000000000e+00 4.5212427566404256e-03 -8.6437259120301937e-02 0.0000000000000000e+00 0.0000000000000000e+00 0.0000000000000000e+00 0.0000000000000000e+00  -7.2326649341391727e-02 4.7749390129225395e-03 0.0000000000000000e+00 4.7749390129225395e-03 -8.7932380139984764e-02 0.0000000000000000e+00 0.0000000000000000e+00 0.0000000000000000e+00 0.0000000000000000e+00  -7.3521135660225084e-02 4.8270163560183111e-03 0.0000000000000000e+00 4.8270163560183111e-03 -8.9137837814604368e-02 0.0000000000000000e+00 0.0000000000000000e+00 0.0000000000000000e+00 0.0000000000000000e+00  -7.4667825545874728e-02 4.7329157193984903e-03 0.0000000000000000e+00 4.7329157193984903e-03 -9.0121522177404351e-02 0.0000000000000000e+00 0.0000000000000000e+00 0.0000000000000000e+00 0.0000000000000000e+00  -7.5748888976345879e-02 4.5368744990845885e-03 0.0000000000000000e+00 4.5368744990845885e-03 -9.0936734487881338e-02 0.0000000000000000e+00 0.0000000000000000e+00 0.0000000000000000e+00 0.0000000000000000e+00  -7.6752397544526452e-02 4.2742102410236391e-03 0.0000000000000000e+00 4.2742102410236391e-03 -9.1624147181576646e-02 0.0000000000000000e+00 0.0000000000000000e+00 0.0000000000000000e+00 0.0000000000000000e+00  -7.7671480372361712e-02 3.9729110017747479e-03 0.0000000000000000e+00 3.9729110017747479e-03 -9.2213304731970383e-02 0.0000000000000000e+00 0.0000000000000000e+00 0.0000000000000000e+00 0.0000000000000000e+00  -7.8503560222286398e-02 3.6546190496151145e-03 0.0000000000000000e+00 3.6546190496151145e-03 -9.2724035959132048e-02 0.0000000000000000e+00 0.0000000000000000e+00 0.0000000000000000e+00 0.0000000000000000e+00  -7.9249494787299132e-02 3.3352340486924289e-03 0.0000000000000000e+00 3.3352340486924289e-03 -9.3167978710725893e-02 0.0000000000000000e+00 0.0000000000000000e+00 0.0000000000000000e+00 0.0000000000000000e+00  -7.9912621351231172e-02 3.0253844627213013e-03 0.0000000000000000e+00 3.0253844627213013e-03 -9.3550227091511493e-02 0.0000000000000000e+00 0.0000000000000000e+00 0.0000000000000000e+00 0.0000000000000000e+00  -8.0497843369370506e-02 2.7309378680961519e-03 0.0000000000000000e+00 2.7309378680961519e-03 -9.3870956179522402e-02 0.0000000000000000e+00 0.0000000000000000e+00 0.0000000000000000e+00 0.0000000000000000e+00  -8.1010975663067711e-02 2.4535812660682558e-03 0.0000000000000000e+00 2.4535812660682558e-03 -9.4126801597554446e-02 0.0000000000000000e+00 0.0000000000000000e+00 0.0000000000000000e+00 0.0000000000000000e+00  -8.1458576458672258e-02 2.1913526843918866e-03 0.0000000000000000e+00 2.1913526843918866e-03 -9.4311783102536420e-02 0.0000000000000000e+00 0.0000000000000000e+00 0.0000000000000000e+00 0.0000000000000000e+00  -8.1848465495567971e-02 1.9388916666505734e-03 0.0000000000000000e+00 1.9388916666505745e-03 -9.4417638869765036e-02 0.0000000000000000e+00 0.0000000000000000e+00 0.0000000000000000e+00 0.0000000000000000e+00  -8.2191107752494788e-02 1.6871252815855383e-03 0.0000000000000000e+00 1.6871252815855383e-03 -9.4433532949167051e-02 0.0000000000000000e+00 0.0000000000000000e+00 0.0000000000000000e+00 0.0000000000000000e+00  -8.2502099980938853e-02 1.4221202604613157e-03 0.0000000000000000e+00 1.4221202604613157e-03 -9.4345154268876089e-02 0.0000000000000000e+00 0.0000000000000000e+00 0.0000000000000000e+00 0.0000000000000000e+00  -8.2806193965062988e-02 1.1228965350138136e-03 0.0000000000000000e+00 1.1228965350138136e-03 -9.4133218822212025e-02 0.0000000000000000e+00 0.0000000000000000e+00 0.0000000000000000e+00 0.0000000000000000e+00  -8.3143700133761350e-02 7.5813632513569448e-04 0.0000000000000000e+00 7.5813632513569448e-04 -9.3771316420972584e-02 0.0000000000000000e+00 0.0000000000000000e+00 0.0000000000000000e+00 0.0000000000000000e+00  -8.3580961155897207e-02 2.8196149193624744e-04 0.0000000000000000e+00 2.8196149193624744e-04 -9.3222908311297176e-02 0.0000000000000000e+00 0.0000000000000000e+00 0.0000000000000000e+00 0.0000000000000000e+00  -8.4227811149801768e-02 -3.7052681827623928e-04 0.0000000000000000e+00 -3.7052681827623928e-04 -9.2437621147874904e-02 0.0000000000000000e+00 0.0000000000000000e+00 0.0000000000000000e+00 0.0000000000000000e+00  -8.5268096419458761e-02 -1.2865448359442469e-03 0.0000000000000000e+00 -1.2865448359442469e-03 -9.1346993855491221e-02 0.0000000000000000e+00 0.0000000000000000e+00 0.0000000000000000e+00 0.0000000000000000e+00  -8.7018256416693071e-02 -2.5768296060838932e-03 0.0000000000000000e+00 -2.5768296060838932e-03 -8.9859850512900283e-02 0.0000000000000000e+00 0.0000000000000000e+00 0.0000000000000000e+00 0.0000000000000000e+00  -9.0073595060190609e-02 -4.3873592000980201e-03 0.0000000000000000e+00 -4.3873592000980201e-03 -8.7852964367674258e-02 0.0000000000000000e+00 0.0000000000000000e+00 0.0000000000000000e+00 0.0000000000000000e+00  -9.5621447264874745e-02 -7.0173093276655416e-03 0.0000000000000000e+00 -7.0173093276655416e-03 -8.5287323572106083e-02 0.0000000000000000e+00 0.0000000000000000e+00 0.0000000000000000e+00 0.0000000000000000e+00  -1.0832147865546937e-01 -1.1394297383915042e-02 0.0000000000000000e+00 -1.1394297383915042e-02 -8.1799302489797776e-02 0.0000000000000000e+00 0.0000000000000000e+00 0.0000000000000000e+00 0.0000000000000000e+00  -1.8069188271832348e-01 -1.8105107296946289e-02 0.0000000000000000e+00 -1.8105107296946289e-02 -7.3825780263348906e-02 0.0000000000000000e+00 0.0000000000000000e+00 0.0000000000000000e+00 0.0000000000000000e+00  -2.8802365514987466e-01 -5.1442818274361070e-02 0.0000000000000000e+00 -5.1442818274361070e-02 -1.3239519720756959e-01 0.0000000000000000e+00 0.0000000000000000e+00 0.0000000000000000e+00 0.0000000000000000e+00  4.1476881018326783e-01 -2.6951518141051980e-02 0.0000000000000000e+00 -2.6951518141051980e-02 -1.9654203939096623e-01 0.0000000000000000e+00 0.0000000000000000e+00 0.0000000000000000e+00 0.0000000000000000e+00  6.3800449657849131e-02 -7.8365706299220374e-03 0.0000000000000000e+00 -7.8365706299220374e-03 1.8448378882307137e-01 0.0000000000000000e+00 0.0000000000000000e+00 0.0000000000000000e+00 0.0000000000000000e+00  3.1090914331171199e-03 8.0659792296710535e-04 0.0000000000000000e+00 8.0659792296710535e-04 1.1511734362606538e-02 0.0000000000000000e+00 0.0000000000000000e+00 0.0000000000000000e+00 0.0000000000000000e+00  7.7044481364407207e-03 -7.7952745099494065e-06 0.0000000000000000e+00 -7.7952745099494065e-06 7.9941134114476110e-03 0.0000000000000000e+00 0.0000000000000000e+00 0.0000000000000000e+00 0.0000000000000000e+00  7.8702000217758857e-03 1.1353730003032979e-05 0.0000000000000000e+00 1.1353730003032979e-05 7.8551226258739681e-03 0.0000000000000000e+00 0.0000000000000000e+00 0.0000000000000000e+00 0.0000000000000000e+00  7.8792861334902355e-03 4.3831117633656784e-05 0.0000000000000000e+00 4.3831117633656784e-05 7.8684728049529216e-03 0.0000000000000000e+00 0.0000000000000000e+00 0.0000000000000000e+00 0.0000000000000000e+00  7.8955206420428543e-03 -4.3593017656922691e-05 0.0000000000000000e+00 -4.3593017656922691e-05 7.8873181591775973e-03 0.0000000000000000e+00 0.0000000000000000e+00 0.0000000000000000e+00 0.0000000000000000e+00  7.8906607959764799e-03 -1.8331569027744247e-05 0.0000000000000000e+00 -1.8331569027744247e-05 7.8748521788350647e-03 0.0000000000000000e+00 0.0000000000000000e+00 0.0000000000000000e+00 0.0000000000000000e+00  7.7767163999824702e-03 4.1097522039323272e-05 0.0000000000000000e+00 4.1097522039323272e-05 7.9572964338633142e-03 0.0000000000000000e+00 0.0000000000000000e+00 0.0000000000000000e+00 0.0000000000000000e+00  5.0099482046999733e-03 -1.4632928127220350e-03 0.0000000000000000e+00 -1.4632928127220350e-03 1.0657396974413619e-02 0.0000000000000000e+00 0.0000000000000000e+00 0.0000000000000000e+00 0.0000000000000000e+00  2.3458277115973557e-02 1.6365451419773306e-02 0.0000000000000000e+00 1.6365451419773306e-02 1.2573950816878177e-01 0.0000000000000000e+00 0.0000000000000000e+00 0.0000000000000000e+00 0.0000000000000000e+00  3.6985920665283351e-01 1.0630796968852493e-02 0.0000000000000000e+00 1.0630796968852493e-02 -1.8909374115733660e-01 0.0000000000000000e+00 0.0000000000000000e+00 0.0000000000000000e+00 0.0000000000000000e+00  -2.5028210342616319e-01 1.4696848679381088e-02 0.0000000000000000e+00 1.4696848679381088e-02 -5.5581865691262888e-02 0.0000000000000000e+00 0.0000000000000000e+00 0.0000000000000000e+00 0.0000000000000000e+00  -2.0285535568839216e-01 -8.6455271297023271e-03 0.0000000000000000e+00 -8.6455271297023271e-03 -7.8413605631411490e-02 0.0000000000000000e+00 0.0000000000000000e+00 0.0000000000000000e+00 0.0000000000000000e+00  -1.1302787166064852e-01 -2.9415402580225017e-03 0.0000000000000000e+00 -2.9415402580225017e-03 -7.9495947624712696e-02 0.0000000000000000e+00 0.0000000000000000e+00 0.0000000000000000e+00 0.0000000000000000e+00  -9.7829552988542193e-02 -5.8281095647937900e-04 0.0000000000000000e+00 -5.8281095647937900e-04 -8.4062883716946007e-02 0.0000000000000000e+00 0.0000000000000000e+00 0.0000000000000000e+00 0.0000000000000000e+00  -9.1894866214102422e-02 -7.4105605295498073e-05 0.0000000000000000e+00 -7.4105605295498073e-05 -8.6998446823228479e-02 0.0000000000000000e+00 0.0000000000000000e+00 0.0000000000000000e+00 0.0000000000000000e+00  -8.8628039156953844e-02 -2.5100430060141804e-04 0.0000000000000000e+00 -2.5100430060141804e-04 -8.9109765247782080e-02 0.0000000000000000e+00 0.0000000000000000e+00 0.0000000000000000e+00 0.0000000000000000e+00  -8.6574916381110242e-02 -6.0302959393081386e-04 0.0000000000000000e+00 -6.0302959393081386e-04 -9.0740531534614047e-02 0.0000000000000000e+00 0.0000000000000000e+00 0.0000000000000000e+00 0.0000000000000000e+00  -8.5255084176158402e-02 -9.6072365421300812e-04 0.0000000000000000e+00 -9.6072365421300812e-04 -9.1966263904123005e-02 0.0000000000000000e+00 0.0000000000000000e+00 0.0000000000000000e+00 0.0000000000000000e+00  -8.4391368514917839e-02 -1.2824755191199245e-03 0.0000000000000000e+00 -1.2824755191199245e-03 -9.2847486901219051e-02 0.0000000000000000e+00 0.0000000000000000e+00 0.0000000000000000e+00 0.0000000000000000e+00  -8.3798202273202102e-02 -1.5680122001369818e-03 0.0000000000000000e+00 -1.5680122001369818e-03 -9.3450627566031022e-02 0.0000000000000000e+00 0.0000000000000000e+00 0.0000000000000000e+00 0.0000000000000000e+00  -8.3354304419554701e-02 -1.8289997945374853e-03 0.0000000000000000e+00 -1.8289997945374853e-03 -9.3833179539873052e-02 0.0000000000000000e+00 0.0000000000000000e+00 0.0000000000000000e+00 0.0000000000000000e+00  -8.2981971663365642e-02 -2.0782699022666145e-03 0.0000000000000000e+00 -2.0782699022666145e-03 -9.4039452742695012e-02 0.0000000000000000e+00 0.0000000000000000e+00 0.0000000000000000e+00 0.0000000000000000e+00  -8.2631895550109552e-02 -2.3265547906247894e-03 0.0000000000000000e+00 -2.3265547906247894e-03 -9.4102301944137948e-02 0.0000000000000000e+00 0.0000000000000000e+00 0.0000000000000000e+00 0.0000000000000000e+00  -8.2273201074168786e-02 -2.5821001852946307e-03 0.0000000000000000e+00 -2.5821001852946307e-03 -9.4045407032721726e-02 0.0000000000000000e+00 0.0000000000000000e+00 0.0000000000000000e+00 0.0000000000000000e+00  -8.1886442244215180e-02 -2.8511765607691858e-03 0.0000000000000000e+00 -2.8511765607691858e-03 -9.3885790690676582e-02 0.0000000000000000e+00 0.0000000000000000e+00 0.0000000000000000e+00 0.0000000000000000e+00  -8.1458738452874574e-02 -3.1384444414683773e-03 0.0000000000000000e+00 -3.1384444414683773e-03 -9.3636049260681531e-02 0.0000000000000000e+00 0.0000000000000000e+00 0.0000000000000000e+00 0.0000000000000000e+00  -8.0980493414268676e-02 -3.4467928308979791e-03 0.0000000000000000e+00 -3.4467928308979791e-03 -9.3306009572672155e-02 0.0000000000000000e+00 0.0000000000000000e+00 0.0000000000000000e+00 0.0000000000000000e+00  -8.0443392519207596e-02 -3.7765843167887137e-03 0.0000000000000000e+00 -3.7765843167887137e-03 -9.2903623952735756e-02 0.0000000000000000e+00 0.0000000000000000e+00 0.0000000000000000e+00 0.0000000000000000e+00  -7.9839524103241216e-02 -4.1244893195610255e-03 0.0000000000000000e+00 -4.1244893195610255e-03 -9.2434952023478081e-02 0.0000000000000000e+00 0.0000000000000000e+00 0.0000000000000000e+00 0.0000000000000000e+00  -7.9161444764443298e-02 -4.4822238377028581e-03 0.0000000000000000e+00 -4.4822238377028581e-03 -9.1903241987824097e-02 0.0000000000000000e+00 0.0000000000000000e+00 0.0000000000000000e+00 0.0000000000000000e+00  -7.8402911428464436e-02 -4.8354969143313328e-03 0.0000000000000000e+00 -4.8354969143313328e-03 -9.1307322940700542e-02 0.0000000000000000e+00 0.0000000000000000e+00 0.0000000000000000e+00 0.0000000000000000e+00  -7.7559907064560327e-02 -5.1633309195918773e-03 0.0000000000000000e+00 -5.1633309195918773e-03 -9.0639683816677766e-02 0.0000000000000000e+00 0.0000000000000000e+00 0.0000000000000000e+00 0.0000000000000000e+00  -7.6631572721373595e-02 -5.4376880355702590e-03 0.0000000000000000e+00 -5.4376880355702590e-03 -8.9884657629081322e-02 0.0000000000000000e+00 0.0000000000000000e+00 0.0000000000000000e+00 0.0000000000000000e+00  -7.5620765062065720e-02 -5.6231053984690362e-03 0.0000000000000000e+00 -5.6231053984690362e-03 -8.9017011548424549e-02 0.0000000000000000e+00 0.0000000000000000e+00 0.0000000000000000e+00 0.0000000000000000e+00  -7.4534175585898449e-02 -5.6758999162969462e-03 0.0000000000000000e+00 -5.6758999162969462e-03 -8.8000983761057527e-02 0.0000000000000000e+00 0.0000000000000000e+00 0.0000000000000000e+00 0.0000000000000000e+00  -7.3382223120857001e-02 -5.5425166733346857e-03 0.0000000000000000e+00 -5.5425166733346857e-03 -8.6789479038189940e-02 0.0000000000000000e+00 0.0000000000000000e+00 0.0000000000000000e+00 0.0000000000000000e+00  -7.2179195629388904e-02 -5.1567801578751475e-03 0.0000000000000000e+00 -5.1567801578751475e-03 -8.5322831683007028e-02 0.0000000000000000e+00 0.0000000000000000e+00 0.0000000000000000e+00 0.0000000000000000e+00  -7.0944316540334937e-02 -4.4361371740407989e-03 0.0000000000000000e+00 -4.4361371740407989e-03 -8.3526346771121016e-02 0.0000000000000000e+00 0.0000000000000000e+00 0.0000000000000000e+00 0.0000000000000000e+00  -6.9704531652212451e-02 -3.2774036795942397e-03 0.0000000000000000e+00 -3.2774036795942397e-03 -8.1305772238000215e-02 0.0000000000000000e+00 0.0000000000000000e+00 0.0000000000000000e+00 0.0000000000000000e+00  -6.8499891092470164e-02 -1.5530104267601559e-03 0.0000000000000000e+00 -1.5530104267601559e-03 -7.8539917237532758e-02 0.0000000000000000e+00 0.0000000000000000e+00 0.0000000000000000e+00 0.0000000000000000e+00  -6.7392506455129036e-02 8.9068840693725380e-04 0.0000000000000000e+00 8.9068840693725380e-04 -7.5069770409306971e-02 0.0000000000000000e+00 0.0000000000000000e+00 0.0000000000000000e+00 0.0000000000000000e+00  -6.6480241662136882e-02 4.2307109007322435e-03 0.0000000000000000e+00 4.2307109007322426e-03 -7.0683689697707483e-02 0.0000000000000000e+00 0.0000000000000000e+00 0.0000000000000000e+00 0.0000000000000000e+00  -6.5916480953343626e-02 8.6568458590709271e-03 0.0000000000000000e+00 8.6568458590709271e-03 -6.5098682295328517e-02 0.0000000000000000e+00 0.0000000000000000e+00 0.0000000000000000e+00 0.0000000000000000e+00  -6.5937464090650821e-02 1.4347823257024559e-02 0.0000000000000000e+00 1.4347823257024559e-02 -5.7938717531704230e-02 0.0000000000000000e+00 0.0000000000000000e+00 0.0000000000000000e+00 0.0000000000000000e+00  -6.6896716405769732e-02 2.1426303324451109e-02 0.0000000000000000e+00 2.1426303324451109e-02 -4.8714642920220597e-02 0.0000000000000000e+00 0.0000000000000000e+00 0.0000000000000000e+00 0.0000000000000000e+00  -6.9307455139413165e-02 2.9881882292185063e-02 0.0000000000000000e+00 2.9881882292185063e-02 -3.6811157496463943e-02 0.0000000000000000e+00 0.0000000000000000e+00 0.0000000000000000e+00 0.0000000000000000e+00  -7.3870929801897120e-02 3.9446632781266200e-02 0.0000000000000000e+00 3.9446632781266200e-02 -2.1515353779700128e-02 0.0000000000000000e+00 0.0000000000000000e+00 0.0000000000000000e+00 0.0000000000000000e+00  -8.1495166949410558e-02 4.9416375348009578e-02 0.0000000000000000e+00 4.9416375348009578e-02 -2.0852964793677915e-03 0.0000000000000000e+00 0.0000000000000000e+00 0.0000000000000000e+00 0.0000000000000000e+00  -9.3202575983908242e-02 5.8402484420479253e-02 0.0000000000000000e+00 5.8402484420479253e-02 2.1988926876751993e-02 0.0000000000000000e+00 0.0000000000000000e+00 0.0000000000000000e+00 0.0000000000000000e+00  -1.0976283270300446e-01 6.4027574350954686e-02 0.0000000000000000e+00 6.4027574350954686e-02 5.0488904752091647e-02 0.0000000000000000e+00 0.0000000000000000e+00 0.0000000000000000e+00 0.0000000000000000e+00  -1.3168989073019974e-01 6.3018054070082527e-02 0.0000000000000000e+00 6.3018054070082527e-02 8.1976293550318657e-02 0.0000000000000000e+00 0.0000000000000000e+00 0.0000000000000000e+00 0.0000000000000000e+00  -1.5849811926924504e-01 5.1218505679966053e-02 0.0000000000000000e+00 5.1218505679966053e-02 1.1163320921748002e-01 0.0000000000000000e+00 0.0000000000000000e+00 0.0000000000000000e+00 0.0000000000000000e+00  -2.2383576940744621e-01 2.8584731133545989e-02 0.0000000000000000e+00 2.8584731133545989e-02 1.3095351383368170e-01 0.0000000000000000e+00 0.0000000000000000e+00 0.0000000000000000e+00 0.0000000000000000e+00  -3.2385773759171232e-01 -3.2192640165241426e-03 0.0000000000000000e+00 -3.2192640165241426e-03 9.9719670731868007e-02 0.0000000000000000e+00 0.0000000000000000e+00 0.0000000000000000e+00 0.0000000000000000e+00  7.6383319434074311e-03 -1.5038714226357783e-02 0.0000000000000000e+00 -1.5038714226357783e-02 -8.6485594160202350e-02 0.0000000000000000e+00 0.0000000000000000e+00 0.0000000000000000e+00 0.0000000000000000e+00  -3.0870803553474035e-01 -3.4652041504821707e-02 0.0000000000000000e+00 -3.4652041504821707e-02 8.6223504098610002e-02 0.0000000000000000e+00 0.0000000000000000e+00 0.0000000000000000e+00 0.0000000000000000e+00  -1.8656689093169573e-01 -5.0530678378804955e-02 0.0000000000000000e+00 -5.0530678378804955e-02 1.0368768506729781e-01 0.0000000000000000e+00 0.0000000000000000e+00 0.0000000000000000e+00 0.0000000000000000e+00  -1.2483268830920763e-01 -5.9945468505656706e-02 0.0000000000000000e+00 -5.9945468505656706e-02 7.1847776235486535e-02 0.0000000000000000e+00 0.0000000000000000e+00 0.0000000000000000e+00 0.0000000000000000e+00  -1.0271268815862200e-01 -5.9969365581276815e-02 0.0000000000000000e+00 -5.9969365581276815e-02 4.0490422596011363e-02 0.0000000000000000e+00 0.0000000000000000e+00 0.0000000000000000e+00 0.0000000000000000e+00  -8.7719687865890003e-02 -5.4078003067004228e-02 0.0000000000000000e+00 -5.4078003067004228e-02 1.3111656036880916e-02 0.0000000000000000e+00 0.0000000000000000e+00 0.0000000000000000e+00 0.0000000000000000e+00  -7.7271542479015756e-02 -4.5069623548744761e-02 0.0000000000000000e+00 -4.5069623548744761e-02 -9.8863427711862965e-03 0.0000000000000000e+00 0.0000000000000000e+00 0.0000000000000000e+00 0.0000000000000000e+00  -7.0642838929349194e-02 -3.5273525000954833e-02 0.0000000000000000e+00 -3.5273525000954833e-02 -2.8306898577403733e-02 0.0000000000000000e+00 0.0000000000000000e+00 0.0000000000000000e+00 0.0000000000000000e+00  -6.6891772232500868e-02 -2.6022373515876836e-02 0.0000000000000000e+00 -2.6022373515876836e-02 -4.2667133966083681e-02 0.0000000000000000e+00 0.0000000000000000e+00 0.0000000000000000e+00 0.0000000000000000e+00  -6.5138084821943873e-02 -1.7970120663480287e-02 0.0000000000000000e+00 -1.7970120663480287e-02 -5.3724459658210759e-02 0.0000000000000000e+00 0.0000000000000000e+00 0.0000000000000000e+00 0.0000000000000000e+00  -6.4701484408011711e-02 -1.1336736953033062e-02 0.0000000000000000e+00 -1.1336736953033062e-02 -6.2203122324517572e-02 0.0000000000000000e+00 0.0000000000000000e+00 0.0000000000000000e+00 0.0000000000000000e+00  -6.5089003371635229e-02 -6.0948468180009284e-03 0.0000000000000000e+00 -6.0948468180009284e-03 -6.8719210562251845e-02 0.0000000000000000e+00 0.0000000000000000e+00 0.0000000000000000e+00 0.0000000000000000e+00  -6.5966953325967220e-02 -2.0954366432037134e-03 0.0000000000000000e+00 -2.0954366432037134e-03 -7.3755367037152617e-02 0.0000000000000000e+00 0.0000000000000000e+00 0.0000000000000000e+00 0.0000000000000000e+00  -6.7117490266244306e-02 8.5616038733422320e-04 0.0000000000000000e+00 8.5616038733422320e-04 -7.7677043778126065e-02 0.0000000000000000e+00 0.0000000000000000e+00 0.0000000000000000e+00 0.0000000000000000e+00  -6.8403340002075333e-02 2.9574456229303171e-03 0.0000000000000000e+00 2.9574456229303171e-03 -8.0755245796638661e-02 0.0000000000000000e+00 0.0000000000000000e+00 0.0000000000000000e+00 0.0000000000000000e+00  -6.9740082359537992e-02 4.3873077476028841e-03 0.0000000000000000e+00 4.3873077476028841e-03 -8.3189939408485750e-02 0.0000000000000000e+00 0.0000000000000000e+00 0.0000000000000000e+00 0.0000000000000000e+00  -7.1076421228699629e-02 5.2975000887716334e-03 0.0000000000000000e+00 5.2975000887716334e-03 -8.5129676067893525e-02 0.0000000000000000e+00 0.0000000000000000e+00 0.0000000000000000e+00 0.0000000000000000e+00  -7.2380766397372925e-02 5.8115541515221629e-03 0.0000000000000000e+00 5.8115541515221629e-03 -8.6686754696334412e-02 0.0000000000000000e+00 0.0000000000000000e+00 0.0000000000000000e+00 0.0000000000000000e+00  -7.3632652781015565e-02 6.0276279508898458e-03 0.0000000000000000e+00 6.0276279508898458e-03 -8.7948120408268438e-02 0.0000000000000000e+00 0.0000000000000000e+00 0.0000000000000000e+00 0.0000000000000000e+00  -7.4817749034998743e-02 6.0230277057850114e-03 0.0000000000000000e+00 6.0230277057850114e-03 -8.8982589510789134e-02 0.0000000000000000e+00 0.0000000000000000e+00 0.0000000000000000e+00 0.0000000000000000e+00  -7.5925427643162083e-02 5.8589280912411555e-03 0.0000000000000000e+00 5.8589280912411555e-03 -8.9845150253014705e-02 0.0000000000000000e+00 0.0000000000000000e+00 0.0000000000000000e+00 0.0000000000000000e+00  -7.6948000978685122e-02 5.5843804694621444e-03 0.0000000000000000e+00 5.5843804694621444e-03 -9.0579184398409313e-02 0.0000000000000000e+00 0.0000000000000000e+00 0.0000000000000000e+00 0.0000000000000000e+00  -7.7880822838049202e-02 5.2391665661542528e-03 0.0000000000000000e+00 5.2391665661542528e-03 -9.1217488211577949e-02 0.0000000000000000e+00 0.0000000000000000e+00 0.0000000000000000e+00 0.0000000000000000e+00  -7.8722584501949161e-02 4.8554618978306841e-03 0.0000000000000000e+00 4.8554618978306832e-03 -9.1782894911016044e-02 0.0000000000000000e+00 0.0000000000000000e+00 0.0000000000000000e+00 0.0000000000000000e+00  -7.9475337256805473e-02 4.4585878477058152e-03 0.0000000000000000e+00 4.4585878477058152e-03 -9.2289092608723200e-02 0.0000000000000000e+00 0.0000000000000000e+00 0.0000000000000000e+00 0.0000000000000000e+00  -8.0144038491260408e-02 4.0673044851705859e-03 0.0000000000000000e+00 4.0673044851705859e-03 -9.2741923425951833e-02 0.0000000000000000e+00 0.0000000000000000e+00 0.0000000000000000e+00 0.0000000000000000e+00  -8.0735693108880208e-02 3.6941001233462595e-03 0.0000000000000000e+00 3.6941001233462595e-03 -9.3141118456358932e-02 0.0000000000000000e+00 0.0000000000000000e+00 0.0000000000000000e+00 0.0000000000000000e+00  -8.1258377719857638e-02 3.3457859384395544e-03 0.0000000000000000e+00 3.3457859384395544e-03 -9.3482163190174106e-02 0.0000000000000000e+00 0.0000000000000000e+00 0.0000000000000000e+00 0.0000000000000000e+00  -8.1720540332732600e-02 3.0244689714233057e-03 0.0000000000000000e+00 3.0244689714233057e-03 -9.3757870082292777e-02 0.0000000000000000e+00 0.0000000000000000e+00 0.0000000000000000e+00 0.0000000000000000e+00  -8.2130953068162552e-02 2.7287446637227260e-03 0.0000000000000000e+00 2.7287446637227265e-03 -9.3959278294379459e-02 0.0000000000000000e+00 0.0000000000000000e+00 0.0000000000000000e+00 0.0000000000000000e+00  -8.2499599117180730e-02 2.4548057294328956e-03 0.0000000000000000e+00 2.4548057294328956e-03 -9.4075664813059942e-02 0.0000000000000000e+00 0.0000000000000000e+00 0.0000000000000000e+00 0.0000000000000000e+00  -8.2839677958118113e-02 2.1971557195002056e-03 0.0000000000000000e+00 2.1971557195002056e-03 -9.4093649575435520e-02 0.0000000000000000e+00 0.0000000000000000e+00 0.0000000000000000e+00 0.0000000000000000e+00  -8.3170888693873915e-02 1.9487477325754758e-03 0.0000000000000000e+00 1.9487477325754758e-03 -9.3995539924746407e-02 0.0000000000000000e+00 0.0000000000000000e+00 0.0000000000000000e+00 0.0000000000000000e+00  -8.3524303834382696e-02 1.7006171998312522e-03 0.0000000000000000e+00 1.7006171998312522e-03 -9.3757094014221096e-02 0.0000000000000000e+00 0.0000000000000000e+00 0.0000000000000000e+00 0.0000000000000000e+00  -8.3949401335850105e-02 1.4413908213798368e-03 0.0000000000000000e+00 1.4413908213798368e-03 -9.3344980628074462e-02 0.0000000000000000e+00 0.0000000000000000e+00 0.0000000000000000e+00 0.0000000000000000e+00  -8.4524085185314513e-02 1.1577132436346772e-03 0.0000000000000000e+00 1.1577132436346772e-03 -9.2714449856423076e-02 0.0000000000000000e+00 0.0000000000000000e+00 0.0000000000000000e+00 0.0000000000000000e+00  -8.5369954932316708e-02 8.3756642356432791e-04 0.0000000000000000e+00 8.3756642356432791e-04 -9.1807540890676179e-02 0.0000000000000000e+00 0.0000000000000000e+00 0.0000000000000000e+00 0.0000000000000000e+00  -8.6673113847374000e-02 4.8112372254561527e-04 0.0000000000000000e+00 4.8112372254561527e-04 -9.0557273209173769e-02 0.0000000000000000e+00 0.0000000000000000e+00 0.0000000000000000e+00 0.0000000000000000e+00  -8.8711596636682113e-02 1.3029800422571553e-04 0.0000000000000000e+00 1.3029800422571553e-04 -8.8902470082980134e-02 0.0000000000000000e+00 0.0000000000000000e+00 0.0000000000000000e+00 0.0000000000000000e+00  -9.1966814723640974e-02 -4.4370003458698968e-05 0.0000000000000000e+00 -4.4370003458698968e-05 -8.6767240292552228e-02 0.0000000000000000e+00 0.0000000000000000e+00 0.0000000000000000e+00 0.0000000000000000e+00  -9.7894398388487791e-02 4.7040208050380043e-04 0.0000000000000000e+00 4.7040208050380043e-04 -8.3807621045182065e-02 0.0000000000000000e+00 0.0000000000000000e+00 0.0000000000000000e+00 0.0000000000000000e+00  -1.1310511379704900e-01 2.8447772515119308e-03 0.0000000000000000e+00 2.8447772515119308e-03 -7.9210256369338969e-02 0.0000000000000000e+00 0.0000000000000000e+00 0.0000000000000000e+00 0.0000000000000000e+00  -2.0300087070513265e-01 8.5786501661163066e-03 0.0000000000000000e+00 8.5786501661163066e-03 -7.8169466933681958e-02 0.0000000000000000e+00 0.0000000000000000e+00 0.0000000000000000e+00 0.0000000000000000e+00  -2.5015425726171664e-01 -1.4735670857446769e-02 0.0000000000000000e+00 -1.4735670857446769e-02 -5.5434058552427196e-02 0.0000000000000000e+00 0.0000000000000000e+00 0.0000000000000000e+00 0.0000000000000000e+00  3.6966698136334947e-01 -1.0547104277585144e-02 0.0000000000000000e+00 -1.0547104277585144e-02 -1.8837800362676657e-01 0.0000000000000000e+00 0.0000000000000000e+00 0.0000000000000000e+00 0.0000000000000000e+00  2.3526520688155361e-02 -1.6338261958133760e-02 0.0000000000000000e+00 -1.6338261958133760e-02 1.2568420735313729e-01 0.0000000000000000e+00 0.0000000000000000e+00 0.0000000000000000e+00 0.0000000000000000e+00  5.0343462035763687e-03 1.4511918123855147e-03 0.0000000000000000e+00 1.4511918123855147e-03 1.0636360000634334e-02 0.0000000000000000e+00 0.0000000000000000e+00 0.0000000000000000e+00 0.0000000000000000e+00  7.7139236038702534e-03 -4.3274319775972791e-05 0.0000000000000000e+00 -4.3274319775972791e-05 7.8949215866780387e-03 0.0000000000000000e+00 0.0000000000000000e+00 0.0000000000000000e+00 0.0000000000000000e+00  7.8337560762324655e-03 1.8895456457225144e-05 0.0000000000000000e+00 1.8895456457225138e-05 7.8224569142892192e-03 0.0000000000000000e+00 0.0000000000000000e+00 0.0000000000000000e+00 0.0000000000000000e+00  7.8384686353901445e-03 4.7653361566769247e-05 0.0000000000000000e+00 4.7653361566769247e-05 7.8326107028101732e-03 0.0000000000000000e+00 0.0000000000000000e+00 0.0000000000000000e+00 0.0000000000000000e+00  7.8584885314774110e-03 -4.6839369575471006e-05 0.0000000000000000e+00 -4.6839369575471006e-05 7.8541775882142676e-03 0.0000000000000000e+00 0.0000000000000000e+00 0.0000000000000000e+00 0.0000000000000000e+00  7.8607849324868907e-03 -1.8917705701448669e-05 0.0000000000000000e+00 -1.8917705701448669e-05 7.8481959321129880e-03 0.0000000000000000e+00 0.0000000000000000e+00 0.0000000000000000e+00 0.0000000000000000e+00  7.7348130961285887e-03 1.5338876411242242e-05 0.0000000000000000e+00 1.5338876411242242e-05 7.8460160251948539e-03 0.0000000000000000e+00 0.0000000000000000e+00 0.0000000000000000e+00 0.0000000000000000e+00  7.1730154771461373e-03 -9.0898208967204672e-04 0.0000000000000000e+00 -9.0898208967204672e-04 1.0166721993632739e-02 0.0000000000000000e+00 0.0000000000000000e+00 0.0000000000000000e+00 0.0000000000000000e+00  -5.6729929189744217e-03 1.4305004395537545e-02 0.0000000000000000e+00 1.4305004395537545e-02 5.9206445635314020e-02 0.0000000000000000e+00 0.0000000000000000e+00 0.0000000000000000e+00 0.0000000000000000e+00  2.1377314170093004e-01 -6.2542936255074830e-02 0.0000000000000000e+00 -6.2542936255074830e-02 -3.5230203871917096e-02 0.0000000000000000e+00 0.0000000000000000e+00 0.0000000000000000e+00 0.0000000000000000e+00  -5.7179309579291723e-02 -2.2466649498811671e-02 0.0000000000000000e+00 -2.2466649498811671e-02 -5.3893793454088693e-02 0.0000000000000000e+00 0.0000000000000000e+00 0.0000000000000000e+00 0.0000000000000000e+00  -2.0379525526396572e-01 -2.7226768027815908e-02 0.0000000000000000e+00 -2.7226768027815908e-02 -1.0851713187809081e-01 0.0000000000000000e+00 0.0000000000000000e+00 0.0000000000000000e+00 0.0000000000000000e+00  -1.0769837172849962e-01 -1.0851186543635984e-02 0.0000000000000000e+00 -1.0851186543635984e-02 -7.9431742467224259e-02 0.0000000000000000e+00 0.0000000000000000e+00 0.0000000000000000e+00 0.0000000000000000e+00  -9.3863903164035381e-02 -5.1761901608112200e-03 0.0000000000000000e+00 -5.1761901608112200e-03 -8.5873836086787572e-02 0.0000000000000000e+00 0.0000000000000000e+00 0.0000000000000000e+00 0.0000000000000000e+00  -9.0723437555039615e-02 -3.4734976519402243e-03 0.0000000000000000e+00 -3.4734976519402243e-03 -8.7672806188199878e-02 0.0000000000000000e+00 0.0000000000000000e+00 0.0000000000000000e+00 0.0000000000000000e+00  -8.8646555731273197e-02 -2.7362784409051266e-03 0.0000000000000000e+00 -2.7362784409051266e-03 -8.9167697087567069e-02 0.0000000000000000e+00 0.0000000000000000e+00 0.0000000000000000e+00 0.0000000000000000e+00  -8.7012081792215229e-02 -2.3791956122783901e-03 0.0000000000000000e+00 -2.3791956122783901e-03 -9.0598818009908100e-02 0.0000000000000000e+00 0.0000000000000000e+00 0.0000000000000000e+00 0.0000000000000000e+00  -8.5856810175054643e-02 -2.2421209348941350e-03 0.0000000000000000e+00 -2.2421209348941350e-03 -9.1739436574438268e-02 0.0000000000000000e+00 0.0000000000000000e+00 0.0000000000000000e+00 0.0000000000000000e+00  -8.5052801088070978e-02 -2.2377623712118468e-03 0.0000000000000000e+00 -2.2377623712118468e-03 -9.2576815622209846e-02 0.0000000000000000e+00 0.0000000000000000e+00 0.0000000000000000e+00 0.0000000000000000e+00  -8.4476573873531732e-02 -2.3178256395592661e-03 0.0000000000000000e+00 -2.3178256395592661e-03 -9.3155431451952625e-02 0.0000000000000000e+00 0.0000000000000000e+00 0.0000000000000000e+00 0.0000000000000000e+00  -8.4038001647417787e-02 -2.4555994721549086e-03 0.0000000000000000e+00 -2.4555994721549086e-03 -9.3519577669902570e-02 0.0000000000000000e+00 0.0000000000000000e+00 0.0000000000000000e+00 0.0000000000000000e+00  -8.3672315703154282e-02 -2.6362205966479388e-03 0.0000000000000000e+00 -2.6362205966479388e-03 -9.3709109998899962e-02 0.0000000000000000e+00 0.0000000000000000e+00 0.0000000000000000e+00 0.0000000000000000e+00  -8.3336356630744748e-02 -2.8513276658418381e-03 0.0000000000000000e+00 -2.8513276658418381e-03 -9.3754954353956310e-02 0.0000000000000000e+00 0.0000000000000000e+00 0.0000000000000000e+00 0.0000000000000000e+00  -8.3002471262756408e-02 -3.0968615209255299e-03 0.0000000000000000e+00 -3.0968615209255299e-03 -9.3679563201374758e-02 0.0000000000000000e+00 0.0000000000000000e+00 0.0000000000000000e+00 0.0000000000000000e+00  -8.2653074611132762e-02 -3.3718034674941992e-03 0.0000000000000000e+00 -3.3718034674941992e-03 -9.3499103556025032e-02 0.0000000000000000e+00 0.0000000000000000e+00 0.0000000000000000e+00 0.0000000000000000e+00  -8.2276285314947045e-02 -3.6772041358341758e-03 0.0000000000000000e+00 -3.6772041358341758e-03 -9.3225857349958113e-02 0.0000000000000000e+00 0.0000000000000000e+00 0.0000000000000000e+00 0.0000000000000000e+00  -8.1862509128760044e-02 -4.0148387208324074e-03 0.0000000000000000e+00 -4.0148387208324074e-03 -9.2870457284960101e-02 0.0000000000000000e+00 0.0000000000000000e+00 0.0000000000000000e+00 0.0000000000000000e+00  -8.1402188478198467e-02 -4.3852895295951409e-03 0.0000000000000000e+00 -4.3852895295951409e-03 -9.2443289901682019e-02 0.0000000000000000e+00 0.0000000000000000e+00 0.0000000000000000e+00 0.0000000000000000e+00  -8.0884821638819063e-02 -4.7856638002986545e-03 0.0000000000000000e+00 -4.7856638002986545e-03 -9.1954672983105348e-02 0.0000000000000000e+00 0.0000000000000000e+00 0.0000000000000000e+00 0.0000000000000000e+00  -8.0299197726657709e-02 -5.2074139309140196e-03 0.0000000000000000e+00 -5.2074139309140196e-03 -9.1413702651714626e-02 0.0000000000000000e+00 0.0000000000000000e+00 0.0000000000000000e+00 0.0000000000000000e+00  -7.9634514259121186e-02 -5.6347608498002813e-03 0.0000000000000000e+00 -5.6347608498002813e-03 -9.0826072735469721e-02 0.0000000000000000e+00 0.0000000000000000e+00 0.0000000000000000e+00 0.0000000000000000e+00  -7.8881805052161816e-02 -6.0440029738629995e-03 0.0000000000000000e+00 -6.0440029738629995e-03 -9.0191500947088984e-02 0.0000000000000000e+00 0.0000000000000000e+00 0.0000000000000000e+00 0.0000000000000000e+00  -7.8035025251592741e-02 -6.4036100816070333e-03 0.0000000000000000e+00 -6.4036100816070333e-03 -8.9501512251307536e-02 0.0000000000000000e+00 0.0000000000000000e+00 0.0000000000000000e+00 0.0000000000000000e+00  -7.7091278344309830e-02 -6.6745990391212078e-03 0.0000000000000000e+00 -6.6745990391212078e-03 -8.8738157093294814e-02 0.0000000000000000e+00 0.0000000000000000e+00 0.0000000000000000e+00 0.0000000000000000e+00  -7.6050003498866148e-02 -6.8104251015583062e-03 0.0000000000000000e+00 -6.8104251015583062e-03 -8.7873816177416200e-02 0.0000000000000000e+00 0.0000000000000000e+00 0.0000000000000000e+00 0.0000000000000000e+00  -7.4911373128113787e-02 -6.7556062396951101e-03 0.0000000000000000e+00 -6.7556062396951101e-03 -8.6871693340975747e-02 0.0000000000000000e+00 0.0000000000000000e+00 0.0000000000000000e+00 0.0000000000000000e+00  -7.3674554087714589e-02 -6.4425479147557085e-03 0.0000000000000000e+00 -6.4425479147557085e-03 -8.5686091380218030e-02 0.0000000000000000e+00 0.0000000000000000e+00 0.0000000000000000e+00 0.0000000000000000e+00  -7.2336762241561672e-02 -5.7864815272933067e-03 0.0000000000000000e+00 -5.7864815272933067e-03 -8.4261239577471309e-02 0.0000000000000000e+00 0.0000000000000000e+00 0.0000000000000000e+00 0.0000000000000000e+00  -7.0894167275839956e-02 -4.6789480194401071e-03 0.0000000000000000e+00 -4.6789480194401071e-03 -8.2527342485097063e-02 0.0000000000000000e+00 0.0000000000000000e+00 0.0000000000000000e+00 0.0000000000000000e+00  -6.9345761016861698e-02 -2.9807459029236251e-03 0.0000000000000000e+00 -2.9807459029236251e-03 -8.0392579594256455e-02 0.0000000000000000e+00 0.0000000000000000e+00 0.0000000000000000e+00 0.0000000000000000e+00  -6.7701440210994890e-02 -5.1570331604615361e-04 0.0000000000000000e+00 -5.1570331604615361e-04 -7.7729864434206680e-02 0.0000000000000000e+00 0.0000000000000000e+00 0.0000000000000000e+00 0.0000000000000000e+00  -6.5995988572040684e-02 2.9328105194295693e-03 0.0000000000000000e+00 2.9328105194295693e-03 -7.4357095928118011e-02 0.0000000000000000e+00 0.0000000000000000e+00 0.0000000000000000e+00 0.0000000000000000e+00  -6.4311402318032812e-02 7.6197186399278114e-03 0.0000000000000000e+00 7.6197186399278123e-03 -7.0009521911765848e-02 0.0000000000000000e+00 0.0000000000000000e+00 0.0000000000000000e+00 0.0000000000000000e+00  -6.2811014418626049e-02 1.3825611198293826e-02 0.0000000000000000e+00 1.3825611198293826e-02 -6.4302913025202690e-02 0.0000000000000000e+00 0.0000000000000000e+00 0.0000000000000000e+00 0.0000000000000000e+00  -6.1791378552668585e-02 2.1824912079913970e-02 0.0000000000000000e+00 2.1824912079913970e-02 -5.6686215823476611e-02 0.0000000000000000e+00 0.0000000000000000e+00 0.0000000000000000e+00 0.0000000000000000e+00  -6.1747817059423650e-02 3.1821373745937645e-02 0.0000000000000000e+00 3.1821373745937645e-02 -4.6396487148906970e-02 0.0000000000000000e+00 0.0000000000000000e+00 0.0000000000000000e+00 0.0000000000000000e+00  -6.3489283723183687e-02 4.3826817087847178e-02 0.0000000000000000e+00 4.3826817087847178e-02 -3.2390935409225698e-02 0.0000000000000000e+00 0.0000000000000000e+00 0.0000000000000000e+00 0.0000000000000000e+00  -6.8174692408298848e-02 5.7459517616934672e-02 0.0000000000000000e+00 5.7459517616934672e-02 -1.3441313991689647e-02 0.0000000000000000e+00 0.0000000000000000e+00 0.0000000000000000e+00 0.0000000000000000e+00  -7.7531017820714629e-02 7.1568612869969017e-02 0.0000000000000000e+00 7.1568612869969017e-02 1.1968182746614450e-02 0.0000000000000000e+00 0.0000000000000000e+00 0.0000000000000000e+00 0.0000000000000000e+00  -9.3750364162525565e-02 8.4017191864858676e-02 0.0000000000000000e+00 8.4017191864858676e-02 4.4948995612649707e-02 0.0000000000000000e+00 0.0000000000000000e+00 0.0000000000000000e+00 0.0000000000000000e+00  -1.1866579343175591e-01 8.9395651669378837e-02 0.0000000000000000e+00 8.9395651669378837e-02 8.5571860924459245e-02 0.0000000000000000e+00 0.0000000000000000e+00 0.0000000000000000e+00 0.0000000000000000e+00  -1.6027091844000810e-01 8.3920593603331595e-02 0.0000000000000000e+00 8.3920593603331595e-02 1.3247805764205875e-01 0.0000000000000000e+00 0.0000000000000000e+00 0.0000000000000000e+00 0.0000000000000000e+00  -2.4769068418540449e-01 5.6807536124311032e-02 0.0000000000000000e+00 5.6807536124311032e-02 1.6365822646462047e-01 0.0000000000000000e+00 0.0000000000000000e+00 0.0000000000000000e+00 0.0000000000000000e+00  -3.4167724661741666e-01 3.3025799354650331e-02 0.0000000000000000e+00 3.3025799354650331e-02 5.2755876074562447e-02 0.0000000000000000e+00 0.0000000000000000e+00 0.0000000000000000e+00 0.0000000000000000e+00  2.1963980012924454e-02 -5.1641542014552060e-02 0.0000000000000000e+00 -5.1641542014552060e-02 -2.1866517560488943e-01 0.0000000000000000e+00 0.0000000000000000e+00 0.0000000000000000e+00 0.0000000000000000e+00  -3.3082007751082482e-01 -6.4447307765502032e-02 0.0000000000000000e+00 -6.4447307765502032e-02 9.0674395741583147e-02 0.0000000000000000e+00 0.0000000000000000e+00 0.0000000000000000e+00 0.0000000000000000e+00  -1.9133012079627434e-01 -7.8892349856519231e-02 0.0000000000000000e+00 -7.8892349856519231e-02 1.2571014611465470e-01 0.0000000000000000e+00 0.0000000000000000e+00 0.0000000000000000e+00 0.0000000000000000e+00  -1.1421342856574850e-01 -8.2760213291744419e-02 0.0000000000000000e+00 -8.2760213291744419e-02 7.5252389975990153e-02 0.0000000000000000e+00 0.0000000000000000e+00 0.0000000000000000e+00 0.0000000000000000e+00  -8.8584705862195301e-02 -7.8230929969975008e-02 0.0000000000000000e+00 -7.8230929969975008e-02 3.4806322189737601e-02 0.0000000000000000e+00 0.0000000000000000e+00 0.0000000000000000e+00 0.0000000000000000e+00  -7.3663094047728958e-02 -6.5975465558053462e-02 0.0000000000000000e+00 -6.5975465558053462e-02 3.1301167622233938e-03 0.0000000000000000e+00 0.0000000000000000e+00 0.0000000000000000e+00 0.0000000000000000e+00  -6.5291148384612363e-02 -5.2096607719637207e-02 0.0000000000000000e+00 -5.2096607719637207e-02 -2.1036591239163977e-02 0.0000000000000000e+00 0.0000000000000000e+00 0.0000000000000000e+00 0.0000000000000000e+00  -6.1456214398246757e-02 -3.8822431764532886e-02 0.0000000000000000e+00 -3.8822431764532886e-02 -3.8835940392886140e-02 0.0000000000000000e+00 0.0000000000000000e+00 0.0000000000000000e+00 0.0000000000000000e+00  -6.0400514296083514e-02 -2.7299257536451408e-02 0.0000000000000000e+00 -2.7299257536451408e-02 -5.1802085521509424e-02 0.0000000000000000e+00 0.0000000000000000e+00 0.0000000000000000e+00 0.0000000000000000e+00  -6.0971969345489589e-02 -1.7854467805331928e-02 0.0000000000000000e+00 -1.7854467805331928e-02 -6.1194093995871592e-02 0.0000000000000000e+00 0.0000000000000000e+00 0.0000000000000000e+00 0.0000000000000000e+00  -6.2382084824011384e-02 -1.0425679506749169e-02 0.0000000000000000e+00 -1.0425679506749169e-02 -6.8057362010565586e-02 0.0000000000000000e+00 0.0000000000000000e+00 0.0000000000000000e+00 0.0000000000000000e+00  -6.4161540465818984e-02 -4.7703681251399727e-03 0.0000000000000000e+00 -4.7703681251399727e-03 -7.3143374002543768e-02 0.0000000000000000e+00 0.0000000000000000e+00 0.0000000000000000e+00 0.0000000000000000e+00  -6.6039352591890615e-02 -5.8934676938936930e-04 0.0000000000000000e+00 -5.8934676938936930e-04 -7.6984683484998706e-02 0.0000000000000000e+00 0.0000000000000000e+00 0.0000000000000000e+00 0.0000000000000000e+00  -6.7874621346846034e-02 2.4107646768416449e-03 0.0000000000000000e+00 2.4107646768416449e-03 -7.9945147926165305e-02 0.0000000000000000e+00 0.0000000000000000e+00 0.0000000000000000e+00 0.0000000000000000e+00  -6.9603404539914343e-02 4.4889516985707652e-03 0.0000000000000000e+00 4.4889516985707652e-03 -8.2270540382734056e-02 0.0000000000000000e+00 0.0000000000000000e+00 0.0000000000000000e+00 0.0000000000000000e+00  -7.1204670662683295e-02 5.8602091734237796e-03 0.0000000000000000e+00 5.8602091734237796e-03 -8.4126765687847271e-02 0.0000000000000000e+00 0.0000000000000000e+00 0.0000000000000000e+00 0.0000000000000000e+00  -7.2678539956717095e-02 6.6957835376155184e-03 0.0000000000000000e+00 6.6957835376155184e-03 -8.5627871524752541e-02 0.0000000000000000e+00 0.0000000000000000e+00 0.0000000000000000e+00 0.0000000000000000e+00  -7.4033052728205151e-02 7.1283863813998913e-03 0.0000000000000000e+00 7.1283863813998913e-03 -8.6855592638482554e-02 0.0000000000000000e+00 0.0000000000000000e+00 0.0000000000000000e+00 0.0000000000000000e+00  -7.5276815952696724e-02 7.2595640959644530e-03 0.0000000000000000e+00 7.2595640959644530e-03 -8.7872139927127432e-02 0.0000000000000000e+00 0.0000000000000000e+00 0.0000000000000000e+00 0.0000000000000000e+00  -7.6415762996206990e-02 7.1674430302911280e-03 0.0000000000000000e+00 7.1674430302911280e-03 -8.8727683405668542e-02 0.0000000000000000e+00 0.0000000000000000e+00 0.0000000000000000e+00 0.0000000000000000e+00  -7.7452749245103106e-02 6.9136193155155071e-03 0.0000000000000000e+00 6.9136193155155071e-03 -8.9463818381137150e-02 0.0000000000000000e+00 0.0000000000000000e+00 0.0000000000000000e+00 0.0000000000000000e+00  -7.8388875214537385e-02 6.5483797824105556e-03 0.0000000000000000e+00 6.5483797824105556e-03 -9.0114327314997453e-02 0.0000000000000000e+00 0.0000000000000000e+00 0.0000000000000000e+00 0.0000000000000000e+00  -7.9225498157631496e-02 6.1139023537213639e-03 0.0000000000000000e+00 6.1139023537213639e-03 -9.0704578553337425e-02 0.0000000000000000e+00 0.0000000000000000e+00 0.0000000000000000e+00 0.0000000000000000e+00  -7.9966024275397701e-02 5.6455791336370515e-03 0.0000000000000000e+00 5.6455791336370515e-03 -9.1250787593695620e-02 0.0000000000000000e+00 0.0000000000000000e+00 0.0000000000000000e+00 0.0000000000000000e+00  -8.0616848721275489e-02 5.1720323574763437e-03 0.0000000000000000e+00 5.1720323574763437e-03 -9.1760033819476144e-02 0.0000000000000000e+00 0.0000000000000000e+00 0.0000000000000000e+00 0.0000000000000000e+00  -8.1187210582237573e-02 4.7146294440788957e-03 0.0000000000000000e+00 4.7146294440788957e-03 -9.2231417815817229e-02 0.0000000000000000e+00 0.0000000000000000e+00 0.0000000000000000e+00 0.0000000000000000e+00  -8.1688157471346320e-02 4.2872777000101617e-03 0.0000000000000000e+00 4.2872777000101617e-03 -9.2658195719424380e-02 0.0000000000000000e+00 0.0000000000000000e+00 0.0000000000000000e+00 0.0000000000000000e+00  -8.2131144253423771e-02 3.8970100832594863e-03 0.0000000000000000e+00 3.8970100832594863e-03 -9.3030303304004386e-02 0.0000000000000000e+00 0.0000000000000000e+00 0.0000000000000000e+00 0.0000000000000000e+00  -8.2526925702653561e-02 3.5454675214377225e-03 0.0000000000000000e+00 3.5454675214377225e-03 -9.3336511864034591e-02 0.0000000000000000e+00 0.0000000000000000e+00 0.0000000000000000e+00 0.0000000000000000e+00  -8.2885319908861388e-02 3.2309982533221572e-03 0.0000000000000000e+00 3.2309982533221572e-03 -9.3565575471513285e-02 0.0000000000000000e+00 0.0000000000000000e+00 0.0000000000000000e+00 0.0000000000000000e+00  -8.3216178843368085e-02 2.9508757500732986e-03 0.0000000000000000e+00 2.9508757500732999e-03 -9.3706062452698205e-02 0.0000000000000000e+00 0.0000000000000000e+00 0.0000000000000000e+00 0.0000000000000000e+00  -8.3531622332880875e-02 2.7031711535441486e-03 0.0000000000000000e+00 2.7031711535441486e-03 -9.3744971649299902e-02 0.0000000000000000e+00 0.0000000000000000e+00 0.0000000000000000e+00 0.0000000000000000e+00  -8.3849435420905880e-02 2.4880769206670704e-03 0.0000000000000000e+00 2.4880769206670704e-03 -9.3665521524934084e-02 0.0000000000000000e+00 0.0000000000000000e+00 0.0000000000000000e+00 0.0000000000000000e+00  -8.4197416894624164e-02 2.3088874051552786e-03 0.0000000000000000e+00 2.3088874051552786e-03 -9.3444771402543397e-02 0.0000000000000000e+00 0.0000000000000000e+00 0.0000000000000000e+00 0.0000000000000000e+00  -8.4618818242725449e-02 2.1733037826808799e-03 0.0000000000000000e+00 2.1733037826808799e-03 -9.3051438386012111e-02 0.0000000000000000e+00 0.0000000000000000e+00 0.0000000000000000e+00 0.0000000000000000e+00  -8.5178470189779032e-02 2.0957093051375995e-03 0.0000000000000000e+00 2.0957093051375995e-03 -9.2445417878082831e-02 0.0000000000000000e+00 0.0000000000000000e+00 0.0000000000000000e+00 0.0000000000000000e+00  -8.5966614850676901e-02 2.1025974517104606e-03 0.0000000000000000e+00 2.1025974517104610e-03 -9.1582190971303060e-02 0.0000000000000000e+00 0.0000000000000000e+00 0.0000000000000000e+00 0.0000000000000000e+00  -8.7106930832359070e-02 2.2423480483804749e-03 0.0000000000000000e+00 2.2423480483804753e-03 -9.0417070937995808e-02 0.0000000000000000e+00 0.0000000000000000e+00 0.0000000000000000e+00 0.0000000000000000e+00  -8.8727566885331441e-02 2.6026392910417245e-03 0.0000000000000000e+00 2.6026392910417245e-03 -8.8962638665668739e-02 0.0000000000000000e+00 0.0000000000000000e+00 0.0000000000000000e+00 0.0000000000000000e+00  -9.0791890710416101e-02 3.3441589904245768e-03 0.0000000000000000e+00 3.3441589904245768e-03 -8.7445341814367625e-02 0.0000000000000000e+00 0.0000000000000000e+00 0.0000000000000000e+00 0.0000000000000000e+00  -9.3918795638000985e-02 5.0535607121465044e-03 0.0000000000000000e+00 5.0535607121465044e-03 -8.5627926511028546e-02 0.0000000000000000e+00 0.0000000000000000e+00 0.0000000000000000e+00 0.0000000000000000e+00  -1.0775205207159023e-01 1.0739893397654909e-02 0.0000000000000000e+00 1.0739893397654909e-02 -7.9168291665046742e-02 0.0000000000000000e+00 0.0000000000000000e+00 0.0000000000000000e+00 0.0000000000000000e+00  -2.0386257040626471e-01 2.7135017974062866e-02 0.0000000000000000e+00 2.7135017974062866e-02 -1.0830215528876859e-01 0.0000000000000000e+00 0.0000000000000000e+00 0.0000000000000000e+00 0.0000000000000000e+00  -5.7000219003500489e-02 2.2353964428042078e-02 0.0000000000000000e+00 2.2353964428042078e-02 -5.3923214798838992e-02 0.0000000000000000e+00 0.0000000000000000e+00 0.0000000000000000e+00 0.0000000000000000e+00  2.1369881558969142e-01 6.2501447795678830e-02 0.0000000000000000e+00 6.2501447795678830e-02 -3.4675247666189700e-02 0.0000000000000000e+00 0.0000000000000000e+00 0.0000000000000000e+00 0.0000000000000000e+00  -5.5244576581992963e-03 -1.4285454344726271e-02 0.0000000000000000e+00 -1.4285454344726271e-02 5.9237155182419621e-02 0.0000000000000000e+00 0.0000000000000000e+00 0.0000000000000000e+00 0.0000000000000000e+00  7.1604633417482041e-03 8.9487549602197171e-04 0.0000000000000000e+00 8.9487549602197171e-04 1.0122675197507838e-02 0.0000000000000000e+00 0.0000000000000000e+00 0.0000000000000000e+00 0.0000000000000000e+00  7.6739947283675381e-03 -2.0548117623777401e-05 0.0000000000000000e+00 -2.0548117623777401e-05 7.7850474763962972e-03 0.0000000000000000e+00 0.0000000000000000e+00 0.0000000000000000e+00 0.0000000000000000e+00  7.7999662895588363e-03 1.8174519571998983e-05 0.0000000000000000e+00 1.8174519571998983e-05 7.7914994289908796e-03 0.0000000000000000e+00 0.0000000000000000e+00 0.0000000000000000e+00 0.0000000000000000e+00  7.7980218053086865e-03 4.9894037632004284e-05 0.0000000000000000e+00 4.9894037632004284e-05 7.7962589482195371e-03 0.0000000000000000e+00 0.0000000000000000e+00 0.0000000000000000e+00 0.0000000000000000e+00  7.8237482760069622e-03 -4.8982672919287322e-05 0.0000000000000000e+00 -4.8982672919287322e-05 7.8219884148540333e-03 0.0000000000000000e+00 0.0000000000000000e+00 0.0000000000000000e+00 0.0000000000000000e+00  7.8251291012729589e-03 -1.5301161821733752e-05 0.0000000000000000e+00 -1.5301161821733752e-05 7.8172458814105630e-03 0.0000000000000000e+00 0.0000000000000000e+00 0.0000000000000000e+00 0.0000000000000000e+00  7.7628447469662689e-03 -3.7213525373519318e-05 0.0000000000000000e+00 -3.7213525373519318e-05 7.7921181320713788e-03 0.0000000000000000e+00 0.0000000000000000e+00 0.0000000000000000e+00 0.0000000000000000e+00  7.8546495957031552e-03 2.0937874303709117e-04 0.0000000000000000e+00 2.0937874303709117e-04 9.3112061453853676e-03 0.0000000000000000e+00 0.0000000000000000e+00 0.0000000000000000e+00 0.0000000000000000e+00  -1.0058110991687189e-02 8.9203072528629430e-05 0.0000000000000000e+00 8.9203072528629430e-05 1.9370272494915415e-02 0.0000000000000000e+00 0.0000000000000000e+00 0.0000000000000000e+00 0.0000000000000000e+00  9.7912072727992905e-02 -5.6869017761163758e-02 0.0000000000000000e+00 -5.6869017761163758e-02 1.4308558107522087e-01 0.0000000000000000e+00 0.0000000000000000e+00 0.0000000000000000e+00 0.0000000000000000e+00  2.3905436239414976e-01 7.3366370701425015e-02 0.0000000000000000e+00 7.3366370701425015e-02 -2.7111144809538246e-01 0.0000000000000000e+00 0.0000000000000000e+00 0.0000000000000000e+00 0.0000000000000000e+00  -2.2620243590572151e-01 3.3253981914660243e-03 0.0000000000000000e+00 3.3253981914660243e-03 -9.1335635432042761e-02 0.0000000000000000e+00 0.0000000000000000e+00 0.0000000000000000e+00 0.0000000000000000e+00  -1.1713203551712023e-01 -7.6106317554678537e-03 0.0000000000000000e+00 -7.6106317554678537e-03 -7.2309362367309782e-02 0.0000000000000000e+00 0.0000000000000000e+00 0.0000000000000000e+00 0.0000000000000000e+00  -9.0482585614244798e-02 -6.0905078229132100e-03 0.0000000000000000e+00 -6.0905078229132100e-03 -8.8205410323168476e-02 0.0000000000000000e+00 0.0000000000000000e+00 0.0000000000000000e+00 0.0000000000000000e+00  -8.9052383399539553e-02 -5.3273996868445517e-03 0.0000000000000000e+00 -5.3273996868445517e-03 -8.8479839202891375e-02 0.0000000000000000e+00 0.0000000000000000e+00 0.0000000000000000e+00 0.0000000000000000e+00  -8.7839071388217616e-02 -4.4219798210682598e-03 0.0000000000000000e+00 -4.4219798210682598e-03 -8.9712979586440561e-02 0.0000000000000000e+00 0.0000000000000000e+00 0.0000000000000000e+00 0.0000000000000000e+00  -8.6826948708997376e-02 -3.7429336592265873e-03 0.0000000000000000e+00 -3.7429336592265873e-03 -9.0915486556330777e-02 0.0000000000000000e+00 0.0000000000000000e+00 0.0000000000000000e+00 0.0000000000000000e+00  -8.6074928116982169e-02 -3.3120661554162244e-03 0.0000000000000000e+00 -3.3120661554162244e-03 -9.1825218886454077e-02 0.0000000000000000e+00 0.0000000000000000e+00 0.0000000000000000e+00 0.0000000000000000e+00  -8.5490097616257310e-02 -3.0843210403737708e-03 0.0000000000000000e+00 -3.0843210403737708e-03 -9.2512185379210299e-02 0.0000000000000000e+00 0.0000000000000000e+00 0.0000000000000000e+00 0.0000000000000000e+00  -8.5041083241930868e-02 -3.0093760405837098e-03 0.0000000000000000e+00 -3.0093760405837098e-03 -9.2983528502125462e-02 0.0000000000000000e+00 0.0000000000000000e+00 0.0000000000000000e+00 0.0000000000000000e+00  -8.4678392132993593e-02 -3.0471448874981265e-03 0.0000000000000000e+00 -3.0471448874981265e-03 -9.3271020269456925e-02 0.0000000000000000e+00 0.0000000000000000e+00 0.0000000000000000e+00 0.0000000000000000e+00  -8.4363208504753318e-02 -3.1666678251606180e-03 0.0000000000000000e+00 -3.1666678251606180e-03 -9.3405118432629428e-02 0.0000000000000000e+00 0.0000000000000000e+00 0.0000000000000000e+00 0.0000000000000000e+00  -8.4068833920796421e-02 -3.3469209211788860e-03 0.0000000000000000e+00 -3.3469209211788860e-03 -9.3408597301750607e-02 0.0000000000000000e+00 0.0000000000000000e+00 0.0000000000000000e+00 0.0000000000000000e+00  -8.3777803352877406e-02 -3.5747865269426323e-03 0.0000000000000000e+00 -3.5747865269426323e-03 -9.3298006652282175e-02 0.0000000000000000e+00 0.0000000000000000e+00 0.0000000000000000e+00 0.0000000000000000e+00  -8.3479522308149853e-02 -3.8438931041451484e-03 0.0000000000000000e+00 -3.8438931041451484e-03 -9.3084571072132999e-02 0.0000000000000000e+00 0.0000000000000000e+00 0.0000000000000000e+00 0.0000000000000000e+00  -8.3166695246650213e-02 -4.1533316936575746e-03 0.0000000000000000e+00 -4.1533316936575746e-03 -9.2777119079279130e-02 0.0000000000000000e+00 0.0000000000000000e+00 0.0000000000000000e+00 0.0000000000000000e+00  -8.2832067023432959e-02 -4.5055655689383387e-03 0.0000000000000000e+00 -4.5055655689383387e-03 -9.2385015465592718e-02 0.0000000000000000e+00 0.0000000000000000e+00 0.0000000000000000e+00 0.0000000000000000e+00  -8.2466004759723474e-02 -4.9033413482480566e-03 0.0000000000000000e+00 -4.9033413482480566e-03 -9.1920273589973914e-02 0.0000000000000000e+00 0.0000000000000000e+00 0.0000000000000000e+00 0.0000000000000000e+00  -8.2055573000298088e-02 -5.3459790749086702e-03 0.0000000000000000e+00 -5.3459790749086702e-03 -9.1397906491565373e-02 0.0000000000000000e+00 0.0000000000000000e+00 0.0000000000000000e+00 0.0000000000000000e+00  -8.1585278108688569e-02 -5.8259070188807572e-03 0.0000000000000000e+00 -5.8259070188807572e-03 -9.0834206877841620e-02 0.0000000000000000e+00 0.0000000000000000e+00 0.0000000000000000e+00 0.0000000000000000e+00  -8.1039088491268757e-02 -6.3263607114054932e-03 0.0000000000000000e+00 -6.3263607114054932e-03 -9.0243387757948559e-02 0.0000000000000000e+00 0.0000000000000000e+00 0.0000000000000000e+00 0.0000000000000000e+00  -8.0402847397926594e-02 -6.8208049459904958e-03 0.0000000000000000e+00 -6.8208049459904958e-03 -8.9633650636256890e-02 0.0000000000000000e+00 0.0000000000000000e+00 0.0000000000000000e+00 0.0000000000000000e+00  -7.9665988113092279e-02 -7.2739723671544102e-03 0.0000000000000000e+00 -7.2739723671544102e-03 -8.9004006836675129e-02 0.0000000000000000e+00 0.0000000000000000e+00 0.0000000000000000e+00 0.0000000000000000e+00  -7.8821648534701361e-02 -7.6437056420419975e-03 0.0000000000000000e+00 -7.6437056420419975e-03 -8.8342920959160270e-02 0.0000000000000000e+00 0.0000000000000000e+00 0.0000000000000000e+00 0.0000000000000000e+00  -7.7864808323566376e-02 -7.8823172691213014e-03 0.0000000000000000e+00 -7.8823172691213014e-03 -8.7629144213452387e-02 0.0000000000000000e+00 0.0000000000000000e+00 0.0000000000000000e+00 0.0000000000000000e+00  -7.6788758902971418e-02 -7.9361248495512220e-03 0.0000000000000000e+00 -7.9361248495512220e-03 -8.6834192177941555e-02 0.0000000000000000e+00 0.0000000000000000e+00 0.0000000000000000e+00 0.0000000000000000e+00  -7.5580832888940214e-02 -7.7422027553449117e-03 0.0000000000000000e+00 -7.7422027553449117e-03 -8.5925098773777533e-02 0.0000000000000000e+00 0.0000000000000000e+00 0.0000000000000000e+00 0.0000000000000000e+00  -7.4218678282792883e-02 -7.2220693330357910e-03 0.0000000000000000e+00 -7.2220693330357910e-03 -8.4865593477580728e-02 0.0000000000000000e+00 0.0000000000000000e+00 0.0000000000000000e+00 0.0000000000000000e+00  -7.2668404262685490e-02 -6.2727528412419133e-03 0.0000000000000000e+00 -6.2727528412419133e-03 -8.3613790019496620e-02 0.0000000000000000e+00 0.0000000000000000e+00 0.0000000000000000e+00 0.0000000000000000e+00  -7.0885773131640753e-02 -4.7561954609056925e-03 0.0000000000000000e+00 -4.7561954609056925e-03 -8.2114706575152810e-02 0.0000000000000000e+00 0.0000000000000000e+00 0.0000000000000000e+00 0.0000000000000000e+00  -6.8821559858844764e-02 -2.4881857835737224e-03 0.0000000000000000e+00 -2.4881857835737224e-03 -8.0286135501783998e-02 0.0000000000000000e+00 0.0000000000000000e+00 0.0000000000000000e+00 0.0000000000000000e+00  -6.6432513358856360e-02 7.7197218145320077e-04 0.0000000000000000e+00 7.7197218145320099e-04 -7.7996266906988826e-02 0.0000000000000000e+00 0.0000000000000000e+00 0.0000000000000000e+00 0.0000000000000000e+00  -6.3700787290070171e-02 5.3294704275091620e-03 0.0000000000000000e+00 5.3294704275091620e-03 -7.5030358823068799e-02 0.0000000000000000e+00 0.0000000000000000e+00 0.0000000000000000e+00 0.0000000000000000e+00  -6.0666093951299849e-02 1.1556635616671728e-02 0.0000000000000000e+00 1.1556635616671728e-02 -7.1043312320836161e-02 0.0000000000000000e+00 0.0000000000000000e+00 0.0000000000000000e+00 0.0000000000000000e+00  -5.7478199826991594e-02 1.9884798514862523e-02 0.0000000000000000e+00 1.9884798514862523e-02 -6.5492656386299808e-02 0.0000000000000000e+00 0.0000000000000000e+00 0.0000000000000000e+00 0.0000000000000000e+00  -5.4491716611423532e-02 3.0767551270329836e-02 0.0000000000000000e+00 3.0767551270329836e-02 -5.7539140232462670e-02 0.0000000000000000e+00 0.0000000000000000e+00 0.0000000000000000e+00 0.0000000000000000e+00  -5.2343096640838770e-02 4.4607827377082798e-02 0.0000000000000000e+00 4.4607827377082798e-02 -4.5996419469345601e-02 0.0000000000000000e+00 0.0000000000000000e+00 0.0000000000000000e+00 0.0000000000000000e+00  -5.2333278240208753e-02 6.1529908203663226e-02 0.0000000000000000e+00 6.1529908203663226e-02 -2.8961704250498110e-02 0.0000000000000000e+00 0.0000000000000000e+00 0.0000000000000000e+00 0.0000000000000000e+00  -5.6035172395607173e-02 8.1342514540987190e-02 0.0000000000000000e+00 8.1342514540987190e-02 -4.6542091293642895e-03 0.0000000000000000e+00 0.0000000000000000e+00 0.0000000000000000e+00 0.0000000000000000e+00  -6.6513292064080728e-02 1.0146055734020687e-01 0.0000000000000000e+00 1.0146055734020687e-01 3.0811542204895445e-02 0.0000000000000000e+00 0.0000000000000000e+00 0.0000000000000000e+00 0.0000000000000000e+00  -8.7936791257692076e-02 1.2508997702777538e-01 0.0000000000000000e+00 1.2508997702777538e-01 8.0039555552891398e-02 0.0000000000000000e+00 0.0000000000000000e+00 0.0000000000000000e+00 0.0000000000000000e+00  -1.3350401767689141e-01 1.1921561434020422e-01 0.0000000000000000e+00 1.1921561434020422e-01 1.5387147365354698e-01 0.0000000000000000e+00 0.0000000000000000e+00 0.0000000000000000e+00 0.0000000000000000e+00  -2.6609727759127999e-01 1.6987425077564045e-01 0.0000000000000000e+00 1.6987425077564045e-01 1.9771154308112476e-01 0.0000000000000000e+00 0.0000000000000000e+00 0.0000000000000000e+00 0.0000000000000000e+00  -5.1685448557326230e-01 1.1859476216113286e-01 0.0000000000000000e+00 1.1859476216113286e-01 -9.2173599466799233e-02 0.0000000000000000e+00 0.0000000000000000e+00 0.0000000000000000e+00 0.0000000000000000e+00  -1.8884824013301699e-01 -9.1844411722987102e-02 0.0000000000000000e+00 -9.1844411722987102e-02 -7.6597679850915734e-01 0.0000000000000000e+00 0.0000000000000000e+00 0.0000000000000000e+00 0.0000000000000000e+00  -3.9049359369191328e-01 -2.2555345396769058e-01 0.0000000000000000e+00 -2.2555345396769058e-01 1.4102601379244686e-01 0.0000000000000000e+00 0.0000000000000000e+00 0.0000000000000000e+00 0.0000000000000000e+00  -1.7329722604833167e-01 -1.0090572055852128e-01 0.0000000000000000e+00 -1.0090572055852128e-01 1.6213026010038023e-01 0.0000000000000000e+00 0.0000000000000000e+00 0.0000000000000000e+00 0.0000000000000000e+00  -8.5924679831606288e-02 -1.1850859814818032e-01 0.0000000000000000e+00 -1.1850859814818032e-01 7.0534087183324615e-02 0.0000000000000000e+00 0.0000000000000000e+00 0.0000000000000000e+00 0.0000000000000000e+00  -6.4090523348786801e-02 -9.5097944464154649e-02 0.0000000000000000e+00 -9.5097944464154649e-02 2.0814987626952820e-02 0.0000000000000000e+00 0.0000000000000000e+00 0.0000000000000000e+00 0.0000000000000000e+00  -5.3948103640403901e-02 -7.4879160298685313e-02 0.0000000000000000e+00 -7.4879160298685313e-02 -1.3263945681029307e-02 0.0000000000000000e+00 0.0000000000000000e+00 0.0000000000000000e+00 0.0000000000000000e+00  -5.1043854332764572e-02 -5.5331464405242663e-02 0.0000000000000000e+00 -5.5331464405242663e-02 -3.6203101717498687e-02 0.0000000000000000e+00 0.0000000000000000e+00 0.0000000000000000e+00 0.0000000000000000e+00  -5.1730617245310820e-02 -3.8927054546624498e-02 0.0000000000000000e+00 -3.8927054546624498e-02 -5.1923371372185383e-02 0.0000000000000000e+00 0.0000000000000000e+00 0.0000000000000000e+00 0.0000000000000000e+00  -5.4393818016010509e-02 -2.5736459260629795e-02 0.0000000000000000e+00 -2.5736459260629795e-02 -6.2335210542521370e-02 0.0000000000000000e+00 0.0000000000000000e+00 0.0000000000000000e+00 0.0000000000000000e+00  -5.7729830896481309e-02 -1.5556381904876834e-02 0.0000000000000000e+00 -1.5556381904876834e-02 -6.9363277881517818e-02 0.0000000000000000e+00 0.0000000000000000e+00 0.0000000000000000e+00 0.0000000000000000e+00  -6.1133168942217625e-02 -7.9203667279938265e-03 0.0000000000000000e+00 -7.9203667279938265e-03 -7.4179556099428418e-02 0.0000000000000000e+00 0.0000000000000000e+00 0.0000000000000000e+00 0.0000000000000000e+00  -6.4283063199712998e-02 -2.3345163959837918e-03 0.0000000000000000e+00 -2.3345163959837918e-03 -7.7595499790684294e-02 0.0000000000000000e+00 0.0000000000000000e+00 0.0000000000000000e+00 0.0000000000000000e+00  -6.7061809200216260e-02 1.6533205942037535e-03 0.0000000000000000e+00 1.6533205942037535e-03 -8.0120023994044262e-02 0.0000000000000000e+00 0.0000000000000000e+00 0.0000000000000000e+00 0.0000000000000000e+00  -6.9454827499224450e-02 4.4225863009240201e-03 0.0000000000000000e+00 4.4225863009240201e-03 -8.2067368569559151e-02 0.0000000000000000e+00 0.0000000000000000e+00 0.0000000000000000e+00 0.0000000000000000e+00  -7.1498284833108883e-02 6.2769160478684024e-03 0.0000000000000000e+00 6.2769160478684024e-03 -8.3626497126953039e-02 0.0000000000000000e+00 0.0000000000000000e+00 0.0000000000000000e+00 0.0000000000000000e+00  -7.3247831492330773e-02 7.4505977234462072e-03 0.0000000000000000e+00 7.4505977234462072e-03 -8.4909184226499096e-02 0.0000000000000000e+00 0.0000000000000000e+00 0.0000000000000000e+00 0.0000000000000000e+00  -7.4760524341387927e-02 8.1191968344673723e-03 0.0000000000000000e+00 8.1191968344673723e-03 -8.5982814736563509e-02 0.0000000000000000e+00 0.0000000000000000e+00 0.0000000000000000e+00 0.0000000000000000e+00  -7.6085131585502175e-02 8.4115580406980833e-03 0.0000000000000000e+00 8.4115580406980833e-03 -8.6891841833142316e-02 0.0000000000000000e+00 0.0000000000000000e+00 0.0000000000000000e+00 0.0000000000000000e+00  -7.7257833588722319e-02 8.4218523251572332e-03 0.0000000000000000e+00 8.4218523251572332e-03 -8.7670922696324219e-02 0.0000000000000000e+00 0.0000000000000000e+00 0.0000000000000000e+00 0.0000000000000000e+00  -7.8301844619120570e-02 8.2206794166398509e-03 0.0000000000000000e+00 8.2206794166398509e-03 -8.8351502595021170e-02 0.0000000000000000e+00 0.0000000000000000e+00 0.0000000000000000e+00 0.0000000000000000e+00  -7.9229855641387098e-02 7.8642020341828898e-03 0.0000000000000000e+00 7.8642020341828898e-03 -8.8963391972894143e-02 0.0000000000000000e+00 0.0000000000000000e+00 0.0000000000000000e+00 0.0000000000000000e+00  -8.0048163020244076e-02 7.4004741879470128e-03 0.0000000000000000e+00 7.4004741879470128e-03 -8.9533025708623676e-02 0.0000000000000000e+00 0.0000000000000000e+00 0.0000000000000000e+00 0.0000000000000000e+00  -8.0761200346136319e-02 6.8726037905062973e-03 0.0000000000000000e+00 6.8726037905062973e-03 -9.0080297634844972e-02 0.0000000000000000e+00 0.0000000000000000e+00 0.0000000000000000e+00 0.0000000000000000e+00  -8.1375228045934084e-02 6.3190840715668514e-03 0.0000000000000000e+00 6.3190840715668514e-03 -9.0615794456042953e-02 0.0000000000000000e+00 0.0000000000000000e+00 0.0000000000000000e+00 0.0000000000000000e+00  -8.1900286620576024e-02 5.7722847352764698e-03 0.0000000000000000e+00 5.7722847352764698e-03 -9.1139768037075700e-02 0.0000000000000000e+00 0.0000000000000000e+00 0.0000000000000000e+00 0.0000000000000000e+00  -8.2350127113920091e-02 5.2564623696125150e-03 0.0000000000000000e+00 5.2564623696125150e-03 -9.1643366833623827e-02 0.0000000000000000e+00 0.0000000000000000e+00 0.0000000000000000e+00 0.0000000000000000e+00  -8.2740511838640216e-02 4.7865847616936760e-03 0.0000000000000000e+00 4.7865847616936760e-03 -9.2111740035178719e-02 0.0000000000000000e+00 0.0000000000000000e+00 0.0000000000000000e+00 0.0000000000000000e+00  -8.3086798775025783e-02 4.3687863346778101e-03 0.0000000000000000e+00 4.3687863346778101e-03 -9.2527931994746918e-02 0.0000000000000000e+00 0.0000000000000000e+00 0.0000000000000000e+00 0.0000000000000000e+00  -8.3401906426266506e-02 4.0025630758069143e-03 0.0000000000000000e+00 4.0025630758069143e-03 -9.2876231709791340e-02 0.0000000000000000e+00 0.0000000000000000e+00 0.0000000000000000e+00 0.0000000000000000e+00  -8.3695546398478912e-02 3.6841489761763944e-03 0.0000000000000000e+00 3.6841489761763944e-03 -9.3143903526602762e-02 0.0000000000000000e+00 0.0000000000000000e+00 0.0000000000000000e+00 0.0000000000000000e+00  -8.3975118725656078e-02 3.4101550300877168e-03 0.0000000000000000e+00 3.4101550300877168e-03 -9.3320862946950356e-02 0.0000000000000000e+00 0.0000000000000000e+00 0.0000000000000000e+00 0.0000000000000000e+00  -8.4248093724030068e-02 3.1806070188135252e-03 0.0000000000000000e+00 3.1806070188135252e-03 -9.3397605733316569e-02 0.0000000000000000e+00 0.0000000000000000e+00 0.0000000000000000e+00 0.0000000000000000e+00  -8.4525225866088710e-02 3.0010112222024900e-03 0.0000000000000000e+00 3.0010112222024900e-03 -9.3362329290791329e-02 0.0000000000000000e+00 0.0000000000000000e+00 0.0000000000000000e+00 0.0000000000000000e+00  -8.4824075318987446e-02 2.8836501392569586e-03 0.0000000000000000e+00 2.8836501392569586e-03 -9.3198065027866997e-02 0.0000000000000000e+00 0.0000000000000000e+00 0.0000000000000000e+00 0.0000000000000000e+00  -8.5171325050027585e-02 2.8488086418806701e-03 0.0000000000000000e+00 2.8488086418806701e-03 -9.2881828171970923e-02 0.0000000000000000e+00 0.0000000000000000e+00 0.0000000000000000e+00 0.0000000000000000e+00  -8.5605661060458818e-02 2.9269150773288742e-03 0.0000000000000000e+00 2.9269150773288742e-03 -9.2383158731309908e-02 0.0000000000000000e+00 0.0000000000000000e+00 0.0000000000000000e+00 0.0000000000000000e+00  -8.6176332624033139e-02 3.1578801222508662e-03 0.0000000000000000e+00 3.1578801222508662e-03 -9.1670463121241996e-02 0.0000000000000000e+00 0.0000000000000000e+00 0.0000000000000000e+00 0.0000000000000000e+00  -8.6914692791644155e-02 3.5922639216119131e-03 0.0000000000000000e+00 3.5922639216119131e-03 -9.0736545325095647e-02 0.0000000000000000e+00 0.0000000000000000e+00 0.0000000000000000e+00 0.0000000000000000e+00  -8.7913551236631929e-02 4.2755272228898128e-03 0.0000000000000000e+00 4.2755272228898128e-03 -8.9511632341888192e-02 0.0000000000000000e+00 0.0000000000000000e+00 0.0000000000000000e+00 0.0000000000000000e+00  -8.9113734053291552e-02 5.1857798696742690e-03 0.0000000000000000e+00 5.1857798696742690e-03 -8.8257743355444965e-02 0.0000000000000000e+00 0.0000000000000000e+00 0.0000000000000000e+00 0.0000000000000000e+00  -9.0533990353479338e-02 5.9520518879321695e-03 0.0000000000000000e+00 5.9520518879321695e-03 -8.7960425985389820e-02 0.0000000000000000e+00 0.0000000000000000e+00 0.0000000000000000e+00 0.0000000000000000e+00  -1.1718414023817977e-01 7.4769164487553550e-03 0.0000000000000000e+00 7.4769164487553550e-03 -7.2058998269696570e-02 0.0000000000000000e+00 0.0000000000000000e+00 0.0000000000000000e+00 0.0000000000000000e+00  -2.2627860116631035e-01 -3.5064002260232134e-03 0.0000000000000000e+00 -3.5064002260232134e-03 -9.1238787348115996e-02 0.0000000000000000e+00 0.0000000000000000e+00 0.0000000000000000e+00 0.0000000000000000e+00  2.3900706020900753e-01 -7.3335634973618447e-02 0.0000000000000000e+00 -7.3335634973618447e-02 -2.7087310975597434e-01 0.0000000000000000e+00 0.0000000000000000e+00 0.0000000000000000e+00 0.0000000000000000e+00  9.8044730390914978e-02 5.6861033833736703e-02 0.0000000000000000e+00 5.6861033833736703e-02 1.4339399191049404e-01 0.0000000000000000e+00 0.0000000000000000e+00 0.0000000000000000e+00 0.0000000000000000e+00  -9.9213904574666969e-03 -9.8281629949360284e-05 0.0000000000000000e+00 -9.8281629949360284e-05 1.9432399934668207e-02 0.0000000000000000e+00 0.0000000000000000e+00 0.0000000000000000e+00 0.0000000000000000e+00  7.7950306300032359e-03 -2.1735152313869172e-04 0.0000000000000000e+00 -2.1735152313869172e-04 9.2456677595998508e-03 0.0000000000000000e+00 0.0000000000000000e+00 0.0000000000000000e+00 0.0000000000000000e+00  7.7031013891654615e-03 3.5071203071202401e-05 0.0000000000000000e+00 3.5071203071202401e-05 7.7320006576413183e-03 0.0000000000000000e+00 0.0000000000000000e+00 0.0000000000000000e+00 0.0000000000000000e+00  7.7628504659872357e-03 1.5275183652415475e-05 0.0000000000000000e+00 1.5275183652415475e-05 7.7575283363568691e-03 0.0000000000000000e+00 0.0000000000000000e+00 0.0000000000000000e+00 0.0000000000000000e+00  7.7619467796361998e-03 5.1282371183253501e-05 0.0000000000000000e+00 5.1282371183253501e-05 7.7618586352278338e-03 0.0000000000000000e+00 0.0000000000000000e+00 0.0000000000000000e+00 0.0000000000000000e+00  7.7919471031348405e-03 -4.9677712265832183e-05 0.0000000000000000e+00 -4.9677712265832183e-05 7.7918106284902465e-03 0.0000000000000000e+00 0.0000000000000000e+00 0.0000000000000000e+00 0.0000000000000000e+00  7.7896930226105674e-03 -2.1200983352893400e-05 0.0000000000000000e+00 -2.1200983352893400e-05 7.7847749066391530e-03 0.0000000000000000e+00 0.0000000000000000e+00 0.0000000000000000e+00 0.0000000000000000e+00  7.8056396894800170e-03 -1.1533782855225921e-05 0.0000000000000000e+00 -1.1533782855225921e-05 7.7932865682339581e-03 0.0000000000000000e+00 0.0000000000000000e+00 0.0000000000000000e+00 0.0000000000000000e+00  7.4736548397728074e-03 2.9515299819085714e-04 0.0000000000000000e+00 2.9515299819085714e-04 8.1663486501098899e-03 0.0000000000000000e+00 0.0000000000000000e+00 0.0000000000000000e+00 0.0000000000000000e+00  1.7642879717017805e-03 -5.2795084428537593e-03 0.0000000000000000e+00 -5.2795084428537593e-03 1.0282154261804321e-02 0.0000000000000000e+00 0.0000000000000000e+00 0.0000000000000000e+00 0.0000000000000000e+00  2.6884195155104339e-02 1.3800467712277661e-02 0.0000000000000000e+00 1.3800467712277661e-02 1.3459011554726488e-01 0.0000000000000000e+00 0.0000000000000000e+00 0.0000000000000000e+00 0.0000000000000000e+00  2.6443500447927593e-01 6.8529649284022484e-02 0.0000000000000000e+00 6.8529649284022484e-02 -3.8569645818394238e-01 0.0000000000000000e+00 0.0000000000000000e+00 0.0000000000000000e+00 0.0000000000000000e+00  -2.0996195828446920e-01 -9.5799529777498005e-03 0.0000000000000000e+00 -9.5799529777498005e-03 3.0501831978971196e-02 0.0000000000000000e+00 0.0000000000000000e+00 0.0000000000000000e+00 0.0000000000000000e+00  -1.4791371591892521e-01 -1.1113786017356641e-02 0.0000000000000000e+00 -1.1113786017356641e-02 -7.8070554119977140e-02 0.0000000000000000e+00 0.0000000000000000e+00 0.0000000000000000e+00 0.0000000000000000e+00  -9.0985458471463151e-02 -8.2677075318912472e-03 0.0000000000000000e+00 -8.2677075318912472e-03 -8.7331804719890271e-02 0.0000000000000000e+00 0.0000000000000000e+00 0.0000000000000000e+00 0.0000000000000000e+00  -8.7935695121480695e-02 -6.1486625719293338e-03 0.0000000000000000e+00 -6.1486625719293338e-03 -8.8543914638818333e-02 0.0000000000000000e+00 0.0000000000000000e+00 0.0000000000000000e+00 0.0000000000000000e+00  -8.6805372219729129e-02 -5.3042403705548342e-03 0.0000000000000000e+00 -5.3042403705548342e-03 -9.0605070273190175e-02 0.0000000000000000e+00 0.0000000000000000e+00 0.0000000000000000e+00 0.0000000000000000e+00  -8.6539430610361248e-02 -4.5784453643594337e-03 0.0000000000000000e+00 -4.5784453643594337e-03 -9.1384240790798904e-02 0.0000000000000000e+00 0.0000000000000000e+00 0.0000000000000000e+00 0.0000000000000000e+00  -8.6167740494547063e-02 -4.0534018454829153e-03 0.0000000000000000e+00 -4.0534018454829153e-03 -9.2075694693827578e-02 0.0000000000000000e+00 0.0000000000000000e+00 0.0000000000000000e+00 0.0000000000000000e+00  -8.5847687110374035e-02 -3.7290399788230165e-03 0.0000000000000000e+00 -3.7290399788230165e-03 -9.2569602844155385e-02 0.0000000000000000e+00 0.0000000000000000e+00 0.0000000000000000e+00 0.0000000000000000e+00  -8.5567108384810783e-02 -3.5797894345406334e-03 0.0000000000000000e+00 -3.5797894345406334e-03 -9.2886701206828570e-02 0.0000000000000000e+00 0.0000000000000000e+00 0.0000000000000000e+00 0.0000000000000000e+00  -8.5307775494292956e-02 -3.5627882674161330e-03 0.0000000000000000e+00 -3.5627882674161330e-03 -9.3064822030695118e-02 0.0000000000000000e+00 0.0000000000000000e+00 0.0000000000000000e+00 0.0000000000000000e+00  -8.5062255596909914e-02 -3.6439866527981386e-03 0.0000000000000000e+00 -3.6439866527981386e-03 -9.3118984769729754e-02 0.0000000000000000e+00 0.0000000000000000e+00 0.0000000000000000e+00 0.0000000000000000e+00  -8.4821191830752804e-02 -3.7971684720358658e-03 0.0000000000000000e+00 -3.7971684720358658e-03 -9.3064424377779356e-02 0.0000000000000000e+00 0.0000000000000000e+00 0.0000000000000000e+00 0.0000000000000000e+00  -8.4580730686377087e-02 -4.0045168365717108e-03 0.0000000000000000e+00 -4.0045168365717108e-03 -9.2908587581775115e-02 0.0000000000000000e+00 0.0000000000000000e+00 0.0000000000000000e+00 0.0000000000000000e+00  -8.4340200087210174e-02 -4.2571826258334675e-03 0.0000000000000000e+00 -4.2571826258334675e-03 -9.2654629030129859e-02 0.0000000000000000e+00 0.0000000000000000e+00 0.0000000000000000e+00 0.0000000000000000e+00  -8.4099704475986900e-02 -4.5548563788011575e-03 0.0000000000000000e+00 -4.5548563788011575e-03 -9.2304677412407832e-02 0.0000000000000000e+00 0.0000000000000000e+00 0.0000000000000000e+00 0.0000000000000000e+00  -8.3856392840639712e-02 -4.9036117898301809e-03 0.0000000000000000e+00 -4.9036117898301809e-03 -9.1864469265018497e-02 0.0000000000000000e+00 0.0000000000000000e+00 0.0000000000000000e+00 0.0000000000000000e+00  -8.3601463329859710e-02 -5.3115088519673321e-03 0.0000000000000000e+00 -5.3115088519673321e-03 -9.1346843999368085e-02 0.0000000000000000e+00 0.0000000000000000e+00 0.0000000000000000e+00 0.0000000000000000e+00  -8.3319199121016041e-02 -5.7828828058176024e-03 0.0000000000000000e+00 -5.7828828058176024e-03 -9.0772488647961030e-02 0.0000000000000000e+00 0.0000000000000000e+00 0.0000000000000000e+00 0.0000000000000000e+00  -8.2988561881600642e-02 -6.3128952903031832e-03 0.0000000000000000e+00 -6.3128952903031832e-03 -9.0167249822920389e-02 0.0000000000000000e+00 0.0000000000000000e+00 0.0000000000000000e+00 0.0000000000000000e+00  -8.2586861923711938e-02 -6.8840855849963646e-03 0.0000000000000000e+00 -6.8840855849963646e-03 -8.9556638910891856e-02 0.0000000000000000e+00 0.0000000000000000e+00 0.0000000000000000e+00 0.0000000000000000e+00  -8.2094079933650727e-02 -7.4660241437763154e-03 0.0000000000000000e+00 -7.4660241437763154e-03 -8.8959355296204926e-02 0.0000000000000000e+00 0.0000000000000000e+00 0.0000000000000000e+00 0.0000000000000000e+00  -8.1496010498082597e-02 -8.0180068312488695e-03 0.0000000000000000e+00 -8.0180068312488695e-03 -8.8382158442791653e-02 0.0000000000000000e+00 0.0000000000000000e+00 0.0000000000000000e+00 0.0000000000000000e+00  -8.0784671824418952e-02 -8.4934865761951608e-03 0.0000000000000000e+00 -8.4934865761951608e-03 -8.7818023451989927e-02 0.0000000000000000e+00 0.0000000000000000e+00 0.0000000000000000e+00 0.0000000000000000e+00  -7.9955290482667432e-02 -8.8441088332802519e-03 0.0000000000000000e+00 -8.8441088332802519e-03 -8.7248336892407796e-02 0.0000000000000000e+00 0.0000000000000000e+00 0.0000000000000000e+00 0.0000000000000000e+00  -7.9000295473642457e-02 -9.0211094035501233e-03 0.0000000000000000e+00 -9.0211094035501233e-03 -8.6648357987953131e-02 0.0000000000000000e+00 0.0000000000000000e+00 0.0000000000000000e+00 0.0000000000000000e+00  -7.7901735007013556e-02 -8.9724785439992752e-03 0.0000000000000000e+00 -8.9724785439992752e-03 -8.5993819137046582e-02 0.0000000000000000e+00 0.0000000000000000e+00 0.0000000000000000e+00 0.0000000000000000e+00  -7.6624009587184766e-02 -8.6354370232062782e-03 0.0000000000000000e+00 -8.6354370232062782e-03 -8.5265827439453351e-02 0.0000000000000000e+00 0.0000000000000000e+00 0.0000000000000000e+00 0.0000000000000000e+00  -7.5108665621875431e-02 -7.9249320454428361e-03 0.0000000000000000e+00 -7.9249320454428361e-03 -8.4451327414911376e-02 0.0000000000000000e+00 0.0000000000000000e+00 0.0000000000000000e+00 0.0000000000000000e+00  -7.3272358062389520e-02 -6.7195721190626426e-03 0.0000000000000000e+00 -6.7195721190626426e-03 -8.3537099847404830e-02 0.0000000000000000e+00 0.0000000000000000e+00 0.0000000000000000e+00 0.0000000000000000e+00  -7.1008441212016785e-02 -4.8463189686610035e-03 0.0000000000000000e+00 -4.8463189686610035e-03 -8.2495995910622788e-02 0.0000000000000000e+00 0.0000000000000000e+00 0.0000000000000000e+00 0.0000000000000000e+00  -6.8192694845787896e-02 -2.0647032304242528e-03 0.0000000000000000e+00 -2.0647032304242528e-03 -8.1264026377501311e-02 0.0000000000000000e+00 0.0000000000000000e+00 0.0000000000000000e+00 0.0000000000000000e+00  -6.4693921961065354e-02 1.9498276654665051e-03 0.0000000000000000e+00 1.9498276654665051e-03 -7.9706437840697961e-02 0.0000000000000000e+00 0.0000000000000000e+00 0.0000000000000000e+00 0.0000000000000000e+00  -6.0396100514681285e-02 7.6234138287151346e-03 0.0000000000000000e+00 7.6234138287151346e-03 -7.7564505078189683e-02 0.0000000000000000e+00 0.0000000000000000e+00 0.0000000000000000e+00 0.0000000000000000e+00  -5.5232221455614482e-02 1.5498610363856712e-02 0.0000000000000000e+00 1.5498610363856712e-02 -7.4383373525497079e-02 0.0000000000000000e+00 0.0000000000000000e+00 0.0000000000000000e+00 0.0000000000000000e+00  -4.9254506033510143e-02 2.6248933827816453e-02 0.0000000000000000e+00 2.6248933827816453e-02 -6.9388891048048740e-02 0.0000000000000000e+00 0.0000000000000000e+00 0.0000000000000000e+00 0.0000000000000000e+00  -4.2820089991621992e-02 4.0620915872721416e-02 0.0000000000000000e+00 4.0620915872721416e-02 -6.1260701979288089e-02 0.0000000000000000e+00 0.0000000000000000e+00 0.0000000000000000e+00 0.0000000000000000e+00  -3.6386836443926360e-02 5.9510516074512722e-02 0.0000000000000000e+00 5.9510516074512722e-02 -4.8430219033406843e-02 0.0000000000000000e+00 0.0000000000000000e+00 0.0000000000000000e+00 0.0000000000000000e+00  -3.2177671792388104e-02 8.2742786226007836e-02 0.0000000000000000e+00 8.2742786226007836e-02 -2.6450279307968116e-02 0.0000000000000000e+00 0.0000000000000000e+00 0.0000000000000000e+00 0.0000000000000000e+00  -3.0518675842039079e-02 1.1474352290165130e-01 0.0000000000000000e+00 1.1474352290165130e-01 4.9919695102414521e-03 0.0000000000000000e+00 0.0000000000000000e+00 0.0000000000000000e+00 0.0000000000000000e+00  -3.0002655420825371e-02 1.2289500302704863e-01 0.0000000000000000e+00 1.2289500302704863e-01 5.7350702066064060e-02 0.0000000000000000e+00 0.0000000000000000e+00 0.0000000000000000e+00 0.0000000000000000e+00  1.2752820692660347e-02 2.8083814921294609e-01 0.0000000000000000e+00 2.8083814921294609e-01 1.6993368963277189e-01 0.0000000000000000e+00 0.0000000000000000e+00 0.0000000000000000e+00 0.0000000000000000e+00  -8.6041347195273798e-03 2.5794412613366946e-01 0.0000000000000000e+00 2.5794412613366946e-01 1.4391044317643514e-01 0.0000000000000000e+00 0.0000000000000000e+00 0.0000000000000000e+00 0.0000000000000000e+00  -8.1014691071776179e-01 -5.5807095310809074e-02 0.0000000000000000e+00 -5.5807095310809074e-02 3.2794489996529674e-01 0.0000000000000000e+00 0.0000000000000000e+00 0.0000000000000000e+00 0.0000000000000000e+00  -1.0143714712370504e+00 1.9283659865873125e-03 0.0000000000000000e+00 1.9283659865873125e-03 -1.8802768081934321e-01 0.0000000000000000e+00 0.0000000000000000e+00 0.0000000000000000e+00 0.0000000000000000e+00  -2.3454033374136032e-01 -1.2358851467943530e-01 0.0000000000000000e+00 -1.2358851467943530e-01 1.9442705646639516e-01 0.0000000000000000e+00 0.0000000000000000e+00 0.0000000000000000e+00 0.0000000000000000e+00  2.4831042285725649e-02 -3.3628451035677059e-01 0.0000000000000000e+00 -3.3628451035677059e-01 1.9588488650728308e-01 0.0000000000000000e+00 0.0000000000000000e+00 0.0000000000000000e+00 0.0000000000000000e+00  -2.7567133668205238e-02 -1.1812894655058875e-01 0.0000000000000000e+00 -1.1812894655058875e-01 4.2270491512616422e-02 0.0000000000000000e+00 0.0000000000000000e+00 0.0000000000000000e+00 0.0000000000000000e+00  -2.9145180260323804e-02 -1.0750131914676393e-01 0.0000000000000000e+00 -1.0750131914676393e-01 -5.4268833722442063e-03 0.0000000000000000e+00 0.0000000000000000e+00 0.0000000000000000e+00 0.0000000000000000e+00  -3.2046550720104532e-02 -7.5435325598612088e-02 0.0000000000000000e+00 -7.5435325598612088e-02 -3.4947671188982649e-02 0.0000000000000000e+00 0.0000000000000000e+00 0.0000000000000000e+00 0.0000000000000000e+00  -3.6844226217943706e-02 -5.2645298308619415e-02 0.0000000000000000e+00 -5.2645298308619415e-02 -5.5185733375973635e-02 0.0000000000000000e+00 0.0000000000000000e+00 0.0000000000000000e+00 0.0000000000000000e+00  -4.3808445292238381e-02 -3.4445074006142419e-02 0.0000000000000000e+00 -3.4445074006142419e-02 -6.6486334723538723e-02 0.0000000000000000e+00 0.0000000000000000e+00 0.0000000000000000e+00 0.0000000000000000e+00  -5.0533488855138545e-02 -2.0911607828685924e-02 0.0000000000000000e+00 -2.0911607828685924e-02 -7.3414596824734543e-02 0.0000000000000000e+00 0.0000000000000000e+00 0.0000000000000000e+00 0.0000000000000000e+00  -5.6633718349421297e-02 -1.1016324139434146e-02 0.0000000000000000e+00 -1.1016324139434146e-02 -7.7485382102935860e-02 0.0000000000000000e+00 0.0000000000000000e+00 0.0000000000000000e+00 0.0000000000000000e+00  -6.1793191360513824e-02 -3.9416143880235521e-03 0.0000000000000000e+00 -3.9416143880235521e-03 -7.9988222782890472e-02 0.0000000000000000e+00 0.0000000000000000e+00 0.0000000000000000e+00 0.0000000000000000e+00  -6.6011146622850125e-02 1.0216266518724394e-03 0.0000000000000000e+00 1.0216266518724394e-03 -8.1639968807217272e-02 0.0000000000000000e+00 0.0000000000000000e+00 0.0000000000000000e+00 0.0000000000000000e+00  -6.9391004368497169e-02 4.4276666680935365e-03 0.0000000000000000e+00 4.4276666680935365e-03 -8.2845563626850624e-02 0.0000000000000000e+00 0.0000000000000000e+00 0.0000000000000000e+00 0.0000000000000000e+00  -7.2074202912730354e-02 6.7007096294380503e-03 0.0000000000000000e+00 6.7007096294380503e-03 -8.3822235987661767e-02 0.0000000000000000e+00 0.0000000000000000e+00 0.0000000000000000e+00 0.0000000000000000e+00  -7.4207718759808403e-02 8.1562544916241840e-03 0.0000000000000000e+00 8.1562544916241840e-03 -8.4673390007531477e-02 0.0000000000000000e+00 0.0000000000000000e+00 0.0000000000000000e+00 0.0000000000000000e+00  -7.5924580635390163e-02 9.0227090974663911e-03 0.0000000000000000e+00 9.0227090974663911e-03 -8.5440512923341427e-02 0.0000000000000000e+00 0.0000000000000000e+00 0.0000000000000000e+00 0.0000000000000000e+00  -7.7335405591844694e-02 9.4604965449851305e-03 0.0000000000000000e+00 9.4604965449851305e-03 -8.6135431687134528e-02 0.0000000000000000e+00 0.0000000000000000e+00 0.0000000000000000e+00 0.0000000000000000e+00  -7.8524410129784672e-02 9.5791894237803980e-03 0.0000000000000000e+00 9.5791894237803980e-03 -8.6761443270510427e-02 0.0000000000000000e+00 0.0000000000000000e+00 0.0000000000000000e+00 0.0000000000000000e+00  -7.9549096058009972e-02 9.4534604251263910e-03 0.0000000000000000e+00 9.4534604251263910e-03 -8.7325528003812103e-02 0.0000000000000000e+00 0.0000000000000000e+00 0.0000000000000000e+00 0.0000000000000000e+00  -8.0443181837075675e-02 9.1373543373933358e-03 0.0000000000000000e+00 9.1373543373933358e-03 -8.7843100358026602e-02 0.0000000000000000e+00 0.0000000000000000e+00 0.0000000000000000e+00 0.0000000000000000e+00  -8.1222395154271834e-02 8.6757501785583186e-03 0.0000000000000000e+00 8.6757501785583186e-03 -8.8336605282198777e-02 0.0000000000000000e+00 0.0000000000000000e+00 0.0000000000000000e+00 0.0000000000000000e+00  -8.1892097028303953e-02 8.1117184824143051e-03 0.0000000000000000e+00 8.1117184824143051e-03 -8.8829945242310304e-02 0.0000000000000000e+00 0.0000000000000000e+00 0.0000000000000000e+00 0.0000000000000000e+00  -8.2455061918659880e-02 7.4891430183377872e-03 0.0000000000000000e+00 7.4891430183377872e-03 -8.9341422624019576e-02 0.0000000000000000e+00 0.0000000000000000e+00 0.0000000000000000e+00 0.0000000000000000e+00  -8.2917576075239433e-02 6.8511046528814401e-03 0.0000000000000000e+00 6.8511046528814401e-03 -8.9877980223647930e-02 0.0000000000000000e+00 0.0000000000000000e+00 0.0000000000000000e+00 0.0000000000000000e+00  -8.3292482089639047e-02 6.2356437385500561e-03 0.0000000000000000e+00 6.2356437385500561e-03 -9.0432818748001145e-02 0.0000000000000000e+00 0.0000000000000000e+00 0.0000000000000000e+00 0.0000000000000000e+00  -8.3598762895316231e-02 5.6711491089256197e-03 0.0000000000000000e+00 5.6711491089256197e-03 -9.0987131190083018e-02 0.0000000000000000e+00 0.0000000000000000e+00 0.0000000000000000e+00 0.0000000000000000e+00  -8.3858372646004528e-02 5.1735076990294948e-03 0.0000000000000000e+00 5.1735076990294948e-03 -9.1515173869169755e-02 0.0000000000000000e+00 0.0000000000000000e+00 0.0000000000000000e+00 0.0000000000000000e+00  -8.4091878867108727e-02 4.7463170744463101e-03 0.0000000000000000e+00 4.7463170744463101e-03 -9.1990724499516993e-02 0.0000000000000000e+00 0.0000000000000000e+00 0.0000000000000000e+00 0.0000000000000000e+00  -8.4314750724416854e-02 4.3842215675201305e-03 0.0000000000000000e+00 4.3842215675201305e-03 -9.2392585993617563e-02 0.0000000000000000e+00 0.0000000000000000e+00 0.0000000000000000e+00 0.0000000000000000e+00  -8.4535721665725067e-02 4.0782683845823724e-03 0.0000000000000000e+00 4.0782683845823724e-03 -9.2707303289759291e-02 0.0000000000000000e+00 0.0000000000000000e+00 0.0000000000000000e+00 0.0000000000000000e+00  -8.4757708079427577e-02 3.8215430183587600e-03 0.0000000000000000e+00 3.8215430183587600e-03 -9.2928462966548386e-02 0.0000000000000000e+00 0.0000000000000000e+00 0.0000000000000000e+00 0.0000000000000000e+00  -8.4980752628495040e-02 3.6135065967350531e-03 0.0000000000000000e+00 3.6135065967350531e-03 -9.3053259076911199e-02 0.0000000000000000e+00 0.0000000000000000e+00 0.0000000000000000e+00 0.0000000000000000e+00  -8.5205690246717938e-02 3.4621133035041022e-03 0.0000000000000000e+00 3.4621133035041022e-03 -9.3077943699624882e-02 0.0000000000000000e+00 0.0000000000000000e+00 0.0000000000000000e+00 0.0000000000000000e+00  -8.5436464843630142e-02 3.3842407382543103e-03 0.0000000000000000e+00 3.3842407382543103e-03 -9.2994668656737417e-02 0.0000000000000000e+00 0.0000000000000000e+00 0.0000000000000000e+00 0.0000000000000000e+00  -8.5682342450409330e-02 3.4051858534166878e-03 0.0000000000000000e+00 3.4051858534166878e-03 -9.2788115626417228e-02 0.0000000000000000e+00 0.0000000000000000e+00 0.0000000000000000e+00 0.0000000000000000e+00  -8.5950390959124448e-02 3.5582819529815868e-03 0.0000000000000000e+00 3.5582819529815868e-03 -9.2443564310251469e-02 0.0000000000000000e+00 0.0000000000000000e+00 0.0000000000000000e+00 0.0000000000000000e+00  -8.6258289953105138e-02 3.8860956945360350e-03 0.0000000000000000e+00 3.8860956945360350e-03 -9.1923771618122721e-02 0.0000000000000000e+00 0.0000000000000000e+00 0.0000000000000000e+00 0.0000000000000000e+00  -8.6617161265182568e-02 4.4146133927023511e-03 0.0000000000000000e+00 4.4146133927023511e-03 -9.1209023871346870e-02 0.0000000000000000e+00 0.0000000000000000e+00 0.0000000000000000e+00 0.0000000000000000e+00  -8.6870561322578171e-02 5.1449393122527127e-03 0.0000000000000000e+00 5.1449393122527127e-03 -9.0407405718279557e-02 0.0000000000000000e+00 0.0000000000000000e+00 0.0000000000000000e+00 0.0000000000000000e+00  -8.7987461778102821e-02 5.9963297863123060e-03 0.0000000000000000e+00 5.9963297863123060e-03 -8.8328058512123650e-02 0.0000000000000000e+00 0.0000000000000000e+00 0.0000000000000000e+00 0.0000000000000000e+00  -9.1028880169852833e-02 8.1188797450074957e-03 0.0000000000000000e+00 8.1188797450074957e-03 -8.7098557115077510e-02 0.0000000000000000e+00 0.0000000000000000e+00 0.0000000000000000e+00 0.0000000000000000e+00  -1.4794760622170414e-01 1.0973362943979601e-02 0.0000000000000000e+00 1.0973362943979601e-02 -7.7793400761641360e-02 0.0000000000000000e+00 0.0000000000000000e+00 0.0000000000000000e+00 0.0000000000000000e+00  -2.1024354249212360e-01 9.3084767294131406e-03 0.0000000000000000e+00 9.3084767294131406e-03 3.0469605444239874e-02 0.0000000000000000e+00 0.0000000000000000e+00 0.0000000000000000e+00 0.0000000000000000e+00  2.6464535705339304e-01 -6.8708044697994949e-02 0.0000000000000000e+00 -6.8708044697994949e-02 -3.8552964541975077e-01 0.0000000000000000e+00 0.0000000000000000e+00 0.0000000000000000e+00 0.0000000000000000e+00  2.7250120081375517e-02 -1.3698711800549211e-02 0.0000000000000000e+00 -1.3698711800549211e-02 1.3496256141200613e-01 0.0000000000000000e+00 0.0000000000000000e+00 0.0000000000000000e+00 0.0000000000000000e+00  1.8860686905331856e-03 5.2712575737994642e-03 0.0000000000000000e+00 5.2712575737994642e-03 1.0334759661149806e-02 0.0000000000000000e+00 0.0000000000000000e+00 0.0000000000000000e+00 0.0000000000000000e+00  7.3918462371210273e-03 -2.9100887794041941e-04 0.0000000000000000e+00 -2.9100887794041941e-04 8.0959961433416713e-03 0.0000000000000000e+00 0.0000000000000000e+00 0.0000000000000000e+00 0.0000000000000000e+00  7.7463099015762926e-03 1.6574984776431388e-05 0.0000000000000000e+00 1.6574984776431388e-05 7.7365423414281877e-03 0.0000000000000000e+00 0.0000000000000000e+00 0.0000000000000000e+00 0.0000000000000000e+00  7.7275276256578230e-03 2.2807461714206172e-05 0.0000000000000000e+00 2.2807461714206172e-05 7.7238769743579799e-03 0.0000000000000000e+00 0.0000000000000000e+00 0.0000000000000000e+00 0.0000000000000000e+00  7.7292983347778104e-03 5.1609589603770504e-05 0.0000000000000000e+00 5.1609589603770504e-05 7.7302258062331370e-03 0.0000000000000000e+00 0.0000000000000000e+00 0.0000000000000000e+00 0.0000000000000000e+00  7.7618791405435240e-03 -5.0078648734618939e-05 0.0000000000000000e+00 -5.0078648734618939e-05 7.7634022391591005e-03 0.0000000000000000e+00 0.0000000000000000e+00 0.0000000000000000e+00 0.0000000000000000e+00  7.7622537800489519e-03 -2.6283567114572546e-05 0.0000000000000000e+00 -2.6283567114572546e-05 7.7598586015489388e-03 0.0000000000000000e+00 0.0000000000000000e+00 0.0000000000000000e+00 0.0000000000000000e+00  7.7692213454865783e-03 8.8528554156970617e-06 0.0000000000000000e+00 8.8528554156970617e-06 7.7671106117301100e-03 0.0000000000000000e+00 0.0000000000000000e+00 0.0000000000000000e+00 0.0000000000000000e+00  7.4755437864396871e-03 -1.0244833517771011e-04 0.0000000000000000e+00 -1.0244833517771011e-04 7.6787276872277450e-03 0.0000000000000000e+00 0.0000000000000000e+00 0.0000000000000000e+00 0.0000000000000000e+00  8.3557662232486511e-03 -1.1422327221602055e-03 0.0000000000000000e+00 -1.1422327221602055e-03 1.0662740321728596e-02 0.0000000000000000e+00 0.0000000000000000e+00 0.0000000000000000e+00 0.0000000000000000e+00  -1.7271975338323187e-02 1.5218601812338355e-02 0.0000000000000000e+00 1.5218601812338355e-02 4.8809386717479024e-02 0.0000000000000000e+00 0.0000000000000000e+00 0.0000000000000000e+00 0.0000000000000000e+00  6.2685896636370073e-02 -1.0541428795868163e-01 0.0000000000000000e+00 -1.0541428795868163e-01 -7.2403410573471438e-02 0.0000000000000000e+00 0.0000000000000000e+00 0.0000000000000000e+00 0.0000000000000000e+00  3.5996819345054401e-02 3.7500825762903561e-02 0.0000000000000000e+00 3.7500825762903561e-02 -1.0522785678265448e-01 0.0000000000000000e+00 0.0000000000000000e+00 0.0000000000000000e+00 0.0000000000000000e+00  -1.8493461583632104e-01 -2.1967656172596065e-02 0.0000000000000000e+00 -2.1967656172596065e-02 -7.7185354698804512e-02 0.0000000000000000e+00 0.0000000000000000e+00 0.0000000000000000e+00 0.0000000000000000e+00  -9.7503210907802895e-02 -6.5515366213220131e-03 0.0000000000000000e+00 -6.5515366213220131e-03 -7.6650897315197489e-02 0.0000000000000000e+00 0.0000000000000000e+00 0.0000000000000000e+00 0.0000000000000000e+00  -8.6508723505960866e-02 -6.2974005761433065e-03 0.0000000000000000e+00 -6.2974005761433065e-03 -9.0666795287625071e-02 0.0000000000000000e+00 0.0000000000000000e+00 0.0000000000000000e+00 0.0000000000000000e+00  -8.6535859848483040e-02 -5.6545509566793039e-03 0.0000000000000000e+00 -5.6545509566793039e-03 -9.1124613229634568e-02 0.0000000000000000e+00 0.0000000000000000e+00 0.0000000000000000e+00 0.0000000000000000e+00  -8.6479565444445142e-02 -4.9662935887664844e-03 0.0000000000000000e+00 -4.9662935887664844e-03 -9.1827687541116323e-02 0.0000000000000000e+00 0.0000000000000000e+00 0.0000000000000000e+00 0.0000000000000000e+00  -8.6381206550047482e-02 -4.4736661943333075e-03 0.0000000000000000e+00 -4.4736661943333075e-03 -9.2383182168076047e-02 0.0000000000000000e+00 0.0000000000000000e+00 0.0000000000000000e+00 0.0000000000000000e+00  -8.6296573897045897e-02 -4.1700601891971004e-03 0.0000000000000000e+00 -4.1700601891971004e-03 -9.2639605432116495e-02 0.0000000000000000e+00 0.0000000000000000e+00 0.0000000000000000e+00 0.0000000000000000e+00  -8.6141766366071876e-02 -4.0216643712856388e-03 0.0000000000000000e+00 -4.0216643712856388e-03 -9.2811238398236365e-02 0.0000000000000000e+00 0.0000000000000000e+00 0.0000000000000000e+00 0.0000000000000000e+00  -8.5971315458116274e-02 -3.9958162197486595e-03 0.0000000000000000e+00 -3.9958162197486595e-03 -9.2867822446359521e-02 0.0000000000000000e+00 0.0000000000000000e+00 0.0000000000000000e+00 0.0000000000000000e+00  -8.5784249460366613e-02 -4.0638383525085971e-03 0.0000000000000000e+00 -4.0638383525085971e-03 -9.2836145990600791e-02 0.0000000000000000e+00 0.0000000000000000e+00 0.0000000000000000e+00 0.0000000000000000e+00  -8.5589214359293148e-02 -4.1998046438992461e-03 0.0000000000000000e+00 -4.1998046438992461e-03 -9.2720026574970207e-02 0.0000000000000000e+00 0.0000000000000000e+00 0.0000000000000000e+00 0.0000000000000000e+00  -8.5393484165956171e-02 -4.3844378675791836e-03 0.0000000000000000e+00 -4.3844378675791836e-03 -9.2518656570138358e-02 0.0000000000000000e+00 0.0000000000000000e+00 0.0000000000000000e+00 0.0000000000000000e+00  -8.5207491576126421e-02 -4.6081704285694100e-03 0.0000000000000000e+00 -4.6081704285694100e-03 -9.2224079022338368e-02 0.0000000000000000e+00 0.0000000000000000e+00 0.0000000000000000e+00 0.0000000000000000e+00  -8.5040968857560031e-02 -4.8739380363078911e-03 0.0000000000000000e+00 -4.8739380363078911e-03 -9.1827850512618145e-02 0.0000000000000000e+00 0.0000000000000000e+00 0.0000000000000000e+00 0.0000000000000000e+00  -8.4897436055953582e-02 -5.1952577363176570e-03 0.0000000000000000e+00 -5.1952577363176570e-03 -9.1328968770330782e-02 0.0000000000000000e+00 0.0000000000000000e+00 0.0000000000000000e+00 0.0000000000000000e+00  -8.4769592115739187e-02 -5.5901570231338855e-03 0.0000000000000000e+00 -5.5901570231338855e-03 -9.0740153852221714e-02 0.0000000000000000e+00 0.0000000000000000e+00 0.0000000000000000e+00 0.0000000000000000e+00  -8.4637780542889021e-02 -6.0722609314186986e-03 0.0000000000000000e+00 -6.0722609314186986e-03 -9.0089650208110536e-02 0.0000000000000000e+00 0.0000000000000000e+00 0.0000000000000000e+00 0.0000000000000000e+00  -8.4472821452169264e-02 -6.6420139206595846e-03 0.0000000000000000e+00 -6.6420139206595846e-03 -8.9417025641381806e-02 0.0000000000000000e+00 0.0000000000000000e+00 0.0000000000000000e+00 0.0000000000000000e+00  -8.4242442976750251e-02 -7.2812056433822917e-03 0.0000000000000000e+00 -7.2812056433822917e-03 -8.8763998587930618e-02 0.0000000000000000e+00 0.0000000000000000e+00 0.0000000000000000e+00 0.0000000000000000e+00  -8.3918990515373895e-02 -7.9529130088820538e-03 0.0000000000000000e+00 -7.9529130088820538e-03 -8.8163405118273003e-02 0.0000000000000000e+00 0.0000000000000000e+00 0.0000000000000000e+00 0.0000000000000000e+00  -8.3485294522328238e-02 -8.6069167591994334e-03 0.0000000000000000e+00 -8.6069167591994334e-03 -8.7630419463798889e-02 0.0000000000000000e+00 0.0000000000000000e+00 0.0000000000000000e+00 0.0000000000000000e+00  -8.2936046612296435e-02 -9.1884708190821743e-03 0.0000000000000000e+00 -9.1884708190821743e-03 -8.7159469800724088e-02 0.0000000000000000e+00 0.0000000000000000e+00 0.0000000000000000e+00 0.0000000000000000e+00  -8.2273492611450338e-02 -9.6468747738762892e-03 0.0000000000000000e+00 -9.6468747738762892e-03 -8.6728276353133807e-02 0.0000000000000000e+00 0.0000000000000000e+00 0.0000000000000000e+00 0.0000000000000000e+00  -8.1498130921732484e-02 -9.9401221779700476e-03 0.0000000000000000e+00 -9.9401221779700476e-03 -8.6307844751492890e-02 0.0000000000000000e+00 0.0000000000000000e+00 0.0000000000000000e+00 0.0000000000000000e+00  -8.0596720115332282e-02 -1.0033018080870251e-02 0.0000000000000000e+00 -1.0033018080870251e-02 -8.5874984438560828e-02 0.0000000000000000e+00 0.0000000000000000e+00 0.0000000000000000e+00 0.0000000000000000e+00  -7.9530642910157837e-02 -9.8881651035211387e-03 0.0000000000000000e+00 -9.8881651035211387e-03 -8.5422797675498513e-02 0.0000000000000000e+00 0.0000000000000000e+00 0.0000000000000000e+00 0.0000000000000000e+00  -7.8227173565945815e-02 -9.4512892228997333e-03 0.0000000000000000e+00 -9.4512892228997333e-03 -8.4965050603134307e-02 0.0000000000000000e+00 0.0000000000000000e+00 0.0000000000000000e+00 0.0000000000000000e+00  -7.6574798221867316e-02 -8.6335120448158362e-03 0.0000000000000000e+00 -8.6335120448158362e-03 -8.4531942064548116e-02 0.0000000000000000e+00 0.0000000000000000e+00 0.0000000000000000e+00 0.0000000000000000e+00  -7.4421924236650130e-02 -7.2930322449049050e-03 0.0000000000000000e+00 -7.2930322449049050e-03 -8.4156771037934827e-02 0.0000000000000000e+00 0.0000000000000000e+00 0.0000000000000000e+00 0.0000000000000000e+00  -7.1577219654871085e-02 -5.2165746256521628e-03 0.0000000000000000e+00 -5.2165746256521628e-03 -8.3853767101120358e-02 0.0000000000000000e+00 0.0000000000000000e+00 0.0000000000000000e+00 0.0000000000000000e+00  -6.7811512967220933e-02 -2.0998833603125986e-03 0.0000000000000000e+00 -2.0998833603125986e-03 -8.3584990859680811e-02 0.0000000000000000e+00 0.0000000000000000e+00 0.0000000000000000e+00 0.0000000000000000e+00  -6.2855140978027468e-02 2.4784413074214742e-03 0.0000000000000000e+00 2.4784413074214742e-03 -8.3217945273378363e-02 0.0000000000000000e+00 0.0000000000000000e+00 0.0000000000000000e+00 0.0000000000000000e+00  -5.6426983318384784e-02 9.0913305505062394e-03 0.0000000000000000e+00 9.0913305505062394e-03 -8.2428717334668014e-02 0.0000000000000000e+00 0.0000000000000000e+00 0.0000000000000000e+00 0.0000000000000000e+00  -4.8203349047546647e-02 1.8492911498044006e-02 0.0000000000000000e+00 1.8492911498044006e-02 -8.0652847146032602e-02 0.0000000000000000e+00 0.0000000000000000e+00 0.0000000000000000e+00 0.0000000000000000e+00  -3.7981714172206624e-02 3.1705841213688163e-02 0.0000000000000000e+00 3.1705841213688163e-02 -7.6719782189832775e-02 0.0000000000000000e+00 0.0000000000000000e+00 0.0000000000000000e+00 0.0000000000000000e+00  -2.5976852496113752e-02 4.9755834928568873e-02 0.0000000000000000e+00 4.9755834928568873e-02 -6.8391974198956415e-02 0.0000000000000000e+00 0.0000000000000000e+00 0.0000000000000000e+00 0.0000000000000000e+00  -1.1622379186346546e-02 7.5623607990445318e-02 0.0000000000000000e+00 7.5623607990445318e-02 -5.5364202891152625e-02 0.0000000000000000e+00 0.0000000000000000e+00 0.0000000000000000e+00 0.0000000000000000e+00  5.1915313056910177e-03 9.9126829150336479e-02 0.0000000000000000e+00 9.9126829150336479e-02 -2.2310254382331435e-02 0.0000000000000000e+00 0.0000000000000000e+00 0.0000000000000000e+00 0.0000000000000000e+00  1.1879708489632261e-02 2.1656726620601563e-01 0.0000000000000000e+00 2.1656726620601563e-01 7.0255123254486115e-02 0.0000000000000000e+00 0.0000000000000000e+00 0.0000000000000000e+00 0.0000000000000000e+00  5.2640836123310872e-02 1.8184358674562440e-01 0.0000000000000000e+00 1.8184358674562440e-01 1.2485342772644129e-01 0.0000000000000000e+00 0.0000000000000000e+00 0.0000000000000000e+00 0.0000000000000000e+00  -3.1013353631264379e-01 5.6090103930486877e-02 0.0000000000000000e+00 5.6090103930486877e-02 -1.8107102195483238e-01 0.0000000000000000e+00 0.0000000000000000e+00 0.0000000000000000e+00 0.0000000000000000e+00  8.0730619787054966e-02 6.5916720828360031e-02 0.0000000000000000e+00 6.5916720828360031e-02 4.7527971684938393e-02 0.0000000000000000e+00 0.0000000000000000e+00 0.0000000000000000e+00 0.0000000000000000e+00  8.1021728199315718e-02 -9.9630680379366003e-03 0.0000000000000000e+00 -9.9630680379365951e-03 6.8996103841135581e-02 0.0000000000000000e+00 0.0000000000000000e+00 0.0000000000000000e+00 0.0000000000000000e+00  -1.6026489845530409e-01 -1.4275794754805765e-01 0.0000000000000000e+00 -1.4275794754805765e-01 -1.8405300091835641e-01 0.0000000000000000e+00 0.0000000000000000e+00 0.0000000000000000e+00 0.0000000000000000e+00  -2.4908100668457563e-02 -5.9830896494399897e-02 0.0000000000000000e+00 -5.9830896494399897e-02 -7.1866546968183545e-03 0.0000000000000000e+00 0.0000000000000000e+00 0.0000000000000000e+00 0.0000000000000000e+00  -1.4389213871162434e-02 -2.2370158879385516e-01 0.0000000000000000e+00 -2.2370158879385516e-01 8.1116520455115013e-02 0.0000000000000000e+00 0.0000000000000000e+00 0.0000000000000000e+00 0.0000000000000000e+00  7.6367391569245836e-04 -9.1740155481293106e-02 0.0000000000000000e+00 -9.1740155481293106e-02 -3.1857060914904901e-02 0.0000000000000000e+00 0.0000000000000000e+00 0.0000000000000000e+00 0.0000000000000000e+00  -1.3542121706047282e-02 -6.7727337205706187e-02 0.0000000000000000e+00 -6.7727337205706187e-02 -6.3849617057772048e-02 0.0000000000000000e+00 0.0000000000000000e+00 0.0000000000000000e+00 0.0000000000000000e+00  -2.8529792935301751e-02 -4.2306066160672708e-02 0.0000000000000000e+00 -4.2306066160672708e-02 -7.4316771131598972e-02 0.0000000000000000e+00 0.0000000000000000e+00 0.0000000000000000e+00 0.0000000000000000e+00  -4.0703987241027043e-02 -2.5276221532943396e-02 0.0000000000000000e+00 -2.5276221532943396e-02 -8.1055765956246487e-02 0.0000000000000000e+00 0.0000000000000000e+00 0.0000000000000000e+00 0.0000000000000000e+00  -5.0935508030973790e-02 -1.3115889304704203e-02 0.0000000000000000e+00 -1.3115889304704203e-02 -8.3730843612996153e-02 0.0000000000000000e+00 0.0000000000000000e+00 0.0000000000000000e+00 0.0000000000000000e+00  -5.8978314111199602e-02 -4.7119405395458598e-03 0.0000000000000000e+00 -4.7119405395458598e-03 -8.4648593176594122e-02 0.0000000000000000e+00 0.0000000000000000e+00 0.0000000000000000e+00 0.0000000000000000e+00  -6.5140101064952050e-02 1.0232468963374828e-03 0.0000000000000000e+00 1.0232468963374828e-03 -8.4861438996682456e-02 0.0000000000000000e+00 0.0000000000000000e+00 0.0000000000000000e+00 0.0000000000000000e+00  -6.9798373311273434e-02 4.8589637336285034e-03 0.0000000000000000e+00 4.8589637336285034e-03 -8.4854805577821782e-02 0.0000000000000000e+00 0.0000000000000000e+00 0.0000000000000000e+00 0.0000000000000000e+00  -7.3270799557209526e-02 7.3642032609874640e-03 0.0000000000000000e+00 7.3642032609874640e-03 -8.4884539574811166e-02 0.0000000000000000e+00 0.0000000000000000e+00 0.0000000000000000e+00 0.0000000000000000e+00  -7.5846819763593157e-02 8.9463938472052439e-03 0.0000000000000000e+00 8.9463938472052439e-03 -8.5033991447525506e-02 0.0000000000000000e+00 0.0000000000000000e+00 0.0000000000000000e+00 0.0000000000000000e+00  -7.7765091663657943e-02 9.8922208915992703e-03 0.0000000000000000e+00 9.8922208915992703e-03 -8.5306485346215682e-02 0.0000000000000000e+00 0.0000000000000000e+00 0.0000000000000000e+00 0.0000000000000000e+00  -7.9219517712390233e-02 1.0397214533026493e-02 0.0000000000000000e+00 1.0397214533026493e-02 -8.5664986659889544e-02 0.0000000000000000e+00 0.0000000000000000e+00 0.0000000000000000e+00 0.0000000000000000e+00  -8.0360139639219424e-02 1.0587029602688930e-02 0.0000000000000000e+00 1.0587029602688930e-02 -8.6062041950405371e-02 0.0000000000000000e+00 0.0000000000000000e+00 0.0000000000000000e+00 0.0000000000000000e+00  -8.1294686471377067e-02 1.0536750762030801e-02 0.0000000000000000e+00 1.0536750762030801e-02 -8.6459372636521772e-02 0.0000000000000000e+00 0.0000000000000000e+00 0.0000000000000000e+00 0.0000000000000000e+00  -8.2091156424423092e-02 1.0289365665054805e-02 0.0000000000000000e+00 1.0289365665054805e-02 -8.6839148275792158e-02 0.0000000000000000e+00 0.0000000000000000e+00 0.0000000000000000e+00 0.0000000000000000e+00  -8.2783310993806480e-02 9.8733178839204745e-03 0.0000000000000000e+00 9.8733178839204745e-03 -8.7206692397398686e-02 0.0000000000000000e+00 0.0000000000000000e+00 0.0000000000000000e+00 0.0000000000000000e+00  -8.3379877451016424e-02 9.3168569728387263e-03 0.0000000000000000e+00 9.3168569728387263e-03 -8.7585040192048755e-02 0.0000000000000000e+00 0.0000000000000000e+00 0.0000000000000000e+00 0.0000000000000000e+00  -8.3876414561644755e-02 8.6566895398079834e-03 0.0000000000000000e+00 8.6566895398079834e-03 -8.8003738281836275e-02 0.0000000000000000e+00 0.0000000000000000e+00 0.0000000000000000e+00 0.0000000000000000e+00  -8.4267381371552527e-02 7.9395217017815892e-03 0.0000000000000000e+00 7.9395217017815892e-03 -8.8485878792937803e-02 0.0000000000000000e+00 0.0000000000000000e+00 0.0000000000000000e+00 0.0000000000000000e+00  -8.4555428055804877e-02 7.2171194357357991e-03 0.0000000000000000e+00 7.2171194357357991e-03 -8.9037838342021114e-02 0.0000000000000000e+00 0.0000000000000000e+00 0.0000000000000000e+00 0.0000000000000000e+00  -8.4755650691013609e-02 6.5374965063491348e-03 0.0000000000000000e+00 6.5374965063491348e-03 -8.9645087661498840e-02 0.0000000000000000e+00 0.0000000000000000e+00 0.0000000000000000e+00 0.0000000000000000e+00  -8.4894148442124465e-02 5.9359486712936239e-03 0.0000000000000000e+00 5.9359486712936239e-03 -9.0275195960503651e-02 0.0000000000000000e+00 0.0000000000000000e+00 0.0000000000000000e+00 0.0000000000000000e+00  -8.5002086233126023e-02 5.4294733111553625e-03 0.0000000000000000e+00 5.4294733111553625e-03 -9.0886578916582306e-02 0.0000000000000000e+00 0.0000000000000000e+00 0.0000000000000000e+00 0.0000000000000000e+00  -8.5107916187274202e-02 5.0166900024861578e-03 0.0000000000000000e+00 5.0166900024861578e-03 -9.1439536251995038e-02 0.0000000000000000e+00 0.0000000000000000e+00 0.0000000000000000e+00 0.0000000000000000e+00  -8.5230878757688200e-02 4.6832021845921168e-03 0.0000000000000000e+00 4.6832021845921168e-03 -9.1905455832928667e-02 0.0000000000000000e+00 0.0000000000000000e+00 0.0000000000000000e+00 0.0000000000000000e+00  -8.5378108490414911e-02 4.4102852672144484e-03 0.0000000000000000e+00 4.4102852672144484e-03 -9.2271062964731768e-02 0.0000000000000000e+00 0.0000000000000000e+00 0.0000000000000000e+00 0.0000000000000000e+00  -8.5546112601391305e-02 4.1837256376597159e-03 0.0000000000000000e+00 4.1837256376597159e-03 -9.2536675892657960e-02 0.0000000000000000e+00 0.0000000000000000e+00 0.0000000000000000e+00 0.0000000000000000e+00  -8.5725326645327490e-02 3.9998225571893278e-03 0.0000000000000000e+00 3.9998225571893278e-03 -9.2709995723426281e-02 0.0000000000000000e+00 0.0000000000000000e+00 0.0000000000000000e+00 0.0000000000000000e+00  -8.5905551676840622e-02 3.8672472010982395e-03 0.0000000000000000e+00 3.8672472010982395e-03 -9.2798282305697144e-02 0.0000000000000000e+00 0.0000000000000000e+00 0.0000000000000000e+00 0.0000000000000000e+00  -8.6079694784601812e-02 3.8042056619589440e-03 0.0000000000000000e+00 3.8042056619589440e-03 -9.2801853399374551e-02 0.0000000000000000e+00 0.0000000000000000e+00 0.0000000000000000e+00 0.0000000000000000e+00  -8.6239065521846264e-02 3.8354255370902320e-03 0.0000000000000000e+00 3.8354255370902320e-03 -9.2716801086926037e-02 0.0000000000000000e+00 0.0000000000000000e+00 0.0000000000000000e+00 0.0000000000000000e+00  -8.6384126985012896e-02 3.9884241324857550e-03 0.0000000000000000e+00 3.9884241324857550e-03 -9.2516984950681322e-02 0.0000000000000000e+00 0.0000000000000000e+00 0.0000000000000000e+00 0.0000000000000000e+00  -8.6459215312097229e-02 4.2952062561712190e-03 0.0000000000000000e+00 4.2952062561712190e-03 -9.2233839165588499e-02 0.0000000000000000e+00 0.0000000000000000e+00 0.0000000000000000e+00 0.0000000000000000e+00  -8.6547119697293881e-02 4.7900021434254666e-03 0.0000000000000000e+00 4.7900021434254666e-03 -9.1654495590453952e-02 0.0000000000000000e+00 0.0000000000000000e+00 0.0000000000000000e+00 0.0000000000000000e+00  -8.6587906398895326e-02 5.4809974190018519e-03 0.0000000000000000e+00 5.4809974190018519e-03 -9.0934706180016131e-02 0.0000000000000000e+00 0.0000000000000000e+00 0.0000000000000000e+00 0.0000000000000000e+00  -8.6548790942784837e-02 6.1287620749618027e-03 0.0000000000000000e+00 6.1287620749618027e-03 -9.0450349844231601e-02 0.0000000000000000e+00 0.0000000000000000e+00 0.0000000000000000e+00 0.0000000000000000e+00  -9.7517864766539730e-02 6.4136531448669969e-03 0.0000000000000000e+00 6.4136531448669969e-03 -7.6446370173853292e-02 0.0000000000000000e+00 0.0000000000000000e+00 0.0000000000000000e+00 0.0000000000000000e+00  -1.8492440834347365e-01 2.1768062150057325e-02 0.0000000000000000e+00 2.1768062150057325e-02 -7.7122924690712275e-02 0.0000000000000000e+00 0.0000000000000000e+00 0.0000000000000000e+00 0.0000000000000000e+00  3.5441783928902577e-02 -3.7261074573845365e-02 0.0000000000000000e+00 -3.7261074573845365e-02 -1.0446790628806854e-01 0.0000000000000000e+00 0.0000000000000000e+00 0.0000000000000000e+00 0.0000000000000000e+00  6.2938887320254169e-02 1.0525191909978590e-01 0.0000000000000000e+00 1.0525191909978590e-01 -7.2737153281209790e-02 0.0000000000000000e+00 0.0000000000000000e+00 0.0000000000000000e+00 0.0000000000000000e+00  -1.6919984158685151e-02 -1.5282763822363479e-02 0.0000000000000000e+00 -1.5282763822363479e-02 4.9101565125943228e-02 0.0000000000000000e+00 0.0000000000000000e+00 0.0000000000000000e+00 0.0000000000000000e+00  8.4018977482296989e-03 1.1344177401871602e-03 0.0000000000000000e+00 1.1344177401871602e-03 1.0667355768632196e-02 0.0000000000000000e+00 0.0000000000000000e+00 0.0000000000000000e+00 0.0000000000000000e+00  7.4065741143957992e-03 9.3271607666519732e-05 0.0000000000000000e+00 9.3271607666519732e-05 7.6135430123186205e-03 0.0000000000000000e+00 0.0000000000000000e+00 0.0000000000000000e+00 0.0000000000000000e+00  7.7074395613708682e-03 -1.0806138456071411e-05 0.0000000000000000e+00 -1.0806138456071411e-05 7.7081112551503246e-03 0.0000000000000000e+00 0.0000000000000000e+00 0.0000000000000000e+00 0.0000000000000000e+00  7.6985201255963332e-03 2.6773680841925087e-05 0.0000000000000000e+00 2.6773680841925087e-05 7.6986639317912177e-03 0.0000000000000000e+00 0.0000000000000000e+00 0.0000000000000000e+00 0.0000000000000000e+00  7.6982003096235921e-03 5.1417449224559955e-05 0.0000000000000000e+00 5.1417449224559955e-05 7.7010899081682493e-03 0.0000000000000000e+00 0.0000000000000000e+00 0.0000000000000000e+00 0.0000000000000000e+00  7.7342440026919130e-03 -4.9609770333758532e-05 0.0000000000000000e+00 -4.9609770333758532e-05 7.7374946071245964e-03 0.0000000000000000e+00 0.0000000000000000e+00 0.0000000000000000e+00 0.0000000000000000e+00  7.7352571193357754e-03 -2.6085667113284548e-05 0.0000000000000000e+00 -2.6085667113284548e-05 7.7369942214772598e-03 0.0000000000000000e+00 0.0000000000000000e+00 0.0000000000000000e+00 0.0000000000000000e+00  7.7274761570118458e-03 6.7241995538795886e-07 0.0000000000000000e+00 6.7241995538795886e-07 7.7286255513372990e-03 0.0000000000000000e+00 0.0000000000000000e+00 0.0000000000000000e+00 0.0000000000000000e+00  7.7426699437925222e-03 -1.0490918286570410e-04 0.0000000000000000e+00 -1.0490918286570410e-04 7.7077142373445850e-03 0.0000000000000000e+00 0.0000000000000000e+00 0.0000000000000000e+00 0.0000000000000000e+00  7.7390558832922552e-03 9.8327994876373759e-04 0.0000000000000000e+00 9.8327994876373759e-04 9.1933729898889729e-03 0.0000000000000000e+00 0.0000000000000000e+00 0.0000000000000000e+00 0.0000000000000000e+00  -8.2713868562941644e-03 -7.7488692148966112e-03 0.0000000000000000e+00 -7.7488692148966112e-03 1.0110316328676015e-02 0.0000000000000000e+00 0.0000000000000000e+00 0.0000000000000000e+00 0.0000000000000000e+00  2.5907112527807346e-02 -2.2739191394186967e-02 0.0000000000000000e+00 -2.2739191394186967e-02 1.1599050710370247e-01 0.0000000000000000e+00 0.0000000000000000e+00 0.0000000000000000e+00 0.0000000000000000e+00  1.7051161835261980e-01 1.4201785351526133e-01 0.0000000000000000e+00 1.4201785351526133e-01 -4.7619062177969573e-01 0.0000000000000000e+00 0.0000000000000000e+00 0.0000000000000000e+00 0.0000000000000000e+00  -1.7525271393167574e-01 -4.4339162924710164e-02 0.0000000000000000e+00 -4.4339162924710164e-02 5.9157027828447145e-02 0.0000000000000000e+00 0.0000000000000000e+00 0.0000000000000000e+00 0.0000000000000000e+00  -1.2297482856564491e-01 -3.6752373885396141e-03 0.0000000000000000e+00 -3.6752373885396141e-03 -7.5918022663814921e-02 0.0000000000000000e+00 0.0000000000000000e+00 0.0000000000000000e+00 0.0000000000000000e+00  -8.7482659353486883e-02 -8.3831099270080586e-03 0.0000000000000000e+00 -8.3831099270080586e-03 -9.0853461246953593e-02 0.0000000000000000e+00 0.0000000000000000e+00 0.0000000000000000e+00 0.0000000000000000e+00  -8.7137652935285262e-02 -5.3605777088390561e-03 0.0000000000000000e+00 -5.3605777088390561e-03 -9.0767880130784226e-02 0.0000000000000000e+00 0.0000000000000000e+00 0.0000000000000000e+00 0.0000000000000000e+00  -8.6721254827547375e-02 -5.0746072372707266e-03 0.0000000000000000e+00 -5.0746072372707266e-03 -9.2563397049638035e-02 0.0000000000000000e+00 0.0000000000000000e+00 0.0000000000000000e+00 0.0000000000000000e+00  -8.7015969447196334e-02 -4.6835971042397881e-03 0.0000000000000000e+00 -4.6835971042397881e-03 -9.2486850639106236e-02 0.0000000000000000e+00 0.0000000000000000e+00 0.0000000000000000e+00 0.0000000000000000e+00  -8.6930197273675569e-02 -4.4799902814723243e-03 0.0000000000000000e+00 -4.4799902814723243e-03 -9.2693148175916604e-02 0.0000000000000000e+00 0.0000000000000000e+00 0.0000000000000000e+00 0.0000000000000000e+00  -8.6842246550296293e-02 -4.3789537550360585e-03 0.0000000000000000e+00 -4.3789537550360585e-03 -9.2702918915180288e-02 0.0000000000000000e+00 0.0000000000000000e+00 0.0000000000000000e+00 0.0000000000000000e+00  -8.6699197948465256e-02 -4.3723812369630263e-03 0.0000000000000000e+00 -4.3723812369630263e-03 -9.2657508049084389e-02 0.0000000000000000e+00 0.0000000000000000e+00 0.0000000000000000e+00 0.0000000000000000e+00  -8.6538303089375226e-02 -4.4424056290524238e-03 0.0000000000000000e+00 -4.4424056290524238e-03 -9.2544365125353995e-02 0.0000000000000000e+00 0.0000000000000000e+00 0.0000000000000000e+00 0.0000000000000000e+00  -8.6365155243313965e-02 -4.5675975965638448e-03 0.0000000000000000e+00 -4.5675975965638448e-03 -9.2374682863077914e-02 0.0000000000000000e+00 0.0000000000000000e+00 0.0000000000000000e+00 0.0000000000000000e+00  -8.6194805744926745e-02 -4.7243827611871932e-03 0.0000000000000000e+00 -4.7243827611871932e-03 -9.2138625413634073e-02 0.0000000000000000e+00 0.0000000000000000e+00 0.0000000000000000e+00 0.0000000000000000e+00  -8.6049196086027860e-02 -4.9019745117991585e-03 0.0000000000000000e+00 -4.9019745117991585e-03 -9.1813250633978757e-02 0.0000000000000000e+00 0.0000000000000000e+00 0.0000000000000000e+00 0.0000000000000000e+00  -8.5950182645916973e-02 -5.1081635744358476e-03 0.0000000000000000e+00 -5.1081635744358476e-03 -9.1373748779638608e-02 0.0000000000000000e+00 0.0000000000000000e+00 0.0000000000000000e+00 0.0000000000000000e+00  -8.5910548168265113e-02 -5.3687948377646472e-03 0.0000000000000000e+00 -5.3687948377646472e-03 -9.0807171084708191e-02 0.0000000000000000e+00 0.0000000000000000e+00 0.0000000000000000e+00 0.0000000000000000e+00  -8.5925208195941946e-02 -5.7187194354660709e-03 0.0000000000000000e+00 -5.7187194354660709e-03 -9.0124574386044168e-02 0.0000000000000000e+00 0.0000000000000000e+00 0.0000000000000000e+00 0.0000000000000000e+00  -8.5968392096830035e-02 -6.1875146814684995e-03 0.0000000000000000e+00 -6.1875146814684995e-03 -8.9364914812868054e-02 0.0000000000000000e+00 0.0000000000000000e+00 0.0000000000000000e+00 0.0000000000000000e+00  -8.5998055775978605e-02 -6.7848683162714807e-03 0.0000000000000000e+00 -6.7848683162714807e-03 -8.8588684132195533e-02 0.0000000000000000e+00 0.0000000000000000e+00 0.0000000000000000e+00 0.0000000000000000e+00  -8.5966858925691225e-02 -7.4913677382708599e-03 0.0000000000000000e+00 -7.4913677382708599e-03 -8.7862459574457416e-02 0.0000000000000000e+00 0.0000000000000000e+00 0.0000000000000000e+00 0.0000000000000000e+00  -8.5835650945358916e-02 -8.2586648352945841e-03 0.0000000000000000e+00 -8.2586648352945841e-03 -8.7239882088730542e-02 0.0000000000000000e+00 0.0000000000000000e+00 0.0000000000000000e+00 0.0000000000000000e+00  -8.5584137643887268e-02 -9.0192684710863127e-03 0.0000000000000000e+00 -9.0192684710863127e-03 -8.6746325646969352e-02 0.0000000000000000e+00 0.0000000000000000e+00 0.0000000000000000e+00 0.0000000000000000e+00  -8.5214259523138797e-02 -9.7024173883527940e-03 0.0000000000000000e+00 -9.7024173883527940e-03 -8.6373285369075264e-02 0.0000000000000000e+00 0.0000000000000000e+00 0.0000000000000000e+00 0.0000000000000000e+00  -8.4744313521681172e-02 -1.0250101307052022e-02 0.0000000000000000e+00 -1.0250101307052022e-02 -8.6085020381512195e-02 0.0000000000000000e+00 0.0000000000000000e+00 0.0000000000000000e+00 0.0000000000000000e+00  -8.4194968645108711e-02 -1.0627023883215264e-02 0.0000000000000000e+00 -1.0627023883215264e-02 -8.5835618787237111e-02 0.0000000000000000e+00 0.0000000000000000e+00 0.0000000000000000e+00 0.0000000000000000e+00  -8.3571056293938753e-02 -1.0820191821498175e-02 0.0000000000000000e+00 -1.0820191821498175e-02 -8.5590799534256731e-02 0.0000000000000000e+00 0.0000000000000000e+00 0.0000000000000000e+00 0.0000000000000000e+00  -8.2844296532527964e-02 -1.0827345945550623e-02 0.0000000000000000e+00 -1.0827345945550623e-02 -8.5346851755964306e-02 0.0000000000000000e+00 0.0000000000000000e+00 0.0000000000000000e+00 0.0000000000000000e+00  -8.1941307643695019e-02 -1.0637243001933949e-02 0.0000000000000000e+00 -1.0637243001933949e-02 -8.5140032031941260e-02 0.0000000000000000e+00 0.0000000000000000e+00 0.0000000000000000e+00 0.0000000000000000e+00  -8.0738097489492400e-02 -1.0207048795699291e-02 0.0000000000000000e+00 -1.0207048795699291e-02 -8.5043515616912285e-02 0.0000000000000000e+00 0.0000000000000000e+00 0.0000000000000000e+00 0.0000000000000000e+00  -7.9059531367697555e-02 -9.4412485388846359e-03 0.0000000000000000e+00 -9.4412485388846359e-03 -8.5152270822519860e-02 0.0000000000000000e+00 0.0000000000000000e+00 0.0000000000000000e+00 0.0000000000000000e+00  -7.6678755299482884e-02 -8.1748372185602124e-03 0.0000000000000000e+00 -8.1748372185602124e-03 -8.5559832811647710e-02 0.0000000000000000e+00 0.0000000000000000e+00 0.0000000000000000e+00 0.0000000000000000e+00  -7.3310527568884759e-02 -6.1556745559666250e-03 0.0000000000000000e+00 -6.1556745559666250e-03 -8.6329356605679058e-02 0.0000000000000000e+00 0.0000000000000000e+00 0.0000000000000000e+00 0.0000000000000000e+00  -6.8606312767155717e-02 -3.0260684319311833e-03 0.0000000000000000e+00 -3.0260684319311833e-03 -8.7447849344254716e-02 0.0000000000000000e+00 0.0000000000000000e+00 0.0000000000000000e+00 0.0000000000000000e+00  -6.2086909851249553e-02 1.7211227697539360e-03 0.0000000000000000e+00 1.7211227697539360e-03 -8.8811847442031688e-02 0.0000000000000000e+00 0.0000000000000000e+00 0.0000000000000000e+00 0.0000000000000000e+00  -5.3323737469919072e-02 8.8001549996780740e-03 0.0000000000000000e+00 8.8001549996780740e-03 -8.9885260801495753e-02 0.0000000000000000e+00 0.0000000000000000e+00 0.0000000000000000e+00 0.0000000000000000e+00  -4.1298747191358690e-02 1.9185721866902518e-02 0.0000000000000000e+00 1.9185721866902518e-02 -9.0365451095286348e-02 0.0000000000000000e+00 0.0000000000000000e+00 0.0000000000000000e+00 0.0000000000000000e+00  -2.6386960157152480e-02 3.4047809217491849e-02 0.0000000000000000e+00 3.4047809217491849e-02 -8.7137221054983796e-02 0.0000000000000000e+00 0.0000000000000000e+00 0.0000000000000000e+00 0.0000000000000000e+00  -7.2875009826165824e-03 5.5440069765574779e-02 0.0000000000000000e+00 5.5440069765574779e-02 -7.7097183599039096e-02 0.0000000000000000e+00 0.0000000000000000e+00 0.0000000000000000e+00 0.0000000000000000e+00  -1.7273848975614351e-02 1.0186960067272317e-01 0.0000000000000000e+00 1.0186960067272317e-01 -5.3940886669010674e-02 0.0000000000000000e+00 0.0000000000000000e+00 0.0000000000000000e+00 0.0000000000000000e+00  -2.2500682928912152e-03 1.8189602817237457e-01 0.0000000000000000e+00 1.8189602817237457e-01 1.5499008599401531e-01 0.0000000000000000e+00 0.0000000000000000e+00 0.0000000000000000e+00 0.0000000000000000e+00  -5.7122695269452337e-02 -5.7173373650285381e-02 0.0000000000000000e+00 -5.7173373650285381e-02 -4.3090653340080337e-01 0.0000000000000000e+00 0.0000000000000000e+00 0.0000000000000000e+00 0.0000000000000000e+00  1.3784669098256092e-02 1.6512635223637370e-02 0.0000000000000000e+00 1.6512635223637370e-02 2.9489843831224338e-02 0.0000000000000000e+00 0.0000000000000000e+00 0.0000000000000000e+00 0.0000000000000000e+00  -1.8769201409545265e-02 8.1908731462604616e-03 0.0000000000000000e+00 8.1908731462604651e-03 -1.3709302011511463e-02 0.0000000000000000e+00 0.0000000000000000e+00 0.0000000000000000e+00 0.0000000000000000e+00  -2.4488778865683673e-02 -1.1100312836790143e-02 0.0000000000000000e+00 -1.1100312836790140e-02 -1.0846608437272009e-02 0.0000000000000000e+00 0.0000000000000000e+00 0.0000000000000000e+00 0.0000000000000000e+00  2.2946083019525828e-02 7.7287492284489031e-03 0.0000000000000000e+00 7.7287492284489031e-03 4.5780675808327669e-02 0.0000000000000000e+00 0.0000000000000000e+00 0.0000000000000000e+00 0.0000000000000000e+00  4.7783633856290303e-03 1.1955849792229724e-02 0.0000000000000000e+00 1.1955849792229724e-02 -4.0601524215284068e-01 0.0000000000000000e+00 0.0000000000000000e+00 0.0000000000000000e+00 0.0000000000000000e+00  -2.6698209135478813e-02 -1.3303912062380333e-01 0.0000000000000000e+00 -1.3303912062380333e-01 1.1379624275243649e-01 0.0000000000000000e+00 0.0000000000000000e+00 0.0000000000000000e+00 0.0000000000000000e+00  -3.7013763855285341e-02 -9.7368115558187820e-02 0.0000000000000000e+00 -9.7368115558187820e-02 -6.3699736472494772e-02 0.0000000000000000e+00 0.0000000000000000e+00 0.0000000000000000e+00 0.0000000000000000e+00  -1.3416348154342601e-02 -4.6320795738161023e-02 0.0000000000000000e+00 -4.6320795738161023e-02 -8.3390549582695830e-02 0.0000000000000000e+00 0.0000000000000000e+00 0.0000000000000000e+00 0.0000000000000000e+00  -3.1262062396547968e-02 -2.6460995968441554e-02 0.0000000000000000e+00 -2.6460995968441554e-02 -9.2124447856593336e-02 0.0000000000000000e+00 0.0000000000000000e+00 0.0000000000000000e+00 0.0000000000000000e+00  -4.5910308770799838e-02 -1.2861368506291986e-02 0.0000000000000000e+00 -1.2861368506291986e-02 -9.3495519168529009e-02 0.0000000000000000e+00 0.0000000000000000e+00 0.0000000000000000e+00 0.0000000000000000e+00  -5.7457108293161474e-02 -3.7524988296953978e-03 0.0000000000000000e+00 -3.7524988296953978e-03 -9.1873325563863059e-02 0.0000000000000000e+00 0.0000000000000000e+00 0.0000000000000000e+00 0.0000000000000000e+00  -6.5670317682985715e-02 2.2477711254274783e-03 0.0000000000000000e+00 2.2477711254274783e-03 -9.0073304286108241e-02 0.0000000000000000e+00 0.0000000000000000e+00 0.0000000000000000e+00 0.0000000000000000e+00  -7.1631427572422690e-02 6.0997597278973931e-03 0.0000000000000000e+00 6.0997597278973931e-03 -8.8291052300146569e-02 0.0000000000000000e+00 0.0000000000000000e+00 0.0000000000000000e+00 0.0000000000000000e+00  -7.5817939725673175e-02 8.5092878935069151e-03 0.0000000000000000e+00 8.5092878935069151e-03 -8.6946738394335629e-02 0.0000000000000000e+00 0.0000000000000000e+00 0.0000000000000000e+00 0.0000000000000000e+00  -7.8729191045680394e-02 9.9599861788564597e-03 0.0000000000000000e+00 9.9599861788564597e-03 -8.6069110549544428e-02 0.0000000000000000e+00 0.0000000000000000e+00 0.0000000000000000e+00 0.0000000000000000e+00  -8.0721734840462953e-02 1.0783469642634606e-02 0.0000000000000000e+00 1.0783469642634606e-02 -8.5617631373529360e-02 0.0000000000000000e+00 0.0000000000000000e+00 0.0000000000000000e+00 0.0000000000000000e+00  -8.2079706206178077e-02 1.1206677359094043e-02 0.0000000000000000e+00 1.1206677359094043e-02 -8.5495053556879641e-02 0.0000000000000000e+00 0.0000000000000000e+00 0.0000000000000000e+00 0.0000000000000000e+00  -8.3024119670204219e-02 1.1372425230525155e-02 0.0000000000000000e+00 1.1372425230525155e-02 -8.5587213163573095e-02 0.0000000000000000e+00 0.0000000000000000e+00 0.0000000000000000e+00 0.0000000000000000e+00  -8.3721887020690167e-02 1.1357815354384272e-02 0.0000000000000000e+00 1.1357815354384272e-02 -8.5787975627489035e-02 0.0000000000000000e+00 0.0000000000000000e+00 0.0000000000000000e+00 0.0000000000000000e+00  -8.4288080581064628e-02 1.1191082348777203e-02 0.0000000000000000e+00 1.1191082348777203e-02 -8.6019145360283142e-02 0.0000000000000000e+00 0.0000000000000000e+00 0.0000000000000000e+00 0.0000000000000000e+00  -8.4787490861222684e-02 1.0872289007481658e-02 0.0000000000000000e+00 1.0872289007481658e-02 -8.6243181377942235e-02 0.0000000000000000e+00 0.0000000000000000e+00 0.0000000000000000e+00 0.0000000000000000e+00  -8.5240707474403654e-02 1.0395357591107723e-02 0.0000000000000000e+00 1.0395357591107723e-02 -8.6464560230999576e-02 0.0000000000000000e+00 0.0000000000000000e+00 0.0000000000000000e+00 0.0000000000000000e+00  -8.5636350365657476e-02 9.7671826050768195e-03 0.0000000000000000e+00 9.7671826050768195e-03 -8.6719280043310976e-02 0.0000000000000000e+00 0.0000000000000000e+00 0.0000000000000000e+00 0.0000000000000000e+00  -8.5948371447784458e-02 9.0186574716528568e-03 0.0000000000000000e+00 9.0186574716528568e-03 -8.7055254586121233e-02 0.0000000000000000e+00 0.0000000000000000e+00 0.0000000000000000e+00 0.0000000000000000e+00  -8.6154172766827311e-02 8.2046453313230246e-03 0.0000000000000000e+00 8.2046453313230246e-03 -8.7510138177845490e-02 0.0000000000000000e+00 0.0000000000000000e+00 0.0000000000000000e+00 0.0000000000000000e+00  -8.6248449996823906e-02 7.3936819554981529e-03 0.0000000000000000e+00 7.3936819554981529e-03 -8.8094068561465941e-02 0.0000000000000000e+00 0.0000000000000000e+00 0.0000000000000000e+00 0.0000000000000000e+00  -8.6248926534099338e-02 6.6517072416972956e-03 0.0000000000000000e+00 6.6517072416972956e-03 -8.8782931840593590e-02 0.0000000000000000e+00 0.0000000000000000e+00 0.0000000000000000e+00 0.0000000000000000e+00  -8.6192849492843740e-02 6.0260026390367757e-03 0.0000000000000000e+00 6.0260026390367757e-03 -8.9523934616668688e-02 0.0000000000000000e+00 0.0000000000000000e+00 0.0000000000000000e+00 0.0000000000000000e+00  -8.6126216688589066e-02 5.5352418866984887e-03 0.0000000000000000e+00 5.5352418866984887e-03 -9.0250929740208902e-02 0.0000000000000000e+00 0.0000000000000000e+00 0.0000000000000000e+00 0.0000000000000000e+00  -8.6090194563433795e-02 5.1691922611294284e-03 0.0000000000000000e+00 5.1691922611294284e-03 -9.0903466511944253e-02 0.0000000000000000e+00 0.0000000000000000e+00 0.0000000000000000e+00 0.0000000000000000e+00  -8.6110049444633768e-02 4.8978178509143863e-03 0.0000000000000000e+00 4.8978178509143863e-03 -9.1442299209752845e-02 0.0000000000000000e+00 0.0000000000000000e+00 0.0000000000000000e+00 0.0000000000000000e+00  -8.6190654948481160e-02 4.6858181944125265e-03 0.0000000000000000e+00 4.6858181944125265e-03 -9.1855822044996302e-02 0.0000000000000000e+00 0.0000000000000000e+00 0.0000000000000000e+00 0.0000000000000000e+00  -8.6319254942011120e-02 4.5068484029105044e-03 0.0000000000000000e+00 4.5068484029105044e-03 -9.2156242518362394e-02 0.0000000000000000e+00 0.0000000000000000e+00 0.0000000000000000e+00 0.0000000000000000e+00  -8.6474215646858019e-02 4.3525021578652498e-03 0.0000000000000000e+00 4.3525021578652498e-03 -9.2367499522734070e-02 0.0000000000000000e+00 0.0000000000000000e+00 0.0000000000000000e+00 0.0000000000000000e+00  -8.6633975732228696e-02 4.2327317419565665e-03 0.0000000000000000e+00 4.2327317419565665e-03 -9.2511619474000065e-02 0.0000000000000000e+00 0.0000000000000000e+00 0.0000000000000000e+00 0.0000000000000000e+00  -8.6783888219863894e-02 4.1699470164587868e-03 0.0000000000000000e+00 4.1699470164587868e-03 -9.2597665034774193e-02 0.0000000000000000e+00 0.0000000000000000e+00 0.0000000000000000e+00 0.0000000000000000e+00  -8.6918578838643151e-02 4.1840099900082002e-03 0.0000000000000000e+00 4.1840099900082002e-03 -9.2614222191602175e-02 0.0000000000000000e+00 0.0000000000000000e+00 0.0000000000000000e+00 0.0000000000000000e+00  -8.7000488541378276e-02 4.2909469013817109e-03 0.0000000000000000e+00 4.2909469013817109e-03 -9.2574248574107093e-02 0.0000000000000000e+00 0.0000000000000000e+00 0.0000000000000000e+00 0.0000000000000000e+00  -8.7080852532595843e-02 4.4973660609019398e-03 0.0000000000000000e+00 4.4973660609019398e-03 -9.2339165580423266e-02 0.0000000000000000e+00 0.0000000000000000e+00 0.0000000000000000e+00 0.0000000000000000e+00  -8.6778912120630380e-02 4.8869032638966473e-03 0.0000000000000000e+00 4.8869032638966473e-03 -9.2389687331006748e-02 0.0000000000000000e+00 0.0000000000000000e+00 0.0000000000000000e+00 0.0000000000000000e+00  -8.7184590513467872e-02 5.1734800332289060e-03 0.0000000000000000e+00 5.1734800332289060e-03 -9.0576315553057327e-02 0.0000000000000000e+00 0.0000000000000000e+00 0.0000000000000000e+00 0.0000000000000000e+00  -8.7505387465923901e-02 8.1921454644828754e-03 0.0000000000000000e+00 8.1921454644828754e-03 -9.0671498170763101e-02 0.0000000000000000e+00 0.0000000000000000e+00 0.0000000000000000e+00 0.0000000000000000e+00  -1.2291353334289760e-01 3.4943706838258962e-03 0.0000000000000000e+00 3.4943706838258962e-03 -7.5681982133314410e-02 0.0000000000000000e+00 0.0000000000000000e+00 0.0000000000000000e+00 0.0000000000000000e+00  -1.7561389720326628e-01 4.4040239681271270e-02 0.0000000000000000e+00 4.4040239681271270e-02 5.8985352791565207e-02 0.0000000000000000e+00 0.0000000000000000e+00 0.0000000000000000e+00 0.0000000000000000e+00  1.7093040989143560e-01 -1.4235442097849899e-01 0.0000000000000000e+00 -1.4235442097849899e-01 -4.7589701895096637e-01 0.0000000000000000e+00 0.0000000000000000e+00 0.0000000000000000e+00 0.0000000000000000e+00  2.6105752241506880e-02 2.3042031374164967e-02 0.0000000000000000e+00 2.3042031374164967e-02 1.1622217604592572e-01 0.0000000000000000e+00 0.0000000000000000e+00 0.0000000000000000e+00 0.0000000000000000e+00  -8.1455093197309644e-03 7.7007754793912220e-03 0.0000000000000000e+00 7.7007754793912220e-03 1.0212757802257687e-02 0.0000000000000000e+00 0.0000000000000000e+00 0.0000000000000000e+00 0.0000000000000000e+00  7.6878351172677255e-03 -9.8075081899882477e-04 0.0000000000000000e+00 -9.8075081899882477e-04 9.1552807461243828e-03 0.0000000000000000e+00 0.0000000000000000e+00 0.0000000000000000e+00 0.0000000000000000e+00  7.6811962116833795e-03 9.9037239935550968e-05 0.0000000000000000e+00 9.9037239935550968e-05 7.6456591117453915e-03 0.0000000000000000e+00 0.0000000000000000e+00 0.0000000000000000e+00 0.0000000000000000e+00  7.6613648663271770e-03 -2.5589772328655325e-06 0.0000000000000000e+00 -2.5589772328655325e-06 7.6665657568300311e-03 0.0000000000000000e+00 0.0000000000000000e+00 0.0000000000000000e+00 0.0000000000000000e+00  7.6707116688732565e-03 2.6328449804368143e-05 0.0000000000000000e+00 2.6328449804368143e-05 7.6754932752350503e-03 0.0000000000000000e+00 0.0000000000000000e+00 0.0000000000000000e+00 0.0000000000000000e+00  7.6702355952185872e-03 5.0356414365590556e-05 0.0000000000000000e+00 5.0356414365590556e-05 7.6747637496016067e-03 0.0000000000000000e+00 0.0000000000000000e+00 0.0000000000000000e+00 0.0000000000000000e+00  7.7094875816470761e-03 -4.8353850485792194e-05 0.0000000000000000e+00 -4.8353850485792194e-05 7.7139559168511044e-03 0.0000000000000000e+00 0.0000000000000000e+00 0.0000000000000000e+00 0.0000000000000000e+00  7.7090213426068569e-03 -2.6003177760604367e-05 0.0000000000000000e+00 -2.6003177760604367e-05 7.7152928343235975e-03 0.0000000000000000e+00 0.0000000000000000e+00 0.0000000000000000e+00 0.0000000000000000e+00  7.7060325257244048e-03 -1.3960208705231486e-05 0.0000000000000000e+00 -1.3960208705231486e-05 7.7040139299734082e-03 0.0000000000000000e+00 0.0000000000000000e+00 0.0000000000000000e+00 0.0000000000000000e+00  7.7567307398770146e-03 5.1991063310810754e-05 0.0000000000000000e+00 5.1991063310810754e-05 7.7542388428064558e-03 0.0000000000000000e+00 0.0000000000000000e+00 0.0000000000000000e+00 0.0000000000000000e+00  7.0691179093826063e-03 -1.0022943051730470e-04 0.0000000000000000e+00 -1.0022943051730470e-04 7.5797734697234153e-03 0.0000000000000000e+00 0.0000000000000000e+00 0.0000000000000000e+00 0.0000000000000000e+00  8.3797887325877240e-03 -2.8860447646232397e-03 0.0000000000000000e+00 -2.8860447646232397e-03 1.0310489541503020e-02 0.0000000000000000e+00 0.0000000000000000e+00 0.0000000000000000e+00 0.0000000000000000e+00  -1.7037718379795029e-02 1.7062649228963504e-02 0.0000000000000000e+00 1.7062649228963504e-02 4.8670643914526156e-02 0.0000000000000000e+00 0.0000000000000000e+00 0.0000000000000000e+00 0.0000000000000000e+00  -2.5240507353840480e-02 -1.1855790422134158e-01 0.0000000000000000e+00 -1.1855790422134158e-01 -1.3531340882351314e-01 0.0000000000000000e+00 0.0000000000000000e+00 0.0000000000000000e+00 0.0000000000000000e+00  1.9382439064499810e-02 8.9714902298073607e-02 0.0000000000000000e+00 8.9714902298073607e-02 -1.3688119538232268e-01 0.0000000000000000e+00 0.0000000000000000e+00 0.0000000000000000e+00 0.0000000000000000e+00  -1.6006021819308275e-01 -5.0149148480100700e-02 0.0000000000000000e+00 -5.0149148480100700e-02 -4.0415740451970959e-02 0.0000000000000000e+00 0.0000000000000000e+00 0.0000000000000000e+00 0.0000000000000000e+00  -9.3318164544369225e-02 9.0186514852109219e-04 0.0000000000000000e+00 9.0186514852109219e-04 -7.9169105828297129e-02 0.0000000000000000e+00 0.0000000000000000e+00 0.0000000000000000e+00 0.0000000000000000e+00  -8.7469430079176513e-02 -6.4081605730669762e-03 0.0000000000000000e+00 -6.4081605730669762e-03 -9.4087927019967765e-02 0.0000000000000000e+00 0.0000000000000000e+00 0.0000000000000000e+00 0.0000000000000000e+00  -8.8242348379892074e-02 -4.9272836860216112e-03 0.0000000000000000e+00 -4.9272836860216112e-03 -9.1910733313265894e-02 0.0000000000000000e+00 0.0000000000000000e+00 0.0000000000000000e+00 0.0000000000000000e+00  -8.7926529731036582e-02 -4.8732091481401970e-03 0.0000000000000000e+00 -4.8732091481401970e-03 -9.2722117724306469e-02 0.0000000000000000e+00 0.0000000000000000e+00 0.0000000000000000e+00 0.0000000000000000e+00  -8.7867075085262494e-02 -4.7936944830737791e-03 0.0000000000000000e+00 -4.7936944830737791e-03 -9.2612255283680209e-02 0.0000000000000000e+00 0.0000000000000000e+00 0.0000000000000000e+00 0.0000000000000000e+00  -8.7666826346020660e-02 -4.7310663570749364e-03 0.0000000000000000e+00 -4.7310663570749364e-03 -9.2573841155335457e-02 0.0000000000000000e+00 0.0000000000000000e+00 0.0000000000000000e+00 0.0000000000000000e+00  -8.7494702691084281e-02 -4.7348072094431804e-03 0.0000000000000000e+00 -4.7348072094431804e-03 -9.2425950713965227e-02 0.0000000000000000e+00 0.0000000000000000e+00 0.0000000000000000e+00 0.0000000000000000e+00  -8.7317674345946436e-02 -4.8097191790946875e-03 0.0000000000000000e+00 -4.8097191790946875e-03 -9.2240216322480667e-02 0.0000000000000000e+00 0.0000000000000000e+00 0.0000000000000000e+00 0.0000000000000000e+00  -8.7132351127513996e-02 -4.9249342783040861e-03 0.0000000000000000e+00 -4.9249342783040861e-03 -9.2032472481866801e-02 0.0000000000000000e+00 0.0000000000000000e+00 0.0000000000000000e+00 0.0000000000000000e+00  -8.6957579769980725e-02 -5.0457486608562405e-03 0.0000000000000000e+00 -5.0457486608562405e-03 -9.1783998452550905e-02 0.0000000000000000e+00 0.0000000000000000e+00 0.0000000000000000e+00 0.0000000000000000e+00  -8.6826386614981085e-02 -5.1534515196270348e-03 0.0000000000000000e+00 -5.1534515196270348e-03 -9.1451318835994139e-02 0.0000000000000000e+00 0.0000000000000000e+00 0.0000000000000000e+00 0.0000000000000000e+00  -8.6779422108113277e-02 -5.2614662056281979e-03 0.0000000000000000e+00 -5.2614662056281979e-03 -9.0981365431828734e-02 0.0000000000000000e+00 0.0000000000000000e+00 0.0000000000000000e+00 0.0000000000000000e+00  -8.6843067549068009e-02 -5.4143370549230097e-03 0.0000000000000000e+00 -5.4143370549230097e-03 -9.0340632372205687e-02 0.0000000000000000e+00 0.0000000000000000e+00 0.0000000000000000e+00 0.0000000000000000e+00  -8.7016316315091116e-02 -5.6741786675260798e-03 0.0000000000000000e+00 -5.6741786675260798e-03 -8.9535034722361670e-02 0.0000000000000000e+00 0.0000000000000000e+00 0.0000000000000000e+00 0.0000000000000000e+00  -8.7263854266854429e-02 -6.0973315076383264e-03 0.0000000000000000e+00 -6.0973315076383264e-03 -8.8619161402969007e-02 0.0000000000000000e+00 0.0000000000000000e+00 0.0000000000000000e+00 0.0000000000000000e+00  -8.7522827712611898e-02 -6.7093133083278638e-03 0.0000000000000000e+00 -6.7093133083278638e-03 -8.7686608616373729e-02 0.0000000000000000e+00 0.0000000000000000e+00 0.0000000000000000e+00 0.0000000000000000e+00  -8.7721218957120192e-02 -7.4887255808143384e-03 0.0000000000000000e+00 -7.4887255808143384e-03 -8.6843833534682918e-02 0.0000000000000000e+00 0.0000000000000000e+00 0.0000000000000000e+00 0.0000000000000000e+00  -8.7801034193111735e-02 -8.3674056189074683e-03 0.0000000000000000e+00 -8.3674056189074683e-03 -8.6177222078919466e-02 0.0000000000000000e+00 0.0000000000000000e+00 0.0000000000000000e+00 0.0000000000000000e+00  -8.7737030206449365e-02 -9.2472895613040194e-03 0.0000000000000000e+00 -9.2472895613040194e-03 -8.5726340085451588e-02 0.0000000000000000e+00 0.0000000000000000e+00 0.0000000000000000e+00 0.0000000000000000e+00  -8.7543603569498890e-02 -1.0027804944407007e-02 0.0000000000000000e+00 -1.0027804944407007e-02 -8.5473702598192910e-02 0.0000000000000000e+00 0.0000000000000000e+00 0.0000000000000000e+00 0.0000000000000000e+00  -8.7266786158868168e-02 -1.0633939932872257e-02 0.0000000000000000e+00 -1.0633939932872257e-02 -8.5355264624820779e-02 0.0000000000000000e+00 0.0000000000000000e+00 0.0000000000000000e+00 0.0000000000000000e+00  -8.6963191758697711e-02 -1.1034748841775468e-02 0.0000000000000000e+00 -1.1034748841775468e-02 -8.5288789598587392e-02 0.0000000000000000e+00 0.0000000000000000e+00 0.0000000000000000e+00 0.0000000000000000e+00  -8.6672326966842850e-02 -1.1244931557952529e-02 0.0000000000000000e+00 -1.1244931557952529e-02 -8.5210707035610470e-02 0.0000000000000000e+00 0.0000000000000000e+00 0.0000000000000000e+00 0.0000000000000000e+00  -8.6391349949580143e-02 -1.1308197778385201e-02 0.0000000000000000e+00 -1.1308197778385201e-02 -8.5108280877288681e-02 0.0000000000000000e+00 0.0000000000000000e+00 0.0000000000000000e+00 0.0000000000000000e+00  -8.6059754497053997e-02 -1.1268259579393208e-02 0.0000000000000000e+00 -1.1268259579393208e-02 -8.5035824898380616e-02 0.0000000000000000e+00 0.0000000000000000e+00 0.0000000000000000e+00 0.0000000000000000e+00  -8.5557121063261354e-02 -1.1137502138855036e-02 0.0000000000000000e+00 -1.1137502138855036e-02 -8.5109907067227139e-02 0.0000000000000000e+00 0.0000000000000000e+00 0.0000000000000000e+00 0.0000000000000000e+00  -8.4707776429296680e-02 -1.0872671379643839e-02 0.0000000000000000e+00 -1.0872671379643839e-02 -8.5489406716692432e-02 0.0000000000000000e+00 0.0000000000000000e+00 0.0000000000000000e+00 0.0000000000000000e+00  -8.3289413594718822e-02 -1.0359435677443253e-02 0.0000000000000000e+00 -1.0359435677443253e-02 -8.6343062585575919e-02 0.0000000000000000e+00 0.0000000000000000e+00 0.0000000000000000e+00 0.0000000000000000e+00  -8.1031068709610465e-02 -9.4103015957338280e-03 0.0000000000000000e+00 -9.4103015957338280e-03 -8.7821056270174058e-02 0.0000000000000000e+00 0.0000000000000000e+00 0.0000000000000000e+00 0.0000000000000000e+00  -7.7584352381816823e-02 -7.7518625644997022e-03 0.0000000000000000e+00 -7.7518625644997022e-03 -9.0028562849394325e-02 0.0000000000000000e+00 0.0000000000000000e+00 0.0000000000000000e+00 0.0000000000000000e+00  -7.2551450282953928e-02 -5.0103287045527058e-03 0.0000000000000000e+00 -5.0103287045527058e-03 -9.2942572775528295e-02 0.0000000000000000e+00 0.0000000000000000e+00 0.0000000000000000e+00 0.0000000000000000e+00  -6.5093829367604827e-02 -6.3876015854261268e-04 0.0000000000000000e+00 -6.3876015854261268e-04 -9.6676313316525764e-02 0.0000000000000000e+00 0.0000000000000000e+00 0.0000000000000000e+00 0.0000000000000000e+00  -5.5451720123650489e-02 6.1573814450305020e-03 0.0000000000000000e+00 6.1573814450305020e-03 -9.9265432875677254e-02 0.0000000000000000e+00 0.0000000000000000e+00 0.0000000000000000e+00 0.0000000000000000e+00  -4.0922262737281022e-02 1.8236977006496267e-02 0.0000000000000000e+00 1.8236977006496267e-02 -1.0453777551070362e-01 0.0000000000000000e+00 0.0000000000000000e+00 0.0000000000000000e+00 0.0000000000000000e+00  -4.2023350912234338e-02 2.9507266101668841e-02 0.0000000000000000e+00 2.9507266101668841e-02 -8.6965294253173647e-02 0.0000000000000000e+00 0.0000000000000000e+00 0.0000000000000000e+00 0.0000000000000000e+00  -1.0866972329469674e-01 1.0452685727757877e-01 0.0000000000000000e+00 1.0452685727757877e-01 2.2228827854347089e-02 0.0000000000000000e+00 0.0000000000000000e+00 0.0000000000000000e+00 0.0000000000000000e+00  1.0869180275899244e-01 -1.5664420319331651e-01 0.0000000000000000e+00 -1.5664420319331651e-01 -4.0709865260232875e-01 0.0000000000000000e+00 0.0000000000000000e+00 0.0000000000000000e+00 0.0000000000000000e+00  9.0095020701024316e-03 1.0143373515487197e-01 0.0000000000000000e+00 1.0143373515487197e-01 3.2160607884893482e-03 0.0000000000000000e+00 0.0000000000000000e+00 0.0000000000000000e+00 0.0000000000000000e+00  -2.1157530958318811e-02 -3.1113752740375257e-03 0.0000000000000000e+00 -3.1113752740375257e-03 4.2674935751974025e-03 0.0000000000000000e+00 0.0000000000000000e+00 0.0000000000000000e+00 0.0000000000000000e+00  2.7980151666201773e-03 3.7986606893790592e-04 0.0000000000000000e+00 3.7986606893790527e-04 3.3391220464200019e-03 0.0000000000000000e+00 0.0000000000000000e+00 0.0000000000000000e+00 0.0000000000000000e+00  4.1145451472061560e-03 8.7387457168868453e-04 0.0000000000000000e+00 8.7387457168868388e-04 3.4986405351427152e-03 0.0000000000000000e+00 0.0000000000000000e+00 0.0000000000000000e+00 0.0000000000000000e+00  -2.3265664299282986e-02 -9.2966162455656481e-04 0.0000000000000000e+00 -9.2966162455656481e-04 4.3840663883796755e-03 0.0000000000000000e+00 0.0000000000000000e+00 0.0000000000000000e+00 0.0000000000000000e+00  2.9039909434509559e-02 -8.7006064407896849e-02 0.0000000000000000e+00 -8.7006064407896849e-02 4.0075852571141553e-02 0.0000000000000000e+00 0.0000000000000000e+00 0.0000000000000000e+00 0.0000000000000000e+00  1.5211131832787614e-01 1.5814506828487795e-01 0.0000000000000000e+00 1.5814506828487795e-01 -4.3626220856019837e-01 0.0000000000000000e+00 0.0000000000000000e+00 0.0000000000000000e+00 0.0000000000000000e+00  -1.3194524556546108e-01 -8.0602241913891648e-02 0.0000000000000000e+00 -8.0602241913891648e-02 7.6702803431897464e-03 0.0000000000000000e+00 0.0000000000000000e+00 0.0000000000000000e+00 0.0000000000000000e+00  -5.4876782153621288e-02 -2.2158949573622518e-02 0.0000000000000000e+00 -2.2158949573622518e-02 -9.1705506867792316e-02 0.0000000000000000e+00 0.0000000000000000e+00 0.0000000000000000e+00 0.0000000000000000e+00  -4.8423987789398562e-02 -1.0931001758682527e-02 0.0000000000000000e+00 -1.0931001758682527e-02 -1.0787910555835833e-01 0.0000000000000000e+00 0.0000000000000000e+00 0.0000000000000000e+00 0.0000000000000000e+00  -6.1763939261734416e-02 -6.2190509820028142e-04 0.0000000000000000e+00 -6.2190509820028142e-04 -1.0106302491436914e-01 0.0000000000000000e+00 0.0000000000000000e+00 0.0000000000000000e+00 0.0000000000000000e+00  -7.0352663936429541e-02 4.9211551163474273e-03 0.0000000000000000e+00 4.9211551163474273e-03 -9.7490123512007157e-02 0.0000000000000000e+00 0.0000000000000000e+00 0.0000000000000000e+00 0.0000000000000000e+00  -7.6863365722562069e-02 8.2388189589466341e-03 0.0000000000000000e+00 8.2388189589466341e-03 -9.3259644177120016e-02 0.0000000000000000e+00 0.0000000000000000e+00 0.0000000000000000e+00 0.0000000000000000e+00  -8.1072405826024485e-02 1.0159605400228025e-02 0.0000000000000000e+00 1.0159605400228025e-02 -9.0116852912426507e-02 0.0000000000000000e+00 0.0000000000000000e+00 0.0000000000000000e+00 0.0000000000000000e+00  -8.3816653190351004e-02 1.1187811384541200e-02 0.0000000000000000e+00 1.1187811384541200e-02 -8.7851802500970175e-02 0.0000000000000000e+00 0.0000000000000000e+00 0.0000000000000000e+00 0.0000000000000000e+00  -8.5493476276454095e-02 1.1661746010534801e-02 0.0000000000000000e+00 1.1661746010534801e-02 -8.6402052616816216e-02 0.0000000000000000e+00 0.0000000000000000e+00 0.0000000000000000e+00 0.0000000000000000e+00  -8.6440758537343343e-02 1.1820337650802815e-02 0.0000000000000000e+00 1.1820337650802815e-02 -8.5612094303585698e-02 0.0000000000000000e+00 0.0000000000000000e+00 0.0000000000000000e+00 0.0000000000000000e+00  -8.6916110206903666e-02 1.1821438961071202e-02 0.0000000000000000e+00 1.1821438961071202e-02 -8.5301077897644545e-02 0.0000000000000000e+00 0.0000000000000000e+00 0.0000000000000000e+00 0.0000000000000000e+00  -8.7126839498824257e-02 1.1755167811185289e-02 0.0000000000000000e+00 1.1755167811185289e-02 -8.5284264367997797e-02 0.0000000000000000e+00 0.0000000000000000e+00 0.0000000000000000e+00 0.0000000000000000e+00  -8.7233778088406183e-02 1.1646047385457738e-02 0.0000000000000000e+00 1.1646047385457738e-02 -8.5396132288465904e-02 0.0000000000000000e+00 0.0000000000000000e+00 0.0000000000000000e+00 0.0000000000000000e+00  -8.7343673616528394e-02 1.1467834557819320e-02 0.0000000000000000e+00 1.1467834557819320e-02 -8.5519133821925317e-02 0.0000000000000000e+00 0.0000000000000000e+00 0.0000000000000000e+00 0.0000000000000000e+00  -8.7505142004605338e-02 1.1166962468342270e-02 0.0000000000000000e+00 1.1166962468342270e-02 -8.5600979746993738e-02 0.0000000000000000e+00 0.0000000000000000e+00 0.0000000000000000e+00 0.0000000000000000e+00  -8.7711124310478478e-02 1.0692928892032190e-02 0.0000000000000000e+00 1.0692928892032190e-02 -8.5657723379851294e-02 0.0000000000000000e+00 0.0000000000000000e+00 0.0000000000000000e+00 0.0000000000000000e+00  -8.7914143119097496e-02 1.0026459868035993e-02 0.0000000000000000e+00 1.0026459868035993e-02 -8.5756532567082391e-02 0.0000000000000000e+00 0.0000000000000000e+00 0.0000000000000000e+00 0.0000000000000000e+00  -8.8051324548017132e-02 9.1954670142215793e-03 0.0000000000000000e+00 9.1954670142215793e-03 -8.5982990452176167e-02 0.0000000000000000e+00 0.0000000000000000e+00 0.0000000000000000e+00 0.0000000000000000e+00  -8.8071801013033829e-02 8.2729744878608773e-03 0.0000000000000000e+00 8.2729744878608773e-03 -8.6404008201355020e-02 0.0000000000000000e+00 0.0000000000000000e+00 0.0000000000000000e+00 0.0000000000000000e+00  -8.7957483106570852e-02 7.3582836034611450e-03 0.0000000000000000e+00 7.3582836034611450e-03 -8.7039385199848190e-02 0.0000000000000000e+00 0.0000000000000000e+00 0.0000000000000000e+00 0.0000000000000000e+00  -8.7730831975480136e-02 6.5486925184171201e-03 0.0000000000000000e+00 6.5486925184171201e-03 -8.7851307232688941e-02 0.0000000000000000e+00 0.0000000000000000e+00 0.0000000000000000e+00 0.0000000000000000e+00  -8.7447802764676119e-02 5.9119543951087336e-03 0.0000000000000000e+00 5.9119543951087336e-03 -8.8754575966230445e-02 0.0000000000000000e+00 0.0000000000000000e+00 0.0000000000000000e+00 0.0000000000000000e+00  -8.7178997895069166e-02 5.4692798245458609e-03 0.0000000000000000e+00 5.4692798245458609e-03 -8.9643365862916199e-02 0.0000000000000000e+00 0.0000000000000000e+00 0.0000000000000000e+00 0.0000000000000000e+00  -8.6986371295691783e-02 5.1950529058630030e-03 0.0000000000000000e+00 5.1950529058630030e-03 -9.0424201642843760e-02 0.0000000000000000e+00 0.0000000000000000e+00 0.0000000000000000e+00 0.0000000000000000e+00  -8.6904738973434731e-02 5.0328191002724319e-03 0.0000000000000000e+00 5.0328191002724319e-03 -9.1042197806089339e-02 0.0000000000000000e+00 0.0000000000000000e+00 0.0000000000000000e+00 0.0000000000000000e+00  -8.6934904689188255e-02 4.9202785677851628e-03 0.0000000000000000e+00 4.9202785677851628e-03 -9.1490838882071560e-02 0.0000000000000000e+00 0.0000000000000000e+00 0.0000000000000000e+00 0.0000000000000000e+00  -8.7050519323401118e-02 4.8126171617423651e-03 0.0000000000000000e+00 4.8126171617423651e-03 -9.1802800312011212e-02 0.0000000000000000e+00 0.0000000000000000e+00 0.0000000000000000e+00 0.0000000000000000e+00  -8.7211212051809331e-02 4.6960142391408981e-03 0.0000000000000000e+00 4.6960142391408981e-03 -9.2030108061822130e-02 0.0000000000000000e+00 0.0000000000000000e+00 0.0000000000000000e+00 0.0000000000000000e+00  -8.7384472237196364e-02 4.5885469516370112e-03 0.0000000000000000e+00 4.5885469516370112e-03 -9.2215028490464562e-02 0.0000000000000000e+00 0.0000000000000000e+00 0.0000000000000000e+00 0.0000000000000000e+00  -8.7552304090709396e-02 4.5237959830902444e-03 0.0000000000000000e+00 4.5237959830902444e-03 -9.2375016384385694e-02 0.0000000000000000e+00 0.0000000000000000e+00 0.0000000000000000e+00 0.0000000000000000e+00  -8.7718756998127465e-02 4.5307340060447739e-03 0.0000000000000000e+00 4.5307340060447739e-03 -9.2493254227202892e-02 0.0000000000000000e+00 0.0000000000000000e+00 0.0000000000000000e+00 0.0000000000000000e+00  -8.7917029315651485e-02 4.6020464159023554e-03 0.0000000000000000e+00 4.6020464159023554e-03 -9.2498908624387310e-02 0.0000000000000000e+00 0.0000000000000000e+00 0.0000000000000000e+00 0.0000000000000000e+00  -8.7977794393349976e-02 4.6843211139549904e-03 0.0000000000000000e+00 4.6843211139549904e-03 -9.2572660046820812e-02 0.0000000000000000e+00 0.0000000000000000e+00 0.0000000000000000e+00 0.0000000000000000e+00  -8.8293423223858261e-02 4.7373746360926724e-03 0.0000000000000000e+00 4.7373746360926724e-03 -9.1736564890627953e-02 0.0000000000000000e+00 0.0000000000000000e+00 0.0000000000000000e+00 0.0000000000000000e+00  -8.7516542419397492e-02 6.1893600905203070e-03 0.0000000000000000e+00 6.1893600905203070e-03 -9.3882511160060758e-02 0.0000000000000000e+00 0.0000000000000000e+00 0.0000000000000000e+00 0.0000000000000000e+00  -9.3332384406457192e-02 -1.0499904828706083e-03 0.0000000000000000e+00 -1.0499904828706083e-03 -7.8994767695757251e-02 0.0000000000000000e+00 0.0000000000000000e+00 0.0000000000000000e+00 0.0000000000000000e+00  -1.6011156992463771e-01 4.9676340670938193e-02 0.0000000000000000e+00 4.9676340670938193e-02 -4.0642438327076105e-02 0.0000000000000000e+00 0.0000000000000000e+00 0.0000000000000000e+00 0.0000000000000000e+00  1.8869785337864556e-02 -8.9036377829815105e-02 0.0000000000000000e+00 -8.9036377829815105e-02 -1.3528447280757330e-01 0.0000000000000000e+00 0.0000000000000000e+00 0.0000000000000000e+00 0.0000000000000000e+00  -2.5078035493431135e-02 1.1822471171462343e-01 0.0000000000000000e+00 1.1822471171462343e-01 -1.3643448358951246e-01 0.0000000000000000e+00 0.0000000000000000e+00 0.0000000000000000e+00 0.0000000000000000e+00  -1.6678895775429189e-02 -1.7136429083671086e-02 0.0000000000000000e+00 -1.7136429083671086e-02 4.9058938075186478e-02 0.0000000000000000e+00 0.0000000000000000e+00 0.0000000000000000e+00 0.0000000000000000e+00  8.4548181834051567e-03 2.8963874523499030e-03 0.0000000000000000e+00 2.8963874523499030e-03 1.0354658122633760e-02 0.0000000000000000e+00 0.0000000000000000e+00 0.0000000000000000e+00 0.0000000000000000e+00  6.9873185924181225e-03 1.0051567481817872e-04 0.0000000000000000e+00 1.0051567481817872e-04 7.5184123205582045e-03 0.0000000000000000e+00 0.0000000000000000e+00 0.0000000000000000e+00 0.0000000000000000e+00  7.6991695461369816e-03 -4.7378542209079609e-05 0.0000000000000000e+00 -4.7378542209079609e-05 7.6961407145982883e-03 0.0000000000000000e+00 0.0000000000000000e+00 0.0000000000000000e+00 0.0000000000000000e+00  7.6433293284488783e-03 1.4556664504566712e-05 0.0000000000000000e+00 1.4556664504566712e-05 7.6415604847736738e-03 0.0000000000000000e+00 0.0000000000000000e+00 0.0000000000000000e+00 0.0000000000000000e+00  7.6451135096347340e-03 2.6178513966671481e-05 0.0000000000000000e+00 2.6178513966671481e-05 7.6532700453955729e-03 0.0000000000000000e+00 0.0000000000000000e+00 0.0000000000000000e+00 0.0000000000000000e+00  7.6457382273874110e-03 4.8640693098954500e-05 0.0000000000000000e+00 4.8640693098954500e-05 7.6510800997998153e-03 0.0000000000000000e+00 0.0000000000000000e+00 0.0000000000000000e+00 0.0000000000000000e+00  7.6875406985291023e-03 -4.6436274718970290e-05 0.0000000000000000e+00 -4.6436274718970290e-05 7.6928930485664617e-03 0.0000000000000000e+00 0.0000000000000000e+00 0.0000000000000000e+00 0.0000000000000000e+00  7.6861303477861707e-03 -2.7487261559001217e-05 0.0000000000000000e+00 -2.7487261559001217e-05 7.6948746961455153e-03 0.0000000000000000e+00 0.0000000000000000e+00 0.0000000000000000e+00 0.0000000000000000e+00  7.6915347508701637e-03 -9.5212776073730930e-06 0.0000000000000000e+00 -9.5212776073730930e-06 7.6928202934882124e-03 0.0000000000000000e+00 0.0000000000000000e+00 0.0000000000000000e+00 0.0000000000000000e+00  7.6639689315528333e-03 1.7640108674306029e-05 0.0000000000000000e+00 1.7640108674306029e-05 7.6775298825567289e-03 0.0000000000000000e+00 0.0000000000000000e+00 0.0000000000000000e+00 0.0000000000000000e+00  7.7179396422884230e-03 -2.1676262570928783e-04 0.0000000000000000e+00 -2.1676262570928783e-04 7.6277931699809381e-03 0.0000000000000000e+00 0.0000000000000000e+00 0.0000000000000000e+00 0.0000000000000000e+00  7.8207475198456260e-03 1.4607085000073203e-03 0.0000000000000000e+00 1.4607085000073203e-03 9.3383030493491281e-03 0.0000000000000000e+00 0.0000000000000000e+00 0.0000000000000000e+00 0.0000000000000000e+00  -8.1202658678212886e-03 -1.0294716077067398e-02 0.0000000000000000e+00 -1.0294716077067398e-02 6.8274254391960431e-03 0.0000000000000000e+00 0.0000000000000000e+00 0.0000000000000000e+00 0.0000000000000000e+00  8.6814042078875650e-03 -1.3607088176504550e-02 0.0000000000000000e+00 -1.3607088176504550e-02 8.1576513067447023e-02 0.0000000000000000e+00 0.0000000000000000e+00 0.0000000000000000e+00 0.0000000000000000e+00  -1.0216442003341583e-02 1.0142921942197981e-01 0.0000000000000000e+00 1.0142921942197981e-01 -4.7797054679484346e-01 0.0000000000000000e+00 0.0000000000000000e+00 0.0000000000000000e+00 0.0000000000000000e+00  -7.8656171262960359e-02 -5.2050696396873139e-02 0.0000000000000000e+00 -5.2050696396873139e-02 7.9184465741696269e-02 0.0000000000000000e+00 0.0000000000000000e+00 0.0000000000000000e+00 0.0000000000000000e+00  -1.2344057277004333e-01 -1.3982393111507150e-02 0.0000000000000000e+00 -1.3982393111507150e-02 -7.5693772464761222e-02 0.0000000000000000e+00 0.0000000000000000e+00 0.0000000000000000e+00 0.0000000000000000e+00  -8.9908118988099819e-02 -4.0168836293802152e-03 0.0000000000000000e+00 -4.0168836293802152e-03 -8.8357726722339616e-02 0.0000000000000000e+00 0.0000000000000000e+00 0.0000000000000000e+00 0.0000000000000000e+00  -8.9930398910206627e-02 -4.9776085060767002e-03 0.0000000000000000e+00 -4.9776085060767002e-03 -9.2623047358266639e-02 0.0000000000000000e+00 0.0000000000000000e+00 0.0000000000000000e+00 0.0000000000000000e+00  -8.9470378411123944e-02 -5.4770417396191881e-03 0.0000000000000000e+00 -5.4770417396191881e-03 -9.2386364384312733e-02 0.0000000000000000e+00 0.0000000000000000e+00 0.0000000000000000e+00 0.0000000000000000e+00  -8.8910760886333012e-02 -5.2295735031134601e-03 0.0000000000000000e+00 -5.2295735031134601e-03 -9.2599213473725253e-02 0.0000000000000000e+00 0.0000000000000000e+00 0.0000000000000000e+00 0.0000000000000000e+00  -8.8570078589367371e-02 -5.1546851311222528e-03 0.0000000000000000e+00 -5.1546851311222528e-03 -9.2447787869942566e-02 0.0000000000000000e+00 0.0000000000000000e+00 0.0000000000000000e+00 0.0000000000000000e+00  -8.8322471369387714e-02 -5.1213076709559274e-03 0.0000000000000000e+00 -5.1213076709559274e-03 -9.2190541149312757e-02 0.0000000000000000e+00 0.0000000000000000e+00 0.0000000000000000e+00 0.0000000000000000e+00  -8.8094710863434220e-02 -5.1938780076517246e-03 0.0000000000000000e+00 -5.1938780076517246e-03 -9.1929554048385501e-02 0.0000000000000000e+00 0.0000000000000000e+00 0.0000000000000000e+00 0.0000000000000000e+00  -8.7869037741887770e-02 -5.3044048138485723e-03 0.0000000000000000e+00 -5.3044048138485723e-03 -9.1697088814840469e-02 0.0000000000000000e+00 0.0000000000000000e+00 0.0000000000000000e+00 0.0000000000000000e+00  -8.7646873949847826e-02 -5.3808465197628065e-03 0.0000000000000000e+00 -5.3808465197628065e-03 -9.1476999791120020e-02 0.0000000000000000e+00 0.0000000000000000e+00 0.0000000000000000e+00 0.0000000000000000e+00  -8.7493616553519948e-02 -5.3883782484630254e-03 0.0000000000000000e+00 -5.3883782484630254e-03 -9.1178411924336053e-02 0.0000000000000000e+00 0.0000000000000000e+00 0.0000000000000000e+00 0.0000000000000000e+00  -8.7471998752199145e-02 -5.3452485091261426e-03 0.0000000000000000e+00 -5.3452485091261426e-03 -9.0706732704798995e-02 0.0000000000000000e+00 0.0000000000000000e+00 0.0000000000000000e+00 0.0000000000000000e+00  -8.7633124938715931e-02 -5.3232740186064222e-03 0.0000000000000000e+00 -5.3232740186064222e-03 -8.9989989353673264e-02 0.0000000000000000e+00 0.0000000000000000e+00 0.0000000000000000e+00 0.0000000000000000e+00  -8.7983589796309228e-02 -5.4283589439522977e-03 0.0000000000000000e+00 -5.4283589439522977e-03 -8.9022005159476003e-02 0.0000000000000000e+00 0.0000000000000000e+00 0.0000000000000000e+00 0.0000000000000000e+00  -8.8473922146716871e-02 -5.7616070430113507e-03 0.0000000000000000e+00 -5.7616070430113507e-03 -8.7880134541452312e-02 0.0000000000000000e+00 0.0000000000000000e+00 0.0000000000000000e+00 0.0000000000000000e+00  -8.9007648031136061e-02 -6.3758359064349963e-03 0.0000000000000000e+00 -6.3758359064349963e-03 -8.6711449347515901e-02 0.0000000000000000e+00 0.0000000000000000e+00 0.0000000000000000e+00 0.0000000000000000e+00  -8.9472024164866396e-02 -7.2467012877687415e-03 0.0000000000000000e+00 -7.2467012877687415e-03 -8.5688051094122766e-02 0.0000000000000000e+00 0.0000000000000000e+00 0.0000000000000000e+00 0.0000000000000000e+00  -8.9777545753914056e-02 -8.2726545503640590e-03 0.0000000000000000e+00 -8.2726545503640590e-03 -8.4949747299651920e-02 0.0000000000000000e+00 0.0000000000000000e+00 0.0000000000000000e+00 0.0000000000000000e+00  -8.9889571309224731e-02 -9.3035346320348156e-03 0.0000000000000000e+00 -9.3035346320348156e-03 -8.4558042827434426e-02 0.0000000000000000e+00 0.0000000000000000e+00 0.0000000000000000e+00 0.0000000000000000e+00  -8.9840707653973353e-02 -1.0186420767594675e-02 0.0000000000000000e+00 -1.0186420767594675e-02 -8.4478162854676908e-02 0.0000000000000000e+00 0.0000000000000000e+00 0.0000000000000000e+00 0.0000000000000000e+00  -8.9719782571038076e-02 -1.0812885455209561e-02 0.0000000000000000e+00 -1.0812885455209561e-02 -8.4595283121400300e-02 0.0000000000000000e+00 0.0000000000000000e+00 0.0000000000000000e+00 0.0000000000000000e+00  -8.9639944087501588e-02 -1.1151392034771055e-02 0.0000000000000000e+00 -1.1151392034771055e-02 -8.4760987951549668e-02 0.0000000000000000e+00 0.0000000000000000e+00 0.0000000000000000e+00 0.0000000000000000e+00  -8.9695632053174490e-02 -1.1251826543304141e-02 0.0000000000000000e+00 -1.1251826543304141e-02 -8.4855310343287763e-02 0.0000000000000000e+00 0.0000000000000000e+00 0.0000000000000000e+00 0.0000000000000000e+00  -8.9924358012263048e-02 -1.1218854228028801e-02 0.0000000000000000e+00 -1.1218854228028801e-02 -8.4841004974983938e-02 0.0000000000000000e+00 0.0000000000000000e+00 0.0000000000000000e+00 0.0000000000000000e+00  -9.0288316835171037e-02 -1.1165227685376304e-02 0.0000000000000000e+00 -1.1165227685376304e-02 -8.4788598349339939e-02 0.0000000000000000e+00 0.0000000000000000e+00 0.0000000000000000e+00 0.0000000000000000e+00  -9.0677372194153019e-02 -1.1164367290389861e-02 0.0000000000000000e+00 -1.1164367290389861e-02 -8.4867696137283885e-02 0.0000000000000000e+00 0.0000000000000000e+00 0.0000000000000000e+00 0.0000000000000000e+00  -9.0934573150136450e-02 -1.1217992095989835e-02 0.0000000000000000e+00 -1.1217992095989835e-02 -8.5306611792191192e-02 0.0000000000000000e+00 0.0000000000000000e+00 0.0000000000000000e+00 0.0000000000000000e+00  -9.0869331426064001e-02 -1.1246978638799589e-02 0.0000000000000000e+00 -1.1246978638799589e-02 -8.6358453881099237e-02 0.0000000000000000e+00 0.0000000000000000e+00 0.0000000000000000e+00 0.0000000000000000e+00  -9.0289092098680218e-02 -1.1093948231474143e-02 0.0000000000000000e+00 -1.1093948231474143e-02 -8.8237342337747868e-02 0.0000000000000000e+00 0.0000000000000000e+00 0.0000000000000000e+00 0.0000000000000000e+00  -8.8995492220381833e-02 -1.0544037754475551e-02 0.0000000000000000e+00 -1.0544037754475551e-02 -9.1124820930570852e-02 0.0000000000000000e+00 0.0000000000000000e+00 0.0000000000000000e+00 0.0000000000000000e+00  -8.6676454091781069e-02 -9.3906361645968231e-03 0.0000000000000000e+00 -9.3906361645968231e-03 -9.5123191449265648e-02 0.0000000000000000e+00 0.0000000000000000e+00 0.0000000000000000e+00 0.0000000000000000e+00  -8.3196816255875397e-02 -7.0580075072736309e-03 0.0000000000000000e+00 -7.0580075072736318e-03 -1.0016070758451072e-01 0.0000000000000000e+00 0.0000000000000000e+00 0.0000000000000000e+00 0.0000000000000000e+00  -7.7495393587746320e-02 -3.3960548866286511e-03 0.0000000000000000e+00 -3.3960548866286511e-03 -1.0715370175620387e-01 0.0000000000000000e+00 0.0000000000000000e+00 0.0000000000000000e+00 0.0000000000000000e+00  -7.3850991146131306e-02 2.3387386627490184e-03 0.0000000000000000e+00 2.3387386627490184e-03 -1.0545046669955377e-01 0.0000000000000000e+00 0.0000000000000000e+00 0.0000000000000000e+00 0.0000000000000000e+00  -1.2991358596109182e-01 3.7771302158089028e-02 0.0000000000000000e+00 3.7771302158089028e-02 -9.8935254858575086e-02 0.0000000000000000e+00 0.0000000000000000e+00 0.0000000000000000e+00 0.0000000000000000e+00  -4.6195993502844444e-02 1.0655822314025971e-02 0.0000000000000000e+00 1.0655822314025972e-02 -2.4643169744434659e-02 0.0000000000000000e+00 0.0000000000000000e+00 0.0000000000000000e+00 0.0000000000000000e+00  3.0385915897608709e-02 5.7044975469115911e-02 0.0000000000000000e+00 5.7044975469115911e-02 -3.2478978603690978e-01 0.0000000000000000e+00 0.0000000000000000e+00 0.0000000000000000e+00 0.0000000000000000e+00  2.2047592487083110e-03 -2.3062304546775471e-02 0.0000000000000000e+00 -2.3062304546775474e-02 6.2677170440250604e-02 0.0000000000000000e+00 0.0000000000000000e+00 0.0000000000000000e+00 0.0000000000000000e+00  -2.7431901839735547e-03 8.1863773151490023e-03 0.0000000000000000e+00 8.1863773151490023e-03 1.5571242106971728e-03 0.0000000000000000e+00 0.0000000000000000e+00 0.0000000000000000e+00 0.0000000000000000e+00  6.9190052857031822e-04 -4.8124389296413787e-04 0.0000000000000000e+00 -4.8124389296413787e-04 1.2132420532966677e-03 0.0000000000000000e+00 0.0000000000000000e+00 0.0000000000000000e+00 0.0000000000000000e+00  3.2491344565427224e-04 2.0246238947329391e-04 0.0000000000000000e+00 2.0246238947329399e-04 1.1547731742616474e-03 0.0000000000000000e+00 0.0000000000000000e+00 0.0000000000000000e+00 0.0000000000000000e+00  -1.4063270938412694e-03 -7.0492586435096450e-03 0.0000000000000000e+00 -7.0492586435096450e-03 2.4105056459808689e-03 0.0000000000000000e+00 0.0000000000000000e+00 0.0000000000000000e+00 0.0000000000000000e+00  -1.6264252792038171e-03 2.3924409430585276e-02 0.0000000000000000e+00 2.3924409430585276e-02 6.6102039011113362e-02 0.0000000000000000e+00 0.0000000000000000e+00 0.0000000000000000e+00 0.0000000000000000e+00  4.5739661945206143e-02 -5.8108291257239368e-02 0.0000000000000000e+00 -5.8108291257239368e-02 -3.1667903333226982e-01 0.0000000000000000e+00 0.0000000000000000e+00 0.0000000000000000e+00 0.0000000000000000e+00  -5.5762745306391380e-02 -6.3436670213823237e-03 0.0000000000000000e+00 -6.3436670213823237e-03 -3.2821449320251439e-02 0.0000000000000000e+00 0.0000000000000000e+00 0.0000000000000000e+00 0.0000000000000000e+00  -1.4407566931765844e-01 -2.7495677509769979e-02 0.0000000000000000e+00 -2.7495677509769979e-02 -1.0625059544116223e-01 0.0000000000000000e+00 0.0000000000000000e+00 0.0000000000000000e+00 0.0000000000000000e+00  -8.3338244279145393e-02 2.6883213856575862e-03 0.0000000000000000e+00 2.6883213856575862e-03 -1.0730652232838821e-01 0.0000000000000000e+00 0.0000000000000000e+00 0.0000000000000000e+00 0.0000000000000000e+00  -8.4714462156536816e-02 7.6784696928126044e-03 0.0000000000000000e+00 7.6784696928126044e-03 -1.0754639741899284e-01 0.0000000000000000e+00 0.0000000000000000e+00 0.0000000000000000e+00 0.0000000000000000e+00  -8.8936268730866824e-02 1.0137240550056149e-02 0.0000000000000000e+00 1.0137240550056149e-02 -9.9945227557804259e-02 0.0000000000000000e+00 0.0000000000000000e+00 0.0000000000000000e+00 0.0000000000000000e+00  -9.1208125808195331e-02 1.1612570139406427e-02 0.0000000000000000e+00 1.1612570139406427e-02 -9.4600989309617023e-02 0.0000000000000000e+00 0.0000000000000000e+00 0.0000000000000000e+00 0.0000000000000000e+00  -9.2533536144518008e-02 1.2110394701810774e-02 0.0000000000000000e+00 1.2110394701810774e-02 -9.0584320635948554e-02 0.0000000000000000e+00 0.0000000000000000e+00 0.0000000000000000e+00 0.0000000000000000e+00  -9.3027303326600794e-02 1.2183684490552620e-02 0.0000000000000000e+00 1.2183684490552620e-02 -8.7801112659033703e-02 0.0000000000000000e+00 0.0000000000000000e+00 0.0000000000000000e+00 0.0000000000000000e+00  -9.2971851140409068e-02 1.1997486087706840e-02 0.0000000000000000e+00 1.1997486087706840e-02 -8.6077219504626004e-02 0.0000000000000000e+00 0.0000000000000000e+00 0.0000000000000000e+00 0.0000000000000000e+00  -9.2540409920913516e-02 1.1731096441710526e-02 0.0000000000000000e+00 1.1731096441710526e-02 -8.5183003777508107e-02 0.0000000000000000e+00 0.0000000000000000e+00 0.0000000000000000e+00 0.0000000000000000e+00  -9.1901470782304748e-02 1.1511743272908962e-02 0.0000000000000000e+00 1.1511743272908962e-02 -8.4879904549542029e-02 0.0000000000000000e+00 0.0000000000000000e+00 0.0000000000000000e+00 0.0000000000000000e+00  -9.1223491950353591e-02 1.1395175844482752e-02 0.0000000000000000e+00 1.1395175844482752e-02 -8.4904853241118794e-02 0.0000000000000000e+00 0.0000000000000000e+00 0.0000000000000000e+00 0.0000000000000000e+00  -9.0643540038505721e-02 1.1362700505095271e-02 0.0000000000000000e+00 1.1362700505095271e-02 -8.5028540758178298e-02 0.0000000000000000e+00 0.0000000000000000e+00 0.0000000000000000e+00 0.0000000000000000e+00  -9.0254794579962952e-02 1.1329386504636604e-02 0.0000000000000000e+00 1.1329386504636604e-02 -8.5084987599754344e-02 0.0000000000000000e+00 0.0000000000000000e+00 0.0000000000000000e+00 0.0000000000000000e+00  -9.0081166268706783e-02 1.1175141129533165e-02 0.0000000000000000e+00 1.1175141129533165e-02 -8.5009187278983794e-02 0.0000000000000000e+00 0.0000000000000000e+00 0.0000000000000000e+00 0.0000000000000000e+00  -9.0074164328979578e-02 1.0790905986163161e-02 0.0000000000000000e+00 1.0790905986163161e-02 -8.4844180007181816e-02 0.0000000000000000e+00 0.0000000000000000e+00 0.0000000000000000e+00 0.0000000000000000e+00  -9.0130923519792738e-02 1.0124317445937878e-02 0.0000000000000000e+00 1.0124317445937878e-02 -8.4715178324644244e-02 0.0000000000000000e+00 0.0000000000000000e+00 0.0000000000000000e+00 0.0000000000000000e+00  -9.0131949688561502e-02 9.2055951289514368e-03 0.0000000000000000e+00 9.2055951289514368e-03 -8.4774997301048788e-02 0.0000000000000000e+00 0.0000000000000000e+00 0.0000000000000000e+00 0.0000000000000000e+00  -8.9983671907082355e-02 8.1425203789658208e-03 0.0000000000000000e+00 8.1425203789658208e-03 -8.5141996045901697e-02 0.0000000000000000e+00 0.0000000000000000e+00 0.0000000000000000e+00 0.0000000000000000e+00  -8.9649927979701005e-02 7.0877710635757303e-03 0.0000000000000000e+00 7.0877710635757303e-03 -8.5853715830201030e-02 0.0000000000000000e+00 0.0000000000000000e+00 0.0000000000000000e+00 0.0000000000000000e+00  -8.9162689843227325e-02 6.1915535726650150e-03 0.0000000000000000e+00 6.1915535726650150e-03 -8.6850737001232442e-02 0.0000000000000000e+00 0.0000000000000000e+00 0.0000000000000000e+00 0.0000000000000000e+00  -8.8609507308543348e-02 5.5556894650791297e-03 0.0000000000000000e+00 5.5556894650791297e-03 -8.7994672698597357e-02 0.0000000000000000e+00 0.0000000000000000e+00 0.0000000000000000e+00 0.0000000000000000e+00  -8.8101799154862284e-02 5.2049253293235702e-03 0.0000000000000000e+00 5.2049253293235702e-03 -8.9114154655229205e-02 0.0000000000000000e+00 0.0000000000000000e+00 0.0000000000000000e+00 0.0000000000000000e+00  -8.7735259628799911e-02 5.0868212586155197e-03 0.0000000000000000e+00 5.0868212586155197e-03 -9.0062191982603804e-02 0.0000000000000000e+00 0.0000000000000000e+00 0.0000000000000000e+00 0.0000000000000000e+00  -8.7558976817079789e-02 5.1004933249031367e-03 0.0000000000000000e+00 5.1004933249031367e-03 -9.0761012245983583e-02 0.0000000000000000e+00 0.0000000000000000e+00 0.0000000000000000e+00 0.0000000000000000e+00  -8.7566214887581650e-02 5.1400753521126524e-03 0.0000000000000000e+00 5.1400753521126524e-03 -9.1216064989074322e-02 0.0000000000000000e+00 0.0000000000000000e+00 0.0000000000000000e+00 0.0000000000000000e+00  -8.7705875852823065e-02 5.1336752682117487e-03 0.0000000000000000e+00 5.1336752682117487e-03 -9.1498417856570369e-02 0.0000000000000000e+00 0.0000000000000000e+00 0.0000000000000000e+00 0.0000000000000000e+00  -8.7915436760896498e-02 5.0629421961135429e-03 0.0000000000000000e+00 5.0629421961135429e-03 -9.1701527304249367e-02 0.0000000000000000e+00 0.0000000000000000e+00 0.0000000000000000e+00 0.0000000000000000e+00  -8.8130231749662641e-02 4.9624321287244384e-03 0.0000000000000000e+00 4.9624321287244384e-03 -9.1914694335314295e-02 0.0000000000000000e+00 0.0000000000000000e+00 0.0000000000000000e+00 0.0000000000000000e+00  -8.8349639289107648e-02 4.9034053320121101e-03 0.0000000000000000e+00 4.9034053320121101e-03 -9.2152163502043666e-02 0.0000000000000000e+00 0.0000000000000000e+00 0.0000000000000000e+00 0.0000000000000000e+00  -8.8593574185003104e-02 4.9521385395174099e-03 0.0000000000000000e+00 4.9521385395174099e-03 -9.2379559808458619e-02 0.0000000000000000e+00 0.0000000000000000e+00 0.0000000000000000e+00 0.0000000000000000e+00  -8.8935740514355988e-02 5.0399502030779664e-03 0.0000000000000000e+00 5.0399502030779664e-03 -9.2493008746774991e-02 0.0000000000000000e+00 0.0000000000000000e+00 0.0000000000000000e+00 0.0000000000000000e+00  -8.9503464801501745e-02 5.2968196075419494e-03 0.0000000000000000e+00 5.2968196075419494e-03 -9.2242445626822350e-02 0.0000000000000000e+00 0.0000000000000000e+00 0.0000000000000000e+00 0.0000000000000000e+00  -8.9975582283919650e-02 4.7800009795891515e-03 0.0000000000000000e+00 4.7800009795891515e-03 -9.2423159690963055e-02 0.0000000000000000e+00 0.0000000000000000e+00 0.0000000000000000e+00 0.0000000000000000e+00  -8.9973015445123344e-02 3.8732600051632625e-03 0.0000000000000000e+00 3.8732600051632625e-03 -8.8183775927468733e-02 0.0000000000000000e+00 0.0000000000000000e+00 0.0000000000000000e+00 0.0000000000000000e+00  -1.2342063372801196e-01 1.3472367428215337e-02 0.0000000000000000e+00 1.3472367428215337e-02 -7.5570019053360943e-02 0.0000000000000000e+00 0.0000000000000000e+00 0.0000000000000000e+00 0.0000000000000000e+00  -7.9297208781593104e-02 5.2261039394605399e-02 0.0000000000000000e+00 5.2261039394605399e-02 7.9460649764698313e-02 0.0000000000000000e+00 0.0000000000000000e+00 0.0000000000000000e+00 0.0000000000000000e+00  -9.5212869217465700e-03 -1.0268849908781055e-01 0.0000000000000000e+00 -1.0268849908781055e-01 -4.7880906708169507e-01 0.0000000000000000e+00 0.0000000000000000e+00 0.0000000000000000e+00 0.0000000000000000e+00  8.7049061177529256e-03 1.3970883764902306e-02 0.0000000000000000e+00 1.3970883764902306e-02 8.1689657121684328e-02 0.0000000000000000e+00 0.0000000000000000e+00 0.0000000000000000e+00 0.0000000000000000e+00  -8.0292492382788069e-03 1.0244792080373374e-02 0.0000000000000000e+00 1.0244792080373374e-02 6.9284103553888844e-03 0.0000000000000000e+00 0.0000000000000000e+00 0.0000000000000000e+00 0.0000000000000000e+00  7.7993736791132483e-03 -1.4571118569701638e-03 0.0000000000000000e+00 -1.4571118569701638e-03 9.3352294492487289e-03 0.0000000000000000e+00 0.0000000000000000e+00 0.0000000000000000e+00 0.0000000000000000e+00  7.6583843424282150e-03 2.0694244308537668e-04 0.0000000000000000e+00 2.0694244308537668e-04 7.5667207376504016e-03 0.0000000000000000e+00 0.0000000000000000e+00 0.0000000000000000e+00 0.0000000000000000e+00  7.5992378829049792e-03 -2.1045818895752067e-05 0.0000000000000000e+00 -2.1045818895752067e-05 7.6163719030306123e-03 0.0000000000000000e+00 0.0000000000000000e+00 0.0000000000000000e+00 0.0000000000000000e+00  7.6278008786765132e-03 9.3716138465613133e-06 0.0000000000000000e+00 9.3716138465613133e-06 7.6315165649252928e-03 0.0000000000000000e+00 0.0000000000000000e+00 0.0000000000000000e+00 0.0000000000000000e+00  7.6225818611488838e-03 2.7523560320356510e-05 0.0000000000000000e+00 2.7523560320356510e-05 7.6328727034325420e-03 0.0000000000000000e+00 0.0000000000000000e+00 0.0000000000000000e+00 0.0000000000000000e+00  7.6241917009818670e-03 4.6402854062695668e-05 0.0000000000000000e+00 4.6402854062695668e-05 7.6301389750186950e-03 0.0000000000000000e+00 0.0000000000000000e+00 0.0000000000000000e+00 0.0000000000000000e+00  7.6681800145539450e-03 -4.4267877045256551e-05 0.0000000000000000e+00 -4.4267877045256551e-05 7.6740962344399033e-03 0.0000000000000000e+00 0.0000000000000000e+00 0.0000000000000000e+00 0.0000000000000000e+00  7.6670709259053574e-03 -2.7285986754771609e-05 0.0000000000000000e+00 -2.7285986754771609e-05 7.6776990005158023e-03 0.0000000000000000e+00 0.0000000000000000e+00 0.0000000000000000e+00 0.0000000000000000e+00  7.6667086019778013e-03 -9.3478353345238595e-06 0.0000000000000000e+00 -9.3478353345238595e-06 7.6753744835412335e-03 0.0000000000000000e+00 0.0000000000000000e+00 0.0000000000000000e+00 0.0000000000000000e+00  7.6655433163966523e-03 -1.4046208008689435e-05 0.0000000000000000e+00 -1.4046208008689435e-05 7.6571612281055822e-03 0.0000000000000000e+00 0.0000000000000000e+00 0.0000000000000000e+00 0.0000000000000000e+00  7.7336200662146007e-03 1.0517392283707072e-04 0.0000000000000000e+00 1.0517392283707072e-04 7.7392498875656860e-03 0.0000000000000000e+00 0.0000000000000000e+00 0.0000000000000000e+00 0.0000000000000000e+00  6.9269438807552357e-03 -3.9261514934305937e-04 0.0000000000000000e+00 -3.9261514934305937e-04 7.3246527920368346e-03 0.0000000000000000e+00 0.0000000000000000e+00 0.0000000000000000e+00 0.0000000000000000e+00  9.6677925664454961e-03 -9.2920405842124927e-04 0.0000000000000000e+00 -9.2920405842124927e-04 1.0367463899238569e-02 0.0000000000000000e+00 0.0000000000000000e+00 0.0000000000000000e+00 0.0000000000000000e+00  -1.9046403456539497e-02 4.2394314679492550e-03 0.0000000000000000e+00 4.2394314679492550e-03 2.0643008343856298e-02 0.0000000000000000e+00 0.0000000000000000e+00 0.0000000000000000e+00 0.0000000000000000e+00  -5.7176537249595462e-02 -1.1899891212622672e-01 0.0000000000000000e+00 -1.1899891212622672e-01 -1.9441462207899371e-02 0.0000000000000000e+00 0.0000000000000000e+00 0.0000000000000000e+00 0.0000000000000000e+00  -6.1639012300381865e-02 2.3245351227209760e-01 0.0000000000000000e+00 2.3245351227209760e-01 -4.2462063641887277e-01 0.0000000000000000e+00 0.0000000000000000e+00 0.0000000000000000e+00 0.0000000000000000e+00  -8.8975013995163887e-02 -1.0920641662992735e-01 0.0000000000000000e+00 -1.0920641662992735e-01 4.3586640071568282e-02 0.0000000000000000e+00 0.0000000000000000e+00 0.0000000000000000e+00 0.0000000000000000e+00  -1.0206056116183841e-01 1.0822242762715718e-02 0.0000000000000000e+00 1.0822242762715718e-02 -7.9158986877464269e-02 0.0000000000000000e+00 0.0000000000000000e+00 0.0000000000000000e+00 0.0000000000000000e+00  -9.1721419589122860e-02 -9.2783427235561908e-03 0.0000000000000000e+00 -9.2783427235561908e-03 -9.1405346191570216e-02 0.0000000000000000e+00 0.0000000000000000e+00 0.0000000000000000e+00 0.0000000000000000e+00  -9.0708835112594505e-02 -5.5801170031919960e-03 0.0000000000000000e+00 -5.5801170031919960e-03 -9.2238210387422082e-02 0.0000000000000000e+00 0.0000000000000000e+00 0.0000000000000000e+00 0.0000000000000000e+00  -8.9893877826907262e-02 -6.1934284609550432e-03 0.0000000000000000e+00 -6.1934284609550432e-03 -9.2707598772049815e-02 0.0000000000000000e+00 0.0000000000000000e+00 0.0000000000000000e+00 0.0000000000000000e+00  -8.9415949156700869e-02 -5.5937040956967679e-03 0.0000000000000000e+00 -5.5937040956967679e-03 -9.2421972510137534e-02 0.0000000000000000e+00 0.0000000000000000e+00 0.0000000000000000e+00 0.0000000000000000e+00  -8.9097735109957887e-02 -5.5324663043295388e-03 0.0000000000000000e+00 -5.5324663043295388e-03 -9.1993509553218819e-02 0.0000000000000000e+00 0.0000000000000000e+00 0.0000000000000000e+00 0.0000000000000000e+00  -8.8863861738723751e-02 -5.6181395170396648e-03 0.0000000000000000e+00 -5.6181395170396648e-03 -9.1588307545352687e-02 0.0000000000000000e+00 0.0000000000000000e+00 0.0000000000000000e+00 0.0000000000000000e+00  -8.8534026425242066e-02 -5.7425367055262723e-03 0.0000000000000000e+00 -5.7425367055262723e-03 -9.1379988827582928e-02 0.0000000000000000e+00 0.0000000000000000e+00 0.0000000000000000e+00 0.0000000000000000e+00  -8.8229716020258114e-02 -5.7730877972498682e-03 0.0000000000000000e+00 -5.7730877972498682e-03 -9.1238301283899370e-02 0.0000000000000000e+00 0.0000000000000000e+00 0.0000000000000000e+00 0.0000000000000000e+00  -8.7998555360715741e-02 -5.6457645474028897e-03 0.0000000000000000e+00 -5.6457645474028897e-03 -9.1048755877286405e-02 0.0000000000000000e+00 0.0000000000000000e+00 0.0000000000000000e+00 0.0000000000000000e+00  -8.7963255588546396e-02 -5.3802227240284202e-03 0.0000000000000000e+00 -5.3802227240284202e-03 -9.0629018472582548e-02 0.0000000000000000e+00 0.0000000000000000e+00 0.0000000000000000e+00 0.0000000000000000e+00  -8.8209144939416284e-02 -5.0880314842464873e-03 0.0000000000000000e+00 -5.0880314842464873e-03 -8.9843835168526107e-02 0.0000000000000000e+00 0.0000000000000000e+00 0.0000000000000000e+00 0.0000000000000000e+00  -8.8760005743564491e-02 -4.9439569209341287e-03 0.0000000000000000e+00 -4.9439569209341287e-03 -8.8659370808982493e-02 0.0000000000000000e+00 0.0000000000000000e+00 0.0000000000000000e+00 0.0000000000000000e+00  -8.9546974571388729e-02 -5.1250035376735059e-03 0.0000000000000000e+00 -5.1250035376735059e-03 -8.7184881910077616e-02 0.0000000000000000e+00 0.0000000000000000e+00 0.0000000000000000e+00 0.0000000000000000e+00  -9.0419258782456227e-02 -5.7315280832429556e-03 0.0000000000000000e+00 -5.7315280832429556e-03 -8.5655587817079465e-02 0.0000000000000000e+00 0.0000000000000000e+00 0.0000000000000000e+00 0.0000000000000000e+00  -9.1197577810726321e-02 -6.7349599852597145e-03 0.0000000000000000e+00 -6.7349599852597145e-03 -8.4353054455669235e-02 0.0000000000000000e+00 0.0000000000000000e+00 0.0000000000000000e+00 0.0000000000000000e+00  -9.1740957455304542e-02 -7.9786974809726713e-03 0.0000000000000000e+00 -7.9786974809726713e-03 -8.3504905073168240e-02 0.0000000000000000e+00 0.0000000000000000e+00 0.0000000000000000e+00 0.0000000000000000e+00  -9.1997570600990841e-02 -9.2271318224806179e-03 0.0000000000000000e+00 -9.2271318224806179e-03 -8.3207920506500846e-02 0.0000000000000000e+00 0.0000000000000000e+00 0.0000000000000000e+00 0.0000000000000000e+00  -9.2024364353521237e-02 -1.0240131630329732e-02 0.0000000000000000e+00 -1.0240131630329732e-02 -8.3398658678065535e-02 0.0000000000000000e+00 0.0000000000000000e+00 0.0000000000000000e+00 0.0000000000000000e+00  -9.1972237123302922e-02 -1.0849652535554428e-02 0.0000000000000000e+00 -1.0849652535554428e-02 -8.3877571774398599e-02 0.0000000000000000e+00 0.0000000000000000e+00 0.0000000000000000e+00 0.0000000000000000e+00  -9.2038453394338526e-02 -1.1015413973117411e-02 0.0000000000000000e+00 -1.1015413973117411e-02 -8.4383227232701405e-02 0.0000000000000000e+00 0.0000000000000000e+00 0.0000000000000000e+00 0.0000000000000000e+00  -9.2398254151434392e-02 -1.0835557250939687e-02 0.0000000000000000e+00 -1.0835557250939687e-02 -8.4697196411425923e-02 0.0000000000000000e+00 0.0000000000000000e+00 0.0000000000000000e+00 0.0000000000000000e+00  -9.3143077691054788e-02 -1.0501483585144905e-02 0.0000000000000000e+00 -1.0501483585144905e-02 -8.4738248207140085e-02 0.0000000000000000e+00 0.0000000000000000e+00 0.0000000000000000e+00 0.0000000000000000e+00  -9.4256167220871809e-02 -1.0216404989485965e-02 0.0000000000000000e+00 -1.0216404989485965e-02 -8.4600928383374754e-02 0.0000000000000000e+00 0.0000000000000000e+00 0.0000000000000000e+00 0.0000000000000000e+00  -9.5636997861287654e-02 -1.0120197076630750e-02 0.0000000000000000e+00 -1.0120197076630750e-02 -8.4526548738145316e-02 0.0000000000000000e+00 0.0000000000000000e+00 0.0000000000000000e+00 0.0000000000000000e+00  -9.7126795993746823e-02 -1.0244663724278749e-02 0.0000000000000000e+00 -1.0244663724278749e-02 -8.4855206396394628e-02 0.0000000000000000e+00 0.0000000000000000e+00 0.0000000000000000e+00 0.0000000000000000e+00  -9.8607967423957027e-02 -1.0503061698054119e-02 0.0000000000000000e+00 -1.0503061698054119e-02 -8.5908789349504397e-02 0.0000000000000000e+00 0.0000000000000000e+00 0.0000000000000000e+00 0.0000000000000000e+00  -9.9960978954343194e-02 -1.0705672720254501e-02 0.0000000000000000e+00 -1.0705672720254503e-02 -8.8026544488135405e-02 0.0000000000000000e+00 0.0000000000000000e+00 0.0000000000000000e+00 0.0000000000000000e+00  -1.0117535846640562e-01 -1.0671447173016128e-02 0.0000000000000000e+00 -1.0671447173016128e-02 -9.1347051528232207e-02 0.0000000000000000e+00 0.0000000000000000e+00 0.0000000000000000e+00 0.0000000000000000e+00  -1.0244453820362683e-01 -9.8045116809973021e-03 0.0000000000000000e+00 -9.8045116809973021e-03 -9.6176971000548672e-02 0.0000000000000000e+00 0.0000000000000000e+00 0.0000000000000000e+00 0.0000000000000000e+00  -1.0359753384863417e-01 -9.4319773903022378e-03 0.0000000000000000e+00 -9.4319773903022396e-03 -1.0183297568542089e-01 0.0000000000000000e+00 0.0000000000000000e+00 0.0000000000000000e+00 0.0000000000000000e+00  -1.0529633090799997e-01 -2.9878282463492701e-03 0.0000000000000000e+00 -2.9878282463492701e-03 -1.1062714569253071e-01 0.0000000000000000e+00 0.0000000000000000e+00 0.0000000000000000e+00 0.0000000000000000e+00  -1.3002742391480257e-01 -1.1540882284975804e-02 0.0000000000000000e+00 -1.1540882284975804e-02 -1.0756679303637906e-01 0.0000000000000000e+00 0.0000000000000000e+00 0.0000000000000000e+00 0.0000000000000000e+00  -1.5508331093915609e-01 7.6747826705350491e-02 0.0000000000000000e+00 7.6747826705350491e-02 1.3940000239343118e-02 0.0000000000000000e+00 0.0000000000000000e+00 0.0000000000000000e+00 0.0000000000000000e+00  5.6611787540420754e-02 -1.7901621142245941e-01 0.0000000000000000e+00 -1.7901621142245941e-01 -5.4322998533356526e-01 0.0000000000000000e+00 0.0000000000000000e+00 0.0000000000000000e+00 0.0000000000000000e+00  1.4965037475902156e-03 6.2423884261676561e-02 0.0000000000000000e+00 6.2423884261676561e-02 6.2906664212060551e-02 0.0000000000000000e+00 0.0000000000000000e+00 0.0000000000000000e+00 0.0000000000000000e+00  -2.3029076888126040e-02 6.0590371720312544e-03 0.0000000000000000e+00 6.0590371720312562e-03 5.6035053996579638e-03 0.0000000000000000e+00 0.0000000000000000e+00 0.0000000000000000e+00 0.0000000000000000e+00  3.3790893063347775e-03 -1.2786449824538847e-03 0.0000000000000000e+00 -1.2786449824538850e-03 4.3743158561555589e-03 0.0000000000000000e+00 0.0000000000000000e+00 0.0000000000000000e+00 0.0000000000000000e+00  1.9593273827337864e-03 6.0503721705878295e-04 0.0000000000000000e+00 6.0503721705878295e-04 2.0576136285910497e-03 0.0000000000000000e+00 0.0000000000000000e+00 0.0000000000000000e+00 0.0000000000000000e+00  2.0180077360430699e-03 -5.3698351219703217e-04 0.0000000000000000e+00 -5.3698351219703228e-04 2.0435357262453520e-03 0.0000000000000000e+00 0.0000000000000000e+00 0.0000000000000000e+00 0.0000000000000000e+00  2.8952913618560164e-03 1.0559481865087842e-03 0.0000000000000000e+00 1.0559481865087842e-03 4.1596110086492364e-03 0.0000000000000000e+00 0.0000000000000000e+00 0.0000000000000000e+00 0.0000000000000000e+00  -2.3539230934337740e-02 -5.6146591325120032e-03 0.0000000000000000e+00 -5.6146591325120032e-03 6.7373664308638176e-03 0.0000000000000000e+00 0.0000000000000000e+00 0.0000000000000000e+00 0.0000000000000000e+00  5.8111735591132270e-05 -6.5084560190429505e-02 0.0000000000000000e+00 -6.5084560190429505e-02 6.4278320049159843e-02 0.0000000000000000e+00 0.0000000000000000e+00 0.0000000000000000e+00 0.0000000000000000e+00  6.2792094960754385e-02 1.7990003610684527e-01 0.0000000000000000e+00 1.7990003610684527e-01 -5.3921925942028925e-01 0.0000000000000000e+00 0.0000000000000000e+00 0.0000000000000000e+00 0.0000000000000000e+00  -1.6825648329540985e-01 -7.1044820245156404e-02 0.0000000000000000e+00 -7.1044820245156404e-02 4.3212121433223233e-03 0.0000000000000000e+00 0.0000000000000000e+00 0.0000000000000000e+00 0.0000000000000000e+00  -1.3797416220386802e-01 1.6042300937815696e-02 0.0000000000000000e+00 1.6042300937815696e-02 -1.0812213736983357e-01 0.0000000000000000e+00 0.0000000000000000e+00 0.0000000000000000e+00 0.0000000000000000e+00  -1.1216122357449912e-01 5.3267105916928572e-03 0.0000000000000000e+00 5.3267105916928572e-03 -1.1027233779796164e-01 0.0000000000000000e+00 0.0000000000000000e+00 0.0000000000000000e+00 0.0000000000000000e+00  -1.0887386778891153e-01 1.1152776708218163e-02 0.0000000000000000e+00 1.1152776708218163e-02 -1.0074456863315825e-01 0.0000000000000000e+00 0.0000000000000000e+00 0.0000000000000000e+00 0.0000000000000000e+00  -1.0651202539396491e-01 1.0909097331879277e-02 0.0000000000000000e+00 1.0909097331879277e-02 -9.5039995345100409e-02 0.0000000000000000e+00 0.0000000000000000e+00 0.0000000000000000e+00 0.0000000000000000e+00  -1.0426131759102833e-01 1.1346270075612020e-02 0.0000000000000000e+00 1.1346270075612020e-02 -9.0359220391333275e-02 0.0000000000000000e+00 0.0000000000000000e+00 0.0000000000000000e+00 0.0000000000000000e+00  -1.0228009644357927e-01 1.1090947141973232e-02 0.0000000000000000e+00 1.1090947141973232e-02 -8.7282497376125909e-02 0.0000000000000000e+00 0.0000000000000000e+00 0.0000000000000000e+00 0.0000000000000000e+00  -1.0033258677194629e-01 1.0706214573009012e-02 0.0000000000000000e+00 1.0706214573009012e-02 -8.5422398284686021e-02 0.0000000000000000e+00 0.0000000000000000e+00 0.0000000000000000e+00 0.0000000000000000e+00  -9.8400038425373343e-02 1.0340000316065710e-02 0.0000000000000000e+00 1.0340000316065710e-02 -8.4597596942560957e-02 0.0000000000000000e+00 0.0000000000000000e+00 0.0000000000000000e+00 0.0000000000000000e+00  -9.6574473204712047e-02 1.0153958566092709e-02 0.0000000000000000e+00 1.0153958566092709e-02 -8.4450375755911938e-02 0.0000000000000000e+00 0.0000000000000000e+00 0.0000000000000000e+00 0.0000000000000000e+00  -9.4947818321488742e-02 1.0214156346416741e-02 0.0000000000000000e+00 1.0214156346416741e-02 -8.4656200665496992e-02 0.0000000000000000e+00 0.0000000000000000e+00 0.0000000000000000e+00 0.0000000000000000e+00  -9.3657193141952227e-02 1.0475197419505367e-02 0.0000000000000000e+00 1.0475197419505367e-02 -8.4880103813220475e-02 0.0000000000000000e+00 0.0000000000000000e+00 0.0000000000000000e+00 0.0000000000000000e+00  -9.2785287832272009e-02 1.0789238443657275e-02 0.0000000000000000e+00 1.0789238443657275e-02 -8.4889190032044717e-02 0.0000000000000000e+00 0.0000000000000000e+00 0.0000000000000000e+00 0.0000000000000000e+00  -9.2334856220081113e-02 1.0949155144605306e-02 0.0000000000000000e+00 1.0949155144605306e-02 -8.4597813700186278e-02 0.0000000000000000e+00 0.0000000000000000e+00 0.0000000000000000e+00 0.0000000000000000e+00  -9.2203961417317903e-02 1.0762150536945417e-02 0.0000000000000000e+00 1.0762150536945417e-02 -8.4095092160254264e-02 0.0000000000000000e+00 0.0000000000000000e+00 0.0000000000000000e+00 0.0000000000000000e+00  -9.2209709058679715e-02 1.0130039485713822e-02 0.0000000000000000e+00 1.0130039485713822e-02 -8.3605878570500003e-02 0.0000000000000000e+00 0.0000000000000000e+00 0.0000000000000000e+00 0.0000000000000000e+00  -9.2149362191665946e-02 9.0936374804364232e-03 0.0000000000000000e+00 9.0936374804364232e-03 -8.3396582617950313e-02 0.0000000000000000e+00 0.0000000000000000e+00 0.0000000000000000e+00 0.0000000000000000e+00  -9.1868095894484719e-02 7.8216689743975561e-03 0.0000000000000000e+00 7.8216689743975561e-03 -8.3670541828544331e-02 0.0000000000000000e+00 0.0000000000000000e+00 0.0000000000000000e+00 0.0000000000000000e+00  -9.1306051628588458e-02 6.5549397080680158e-03 0.0000000000000000e+00 6.5549397080680158e-03 -8.4494118735643525e-02 0.0000000000000000e+00 0.0000000000000000e+00 0.0000000000000000e+00 0.0000000000000000e+00  -9.0512805289682127e-02 5.5297866033122284e-03 0.0000000000000000e+00 5.5297866033122284e-03 -8.5772797945794579e-02 0.0000000000000000e+00 0.0000000000000000e+00 0.0000000000000000e+00 0.0000000000000000e+00  -8.9627622573224014e-02 4.9037048377049298e-03 0.0000000000000000e+00 4.9037048377049298e-03 -8.7280556218897243e-02 0.0000000000000000e+00 0.0000000000000000e+00 0.0000000000000000e+00 0.0000000000000000e+00  -8.8828669476225613e-02 4.7062815366673188e-03 0.0000000000000000e+00 4.7062815366673188e-03 -8.8736596506738069e-02 0.0000000000000000e+00 0.0000000000000000e+00 0.0000000000000000e+00 0.0000000000000000e+00  -8.8266225533996961e-02 4.8380484566828402e-03 0.0000000000000000e+00 4.8380484566828402e-03 -8.9905585049118594e-02 0.0000000000000000e+00 0.0000000000000000e+00 0.0000000000000000e+00 0.0000000000000000e+00  -8.8009050447614687e-02 5.1225027852762860e-03 0.0000000000000000e+00 5.1225027852762860e-03 -9.0677524300353030e-02 0.0000000000000000e+00 0.0000000000000000e+00 0.0000000000000000e+00 0.0000000000000000e+00  -8.8033325701778867e-02 5.3849946719743570e-03 0.0000000000000000e+00 5.3849946719743570e-03 -9.1085332044297793e-02 0.0000000000000000e+00 0.0000000000000000e+00 0.0000000000000000e+00 0.0000000000000000e+00  -8.8253694245909037e-02 5.5139503565219839e-03 0.0000000000000000e+00 5.5139503565219839e-03 -9.1263292171900948e-02 0.0000000000000000e+00 0.0000000000000000e+00 0.0000000000000000e+00 0.0000000000000000e+00  -8.8547404350038508e-02 5.4898186862149586e-03 0.0000000000000000e+00 5.4898186862149586e-03 -9.1392715967163890e-02 0.0000000000000000e+00 0.0000000000000000e+00 0.0000000000000000e+00 0.0000000000000000e+00  -8.8866832730872994e-02 5.3769979959973962e-03 0.0000000000000000e+00 5.3769979959973962e-03 -9.1586491028851233e-02 0.0000000000000000e+00 0.0000000000000000e+00 0.0000000000000000e+00 0.0000000000000000e+00  -8.9092982851819713e-02 5.3082942639484368e-03 0.0000000000000000e+00 5.3082942639484368e-03 -9.1971598195574281e-02 0.0000000000000000e+00 0.0000000000000000e+00 0.0000000000000000e+00 0.0000000000000000e+00  -8.9405606005256599e-02 5.3896556523406322e-03 0.0000000000000000e+00 5.3896556523406313e-03 -9.2371559089603317e-02 0.0000000000000000e+00 0.0000000000000000e+00 0.0000000000000000e+00 0.0000000000000000e+00  -8.9889487353156355e-02 6.0123105711996378e-03 0.0000000000000000e+00 6.0123105711996378e-03 -9.2618620123599976e-02 0.0000000000000000e+00 0.0000000000000000e+00 0.0000000000000000e+00 0.0000000000000000e+00  -9.0712077673600802e-02 5.4045792373233715e-03 0.0000000000000000e+00 5.4045792373233715e-03 -9.2089529822915947e-02 0.0000000000000000e+00 0.0000000000000000e+00 0.0000000000000000e+00 0.0000000000000000e+00  -9.1762331386074619e-02 9.1488091577768705e-03 0.0000000000000000e+00 9.1488091577768705e-03 -9.1237151955160231e-02 0.0000000000000000e+00 0.0000000000000000e+00 0.0000000000000000e+00 0.0000000000000000e+00  -1.0204091477091667e-01 -1.1138195055511906e-02 0.0000000000000000e+00 -1.1138195055511906e-02 -7.8918480739891078e-02 0.0000000000000000e+00 0.0000000000000000e+00 0.0000000000000000e+00 0.0000000000000000e+00  -8.9519441584134357e-02 1.0900108137171964e-01 0.0000000000000000e+00 1.0900108137171964e-01 4.3259996113223669e-02 0.0000000000000000e+00 0.0000000000000000e+00 0.0000000000000000e+00 0.0000000000000000e+00  -6.1223271667819552e-02 -2.3245774447511880e-01 0.0000000000000000e+00 -2.3245774447511880e-01 -4.2294888684047599e-01 0.0000000000000000e+00 0.0000000000000000e+00 0.0000000000000000e+00 0.0000000000000000e+00  -5.7793033839598329e-02 1.1942182157184790e-01 0.0000000000000000e+00 1.1942182157184790e-01 -2.0462203007712742e-02 0.0000000000000000e+00 0.0000000000000000e+00 0.0000000000000000e+00 0.0000000000000000e+00  -1.8888548466497269e-02 -4.4029256426171212e-03 0.0000000000000000e+00 -4.4029256426171212e-03 2.0911417581894843e-02 0.0000000000000000e+00 0.0000000000000000e+00 0.0000000000000000e+00 0.0000000000000000e+00  9.7078195975066929e-03 9.5452859690290878e-04 0.0000000000000000e+00 9.5452859690290878e-04 1.0401166179309475e-02 0.0000000000000000e+00 0.0000000000000000e+00 0.0000000000000000e+00 0.0000000000000000e+00  6.8468436441449865e-03 3.8986809003224124e-04 0.0000000000000000e+00 3.8986809003224124e-04 7.2673071020237668e-03 0.0000000000000000e+00 0.0000000000000000e+00 0.0000000000000000e+00 0.0000000000000000e+00  7.6807771823025894e-03 -1.0499375551440187e-04 0.0000000000000000e+00 -1.0499375551440187e-04 7.6840231690383553e-03 0.0000000000000000e+00 0.0000000000000000e+00 0.0000000000000000e+00 0.0000000000000000e+00  7.6041397724188331e-03 1.4935757926855631e-05 0.0000000000000000e+00 1.4935757926855631e-05 7.5949619007205822e-03 0.0000000000000000e+00 0.0000000000000000e+00 0.0000000000000000e+00 0.0000000000000000e+00  7.6039293510280683e-03 9.5023300660376981e-06 0.0000000000000000e+00 9.5023300660376981e-06 7.6139242768283088e-03 0.0000000000000000e+00 0.0000000000000000e+00 0.0000000000000000e+00 0.0000000000000000e+00  7.6040804638368344e-03 2.7258353853136265e-05 0.0000000000000000e+00 2.7258353853136265e-05 7.6157988702527813e-03 0.0000000000000000e+00 0.0000000000000000e+00 0.0000000000000000e+00 0.0000000000000000e+00  7.6052542323986130e-03 4.3998362237401439e-05 0.0000000000000000e+00 4.3998362237401439e-05 7.6115747108647207e-03 0.0000000000000000e+00 0.0000000000000000e+00 0.0000000000000000e+00 0.0000000000000000e+00  7.6514379113562228e-03 -4.1847454517440226e-05 0.0000000000000000e+00 -4.1847454517440226e-05 7.6575544494817561e-03 0.0000000000000000e+00 0.0000000000000000e+00 0.0000000000000000e+00 0.0000000000000000e+00  7.6499327288892371e-03 -2.6489931409479057e-05 0.0000000000000000e+00 -2.6489931409479057e-05 7.6621089388708681e-03 0.0000000000000000e+00 0.0000000000000000e+00 0.0000000000000000e+00 0.0000000000000000e+00  7.6495284733650174e-03 -1.3714064803057464e-05 0.0000000000000000e+00 -1.3714064803057464e-05 7.6597414568169726e-03 0.0000000000000000e+00 0.0000000000000000e+00 0.0000000000000000e+00 0.0000000000000000e+00  7.6586316543019953e-03 4.6391293283592977e-06 0.0000000000000000e+00 4.6391293283592977e-06 7.6588393728050643e-03 0.0000000000000000e+00 0.0000000000000000e+00 0.0000000000000000e+00 0.0000000000000000e+00  7.6103900748585368e-03 -1.1666510881571392e-06 0.0000000000000000e+00 -1.1666510881571392e-06 7.6189338521984321e-03 0.0000000000000000e+00 0.0000000000000000e+00 0.0000000000000000e+00 0.0000000000000000e+00  7.8329849610787317e-03 -8.9123859803189102e-05 0.0000000000000000e+00 -8.9123859803189102e-05 7.7025732529273560e-03 0.0000000000000000e+00 0.0000000000000000e+00 0.0000000000000000e+00 0.0000000000000000e+00  6.9412623721902067e-03 9.4376475510645668e-04 0.0000000000000000e+00 9.4376475510645668e-04 8.1586528725695606e-03 0.0000000000000000e+00 0.0000000000000000e+00 0.0000000000000000e+00 0.0000000000000000e+00  2.8775518312567461e-03 -8.9802916489355594e-03 0.0000000000000000e+00 -8.9802916489355594e-03 6.0348275309504984e-03 0.0000000000000000e+00 0.0000000000000000e+00 0.0000000000000000e+00 0.0000000000000000e+00  4.7575637208299384e-04 1.3807229966665745e-02 0.0000000000000000e+00 1.3807229966665745e-02 4.1172997326606016e-02 0.0000000000000000e+00 0.0000000000000000e+00 0.0000000000000000e+00 0.0000000000000000e+00  -1.4154497439413780e-01 -1.1853077109566913e-01 0.0000000000000000e+00 -1.1853077109566913e-01 -1.9010588466665826e-01 0.0000000000000000e+00 0.0000000000000000e+00 0.0000000000000000e+00 0.0000000000000000e+00  -9.3462449992322602e-02 1.8963997037169059e-01 0.0000000000000000e+00 1.8963997037169059e-01 -2.0131644509259058e-01 0.0000000000000000e+00 0.0000000000000000e+00 0.0000000000000000e+00 0.0000000000000000e+00  -7.2981077153961516e-02 -1.2716908562647805e-01 0.0000000000000000e+00 -1.2716908562647805e-01 -7.7034280957906263e-03 0.0000000000000000e+00 0.0000000000000000e+00 0.0000000000000000e+00 0.0000000000000000e+00  -9.0429372935931771e-02 1.4912774747376449e-02 0.0000000000000000e+00 1.4912774747376449e-02 -8.2892182378900295e-02 0.0000000000000000e+00 0.0000000000000000e+00 0.0000000000000000e+00 0.0000000000000000e+00  -9.1304708250881828e-02 -1.1956475936433257e-02 0.0000000000000000e+00 -1.1956475936433257e-02 -9.3030584146656839e-02 0.0000000000000000e+00 0.0000000000000000e+00 0.0000000000000000e+00 0.0000000000000000e+00  -9.0127538898283829e-02 -5.9386434616338036e-03 0.0000000000000000e+00 -5.9386434616338036e-03 -9.3147823917662617e-02 0.0000000000000000e+00 0.0000000000000000e+00 0.0000000000000000e+00 0.0000000000000000e+00  -8.9952120107042483e-02 -6.1951894148689927e-03 0.0000000000000000e+00 -6.1951894148689927e-03 -9.2627433152276395e-02 0.0000000000000000e+00 0.0000000000000000e+00 0.0000000000000000e+00 0.0000000000000000e+00  -8.9958690422901499e-02 -5.9077341689148946e-03 0.0000000000000000e+00 -5.9077341689148946e-03 -9.1694891039702936e-02 0.0000000000000000e+00 0.0000000000000000e+00 0.0000000000000000e+00 0.0000000000000000e+00  -8.9485702986376647e-02 -6.0932786561026121e-03 0.0000000000000000e+00 -6.0932786561026121e-03 -9.1268069597155513e-02 0.0000000000000000e+00 0.0000000000000000e+00 0.0000000000000000e+00 0.0000000000000000e+00  -8.9147917105093899e-02 -6.2832309057444012e-03 0.0000000000000000e+00 -6.2832309057444012e-03 -9.1033801238828510e-02 0.0000000000000000e+00 0.0000000000000000e+00 0.0000000000000000e+00 0.0000000000000000e+00  -8.8653292089812055e-02 -6.2792383106551903e-03 0.0000000000000000e+00 -6.2792383106551903e-03 -9.1100418620884319e-02 0.0000000000000000e+00 0.0000000000000000e+00 0.0000000000000000e+00 0.0000000000000000e+00  -8.8290444053720982e-02 -5.9780888777595546e-03 0.0000000000000000e+00 -5.9780888777595546e-03 -9.1129285424858958e-02 0.0000000000000000e+00 0.0000000000000000e+00 0.0000000000000000e+00 0.0000000000000000e+00  -8.8185515673265519e-02 -5.4009739782763262e-03 0.0000000000000000e+00 -5.4009739782763262e-03 -9.0855862654698000e-02 0.0000000000000000e+00 0.0000000000000000e+00 0.0000000000000000e+00 0.0000000000000000e+00  -8.8490347562833055e-02 -4.7032523276984107e-03 0.0000000000000000e+00 -4.7032523276984107e-03 -9.0032750767709682e-02 0.0000000000000000e+00 0.0000000000000000e+00 0.0000000000000000e+00 0.0000000000000000e+00  -8.9271372582387445e-02 -4.1694257961818817e-03 0.0000000000000000e+00 -4.1694257961818817e-03 -8.8557085898632038e-02 0.0000000000000000e+00 0.0000000000000000e+00 0.0000000000000000e+00 0.0000000000000000e+00  -9.0432669336747692e-02 -4.1077528109104509e-03 0.0000000000000000e+00 -4.1077528109104509e-03 -8.6583628708211249e-02 0.0000000000000000e+00 0.0000000000000000e+00 0.0000000000000000e+00 0.0000000000000000e+00  -9.1735601060566926e-02 -4.7018697282945748e-03 0.0000000000000000e+00 -4.7018697282945748e-03 -8.4496257996437105e-02 0.0000000000000000e+00 0.0000000000000000e+00 0.0000000000000000e+00 0.0000000000000000e+00  -9.2893692594018404e-02 -5.9150985028752039e-03 0.0000000000000000e+00 -5.9150985028752039e-03 -8.2760748224471464e-02 0.0000000000000000e+00 0.0000000000000000e+00 0.0000000000000000e+00 0.0000000000000000e+00  -9.3686931483274408e-02 -7.5004733250878903e-03 0.0000000000000000e+00 -7.5004733250878903e-03 -8.1746187676134521e-02 0.0000000000000000e+00 0.0000000000000000e+00 0.0000000000000000e+00 0.0000000000000000e+00  -9.4036057903012768e-02 -9.0880974134657788e-03 0.0000000000000000e+00 -9.0880974134657788e-03 -8.1604464181282005e-02 0.0000000000000000e+00 0.0000000000000000e+00 0.0000000000000000e+00 0.0000000000000000e+00  -9.4027771457993917e-02 -1.0300178617959543e-02 0.0000000000000000e+00 -1.0300178617959543e-02 -8.2228836340790395e-02 0.0000000000000000e+00 0.0000000000000000e+00 0.0000000000000000e+00 0.0000000000000000e+00  -9.3897686176737119e-02 -1.0867896424588712e-02 0.0000000000000000e+00 -1.0867896424588712e-02 -8.3285756644481304e-02 0.0000000000000000e+00 0.0000000000000000e+00 0.0000000000000000e+00 0.0000000000000000e+00  -9.3965309474797171e-02 -1.0727733957014771e-02 0.0000000000000000e+00 -1.0727733957014771e-02 -8.4325607797912469e-02 0.0000000000000000e+00 0.0000000000000000e+00 0.0000000000000000e+00 0.0000000000000000e+00  -9.4523112019433156e-02 -1.0050345574840677e-02 0.0000000000000000e+00 -1.0050345574840677e-02 -8.4961899234035701e-02 0.0000000000000000e+00 0.0000000000000000e+00 0.0000000000000000e+00 0.0000000000000000e+00  -9.5729537846595991e-02 -9.1626147329350489e-03 0.0000000000000000e+00 -9.1626147329350489e-03 -8.5042139487688878e-02 0.0000000000000000e+00 0.0000000000000000e+00 0.0000000000000000e+00 0.0000000000000000e+00  -9.7571158489308280e-02 -8.3979139841378007e-03 0.0000000000000000e+00 -8.3979139841378007e-03 -8.4712488448652548e-02 0.0000000000000000e+00 0.0000000000000000e+00 0.0000000000000000e+00 0.0000000000000000e+00  -9.9913417303393273e-02 -7.9658406081027869e-03 0.0000000000000000e+00 -7.9658406081027869e-03 -8.4344960228375718e-02 0.0000000000000000e+00 0.0000000000000000e+00 0.0000000000000000e+00 0.0000000000000000e+00  -1.0263791902447315e-01 -7.9107461140472627e-03 0.0000000000000000e+00 -7.9107461140472627e-03 -8.4386620407046531e-02 0.0000000000000000e+00 0.0000000000000000e+00 0.0000000000000000e+00 0.0000000000000000e+00  -1.0550844900020233e-01 -8.0956694679753700e-03 0.0000000000000000e+00 -8.0956694679753700e-03 -8.5421064959851745e-02 0.0000000000000000e+00 0.0000000000000000e+00 0.0000000000000000e+00 0.0000000000000000e+00  -1.0868616049002336e-01 -8.2569767151071255e-03 0.0000000000000000e+00 -8.2569767151071255e-03 -8.7682569254539960e-02 0.0000000000000000e+00 0.0000000000000000e+00 0.0000000000000000e+00 0.0000000000000000e+00  -1.1226630540812169e-01 -7.6908370007495201e-03 0.0000000000000000e+00 -7.6908370007495201e-03 -9.1658141469137977e-02 0.0000000000000000e+00 0.0000000000000000e+00 0.0000000000000000e+00 0.0000000000000000e+00  -1.1605156929683881e-01 -7.6827665659004738e-03 0.0000000000000000e+00 -7.6827665659004738e-03 -9.6822702952730974e-02 0.0000000000000000e+00 0.0000000000000000e+00 0.0000000000000000e+00 0.0000000000000000e+00  -1.2273933656779724e-01 -2.3686492357306412e-04 0.0000000000000000e+00 -2.3686492357306412e-04 -1.0572690323672848e-01 0.0000000000000000e+00 0.0000000000000000e+00 0.0000000000000000e+00 0.0000000000000000e+00  -1.3064357100449842e-01 -2.1634512110562790e-02 0.0000000000000000e+00 -2.1634512110562790e-02 -1.0364076244517273e-01 0.0000000000000000e+00 0.0000000000000000e+00 0.0000000000000000e+00 0.0000000000000000e+00  -1.6183126394081795e-01 9.3392187638328072e-02 0.0000000000000000e+00 9.3392187638328072e-02 -5.8188709945076356e-02 0.0000000000000000e+00 0.0000000000000000e+00 0.0000000000000000e+00 0.0000000000000000e+00  -6.7639176419924840e-02 -1.4349021920453953e-01 0.0000000000000000e+00 -1.4349021920453953e-01 -2.5199897596352711e-01 0.0000000000000000e+00 0.0000000000000000e+00 0.0000000000000000e+00 0.0000000000000000e+00  -1.0529947637615945e-01 1.2963645784036856e-01 0.0000000000000000e+00 1.2963645784036856e-01 -1.8249503303294218e-01 0.0000000000000000e+00 0.0000000000000000e+00 0.0000000000000000e+00 0.0000000000000000e+00  -1.9100250747845774e-02 -1.5578076897426142e-02 0.0000000000000000e+00 -1.5578076897426142e-02 3.9776945663809411e-02 0.0000000000000000e+00 0.0000000000000000e+00 0.0000000000000000e+00 0.0000000000000000e+00  1.3501987672296203e-03 5.0307954984559426e-03 0.0000000000000000e+00 5.0307954984559434e-03 3.6692036559555041e-03 0.0000000000000000e+00 0.0000000000000000e+00 0.0000000000000000e+00 0.0000000000000000e+00  1.1993718913914616e-03 8.2444692306204780e-05 0.0000000000000000e+00 8.2444692306204699e-05 2.2156754604015436e-03 0.0000000000000000e+00 0.0000000000000000e+00 0.0000000000000000e+00 0.0000000000000000e+00  2.4498535305294091e-03 -6.0724688617890930e-05 0.0000000000000000e+00 -6.0724688617890910e-05 2.3738866825689328e-03 0.0000000000000000e+00 0.0000000000000000e+00 0.0000000000000000e+00 0.0000000000000000e+00  2.4330304898926161e-03 3.6109721651726050e-05 0.0000000000000000e+00 3.6109721651726044e-05 2.3915854915340573e-03 0.0000000000000000e+00 0.0000000000000000e+00 0.0000000000000000e+00 0.0000000000000000e+00  1.1985360373344307e-03 -3.9615499845074855e-05 0.0000000000000000e+00 -3.9615499845074855e-05 2.2148404181321093e-03 0.0000000000000000e+00 0.0000000000000000e+00 0.0000000000000000e+00 0.0000000000000000e+00  7.0755051843641385e-04 -5.3930959755807894e-03 0.0000000000000000e+00 -5.3930959755807894e-03 3.4351273800288509e-03 0.0000000000000000e+00 0.0000000000000000e+00 0.0000000000000000e+00 0.0000000000000000e+00  -1.9254619518568963e-02 1.5868535283882861e-02 0.0000000000000000e+00 1.5868535283882861e-02 4.2589973441264230e-02 0.0000000000000000e+00 0.0000000000000000e+00 0.0000000000000000e+00 0.0000000000000000e+00  -1.1068587946671540e-01 -1.2533968826019201e-01 0.0000000000000000e+00 -1.2533968826019201e-01 -1.9995578851447882e-01 0.0000000000000000e+00 0.0000000000000000e+00 0.0000000000000000e+00 0.0000000000000000e+00  -7.2204791743339922e-02 1.3494426697963821e-01 0.0000000000000000e+00 1.3494426697963821e-01 -2.3257946938413371e-01 0.0000000000000000e+00 0.0000000000000000e+00 0.0000000000000000e+00 0.0000000000000000e+00  -1.6755950797720343e-01 -8.9883336519590351e-02 0.0000000000000000e+00 -8.9883336519590351e-02 -6.3155439416787237e-02 0.0000000000000000e+00 0.0000000000000000e+00 0.0000000000000000e+00 0.0000000000000000e+00  -1.3492311132053367e-01 2.2570240290385374e-02 0.0000000000000000e+00 2.2570240290385374e-02 -1.0261265186646290e-01 0.0000000000000000e+00 0.0000000000000000e+00 0.0000000000000000e+00 0.0000000000000000e+00  -1.2660161489910687e-01 7.3073920976224685e-04 0.0000000000000000e+00 7.3073920976224685e-04 -1.0411527493633854e-01 0.0000000000000000e+00 0.0000000000000000e+00 0.0000000000000000e+00 0.0000000000000000e+00  -1.1891780044104566e-01 7.8043237506302066e-03 0.0000000000000000e+00 7.8043237506302066e-03 -9.5307084759915103e-02 0.0000000000000000e+00 0.0000000000000000e+00 0.0000000000000000e+00 0.0000000000000000e+00  -1.1440936826731811e-01 7.5883462614778551e-03 0.0000000000000000e+00 7.5883462614778551e-03 -9.0414414337081861e-02 0.0000000000000000e+00 0.0000000000000000e+00 0.0000000000000000e+00 0.0000000000000000e+00  -1.1023373870015168e-01 8.0359928123515268e-03 0.0000000000000000e+00 8.0359928123515268e-03 -8.6796044845621381e-02 0.0000000000000000e+00 0.0000000000000000e+00 0.0000000000000000e+00 0.0000000000000000e+00  -1.0660214090294051e-01 7.8403405949476774e-03 0.0000000000000000e+00 7.8403405949476774e-03 -8.4868243989300485e-02 0.0000000000000000e+00 0.0000000000000000e+00 0.0000000000000000e+00 0.0000000000000000e+00  -1.0339949441230104e-01 7.6671222679398432e-03 0.0000000000000000e+00 7.6671222679398432e-03 -8.4106145521969308e-02 0.0000000000000000e+00 0.0000000000000000e+00 0.0000000000000000e+00 0.0000000000000000e+00  -1.0043702359666702e-01 7.7544909327162308e-03 0.0000000000000000e+00 7.7544909327162308e-03 -8.4267289159845563e-02 0.0000000000000000e+00 0.0000000000000000e+00 0.0000000000000000e+00 0.0000000000000000e+00  -9.7929556448896768e-02 8.2215381530388182e-03 0.0000000000000000e+00 8.2215381530388182e-03 -8.4772688137296839e-02 0.0000000000000000e+00 0.0000000000000000e+00 0.0000000000000000e+00 0.0000000000000000e+00  -9.5975577251230335e-02 9.0140639372188070e-03 0.0000000000000000e+00 9.0140639372188070e-03 -8.5186901275804763e-02 0.0000000000000000e+00 0.0000000000000000e+00 0.0000000000000000e+00 0.0000000000000000e+00  -9.4693531710247594e-02 9.9186667275561122e-03 0.0000000000000000e+00 9.9186667275561122e-03 -8.5151359226719736e-02 0.0000000000000000e+00 0.0000000000000000e+00 0.0000000000000000e+00 0.0000000000000000e+00  -9.4085113173782431e-02 1.0601893341494186e-02 0.0000000000000000e+00 1.0601893341494186e-02 -8.4531640576711711e-02 0.0000000000000000e+00 0.0000000000000000e+00 0.0000000000000000e+00 0.0000000000000000e+00  -9.3983549872417374e-02 1.0738659209303439e-02 0.0000000000000000e+00 1.0738659209303439e-02 -8.3489632679708367e-02 0.0000000000000000e+00 0.0000000000000000e+00 0.0000000000000000e+00 0.0000000000000000e+00  -9.4090812925950035e-02 1.0160701389949636e-02 0.0000000000000000e+00 1.0160701389949636e-02 -8.2418760575935848e-02 0.0000000000000000e+00 0.0000000000000000e+00 0.0000000000000000e+00 0.0000000000000000e+00  -9.4083778306390101e-02 8.9337872106346767e-03 0.0000000000000000e+00 8.9337872106346767e-03 -8.1773579508284816e-02 0.0000000000000000e+00 0.0000000000000000e+00 0.0000000000000000e+00 0.0000000000000000e+00  -9.3724456945985579e-02 7.3284974718803089e-03 0.0000000000000000e+00 7.3284974718803089e-03 -8.1891149756634307e-02 0.0000000000000000e+00 0.0000000000000000e+00 0.0000000000000000e+00 0.0000000000000000e+00  -9.2924378706087912e-02 5.7238657850047355e-03 0.0000000000000000e+00 5.7238657850047355e-03 -8.2880922424015624e-02 0.0000000000000000e+00 0.0000000000000000e+00 0.0000000000000000e+00 0.0000000000000000e+00  -9.1761191608986048e-02 4.4908470402414457e-03 0.0000000000000000e+00 4.4908470402414457e-03 -8.4593360007090918e-02 0.0000000000000000e+00 0.0000000000000000e+00 0.0000000000000000e+00 0.0000000000000000e+00  -9.0453447620695945e-02 3.8777479625648065e-03 0.0000000000000000e+00 3.8777479625648065e-03 -8.6661271610683932e-02 0.0000000000000000e+00 0.0000000000000000e+00 0.0000000000000000e+00 0.0000000000000000e+00  -8.9286706688100251e-02 3.9229557893066301e-03 0.0000000000000000e+00 3.9229557893066301e-03 -8.8619749194682851e-02 0.0000000000000000e+00 0.0000000000000000e+00 0.0000000000000000e+00 0.0000000000000000e+00  -8.8499519657527351e-02 4.4443716510877912e-03 0.0000000000000000e+00 4.4443716510877912e-03 -9.0084386991191201e-02 0.0000000000000000e+00 0.0000000000000000e+00 0.0000000000000000e+00 0.0000000000000000e+00  -8.8188237524834082e-02 5.1344530166725060e-03 0.0000000000000000e+00 5.1344530166725060e-03 -9.0898989500927008e-02 0.0000000000000000e+00 0.0000000000000000e+00 0.0000000000000000e+00 0.0000000000000000e+00  -8.8286757326127757e-02 5.7085782207126623e-03 0.0000000000000000e+00 5.7085782207126623e-03 -9.1165007909859846e-02 0.0000000000000000e+00 0.0000000000000000e+00 0.0000000000000000e+00 0.0000000000000000e+00  -8.8642681945117610e-02 6.0111073609233623e-03 0.0000000000000000e+00 6.0111073609233623e-03 -9.1129214056667615e-02 0.0000000000000000e+00 0.0000000000000000e+00 0.0000000000000000e+00 0.0000000000000000e+00  -8.9129618642210764e-02 6.0210503604872677e-03 0.0000000000000000e+00 6.0210503604872677e-03 -9.1054997422890180e-02 0.0000000000000000e+00 0.0000000000000000e+00 0.0000000000000000e+00 0.0000000000000000e+00  -8.9458992135511589e-02 5.8426188177421101e-03 0.0000000000000000e+00 5.8426188177421101e-03 -9.1280108678839136e-02 0.0000000000000000e+00 0.0000000000000000e+00 0.0000000000000000e+00 0.0000000000000000e+00  -8.9919767731152359e-02 5.6748301479750260e-03 0.0000000000000000e+00 5.6748301479750251e-03 -9.1694588659324922e-02 0.0000000000000000e+00 0.0000000000000000e+00 0.0000000000000000e+00 0.0000000000000000e+00  -8.9913152443357500e-02 5.9918816530202691e-03 0.0000000000000000e+00 5.9918816530202673e-03 -9.2602311468414494e-02 0.0000000000000000e+00 0.0000000000000000e+00 0.0000000000000000e+00 0.0000000000000000e+00  -9.0077646322775748e-02 5.7541016839757269e-03 0.0000000000000000e+00 5.7541016839757269e-03 -9.3077120140522454e-02 0.0000000000000000e+00 0.0000000000000000e+00 0.0000000000000000e+00 0.0000000000000000e+00  -9.1290713017819672e-02 1.1832017694409176e-02 0.0000000000000000e+00 1.1832017694409176e-02 -9.2922949715325262e-02 0.0000000000000000e+00 0.0000000000000000e+00 0.0000000000000000e+00 0.0000000000000000e+00  -9.0385587427348521e-02 -1.5098389704353643e-02 0.0000000000000000e+00 -1.5098389704353643e-02 -8.2680327663613065e-02 0.0000000000000000e+00 0.0000000000000000e+00 0.0000000000000000e+00 0.0000000000000000e+00  -7.3419002404722516e-02 1.2670208086927590e-01 0.0000000000000000e+00 1.2670208086927590e-01 -7.9820906259628031e-03 0.0000000000000000e+00 0.0000000000000000e+00 0.0000000000000000e+00 0.0000000000000000e+00  -9.2602159485230956e-02 -1.8858357837236525e-01 0.0000000000000000e+00 -1.8858357837236525e-01 -1.9887563954170592e-01 0.0000000000000000e+00 0.0000000000000000e+00 0.0000000000000000e+00 0.0000000000000000e+00  -1.4212561053249503e-01 1.1782427712102994e-01 0.0000000000000000e+00 1.1782427712102994e-01 -1.9179789819410065e-01 0.0000000000000000e+00 0.0000000000000000e+00 0.0000000000000000e+00 0.0000000000000000e+00  6.5503080016587932e-04 -1.3811295313777392e-02 0.0000000000000000e+00 -1.3811295313777392e-02 4.1414281286104568e-02 0.0000000000000000e+00 0.0000000000000000e+00 0.0000000000000000e+00 0.0000000000000000e+00  2.9096229961346723e-03 9.0242259876668288e-03 0.0000000000000000e+00 9.0242259876668288e-03 6.0814749779256458e-03 0.0000000000000000e+00 0.0000000000000000e+00 0.0000000000000000e+00 0.0000000000000000e+00  6.8855648806928826e-03 -9.3913210782173751e-04 0.0000000000000000e+00 -9.3913210782173751e-04 8.1273106173879520e-03 0.0000000000000000e+00 0.0000000000000000e+00 0.0000000000000000e+00 0.0000000000000000e+00  7.7710846592096081e-03 8.8488156182544623e-05 0.0000000000000000e+00 8.8488156182544623e-05 7.6425255463602191e-03 0.0000000000000000e+00 0.0000000000000000e+00 0.0000000000000000e+00 0.0000000000000000e+00  7.5441583228835710e-03 1.6311079017694434e-06 0.0000000000000000e+00 1.6311079017694434e-06 7.5586763727693721e-03 0.0000000000000000e+00 0.0000000000000000e+00 0.0000000000000000e+00 0.0000000000000000e+00  7.5955589260538357e-03 -3.7638667322127151e-06 0.0000000000000000e+00 -3.7638667322127151e-06 7.5988924910444190e-03 0.0000000000000000e+00 0.0000000000000000e+00 0.0000000000000000e+00 0.0000000000000000e+00  7.5866019855693112e-03 1.4090751764456737e-05 0.0000000000000000e+00 1.4090751764456737e-05 7.5986690234885893e-03 0.0000000000000000e+00 0.0000000000000000e+00 0.0000000000000000e+00 0.0000000000000000e+00  7.5871523580823630e-03 2.6397074650763732e-05 0.0000000000000000e+00 2.6397074650763732e-05 7.6005657971098409e-03 0.0000000000000000e+00 0.0000000000000000e+00 0.0000000000000000e+00 0.0000000000000000e+00  7.5888195209072255e-03 4.1386584859459528e-05 0.0000000000000000e+00 4.1386584859459528e-05 7.5953485136504529e-03 0.0000000000000000e+00 0.0000000000000000e+00 0.0000000000000000e+00 0.0000000000000000e+00  7.6368363825814215e-03 -3.9240694038562390e-05 0.0000000000000000e+00 -3.9240694038562390e-05 7.6430493650751930e-03 0.0000000000000000e+00 0.0000000000000000e+00 0.0000000000000000e+00 0.0000000000000000e+00  7.6350337457733002e-03 -2.6035626857573540e-05 0.0000000000000000e+00 -2.6035626857573540e-05 7.6481731204747503e-03 0.0000000000000000e+00 0.0000000000000000e+00 0.0000000000000000e+00 0.0000000000000000e+00  7.6356950767253956e-03 -1.3507809360978042e-05 0.0000000000000000e+00 -1.3507809360978042e-05 7.6484073854347486e-03 0.0000000000000000e+00 0.0000000000000000e+00 0.0000000000000000e+00 0.0000000000000000e+00  7.6340130010390736e-03 -2.5626887266490809e-06 0.0000000000000000e+00 -2.5626887266490809e-06 7.6416689810924442e-03 0.0000000000000000e+00 0.0000000000000000e+00 0.0000000000000000e+00 0.0000000000000000e+00  7.6503956116368132e-03 -6.1956980629282107e-06 0.0000000000000000e+00 -6.1956980629282107e-06 7.6335648300636305e-03 0.0000000000000000e+00 0.0000000000000000e+00 0.0000000000000000e+00 0.0000000000000000e+00  7.6257863249252610e-03 1.0264717430897685e-04 0.0000000000000000e+00 1.0264717430897685e-04 7.6590520499421012e-03 0.0000000000000000e+00 0.0000000000000000e+00 0.0000000000000000e+00 0.0000000000000000e+00  7.4230073868742632e-03 -5.8936497436387918e-04 0.0000000000000000e+00 -5.8936497436387918e-04 7.3397592763103188e-03 0.0000000000000000e+00 0.0000000000000000e+00 0.0000000000000000e+00 0.0000000000000000e+00  8.9285042311073402e-03 2.1126470161042859e-03 0.0000000000000000e+00 2.1126470161042859e-03 9.7797189843488817e-03 0.0000000000000000e+00 0.0000000000000000e+00 0.0000000000000000e+00 0.0000000000000000e+00  -7.1754311818152871e-03 -1.2349111503106950e-02 0.0000000000000000e+00 -1.2349111503106950e-02 6.9950585496599883e-04 0.0000000000000000e+00 0.0000000000000000e+00 0.0000000000000000e+00 0.0000000000000000e+00  1.1976706525129326e-02 -5.5792394446374472e-03 0.0000000000000000e+00 -5.5792394446374472e-03 3.7715216192254639e-02 0.0000000000000000e+00 0.0000000000000000e+00 0.0000000000000000e+00 0.0000000000000000e+00  -2.1112014905728987e-01 -4.4092559683623328e-02 0.0000000000000000e+00 -4.4092559683623328e-02 -2.7829991334636284e-01 0.0000000000000000e+00 0.0000000000000000e+00 0.0000000000000000e+00 0.0000000000000000e+00  -7.4324453655343611e-02 1.3709326645977560e-01 0.0000000000000000e+00 1.3709326645977560e-01 -8.8239764792154632e-02 0.0000000000000000e+00 0.0000000000000000e+00 0.0000000000000000e+00 0.0000000000000000e+00  -4.5252944842954945e-02 -1.2963729664029400e-01 0.0000000000000000e+00 -1.2963729664029400e-01 -4.3320084319033607e-02 0.0000000000000000e+00 0.0000000000000000e+00 0.0000000000000000e+00 0.0000000000000000e+00  -8.2244760892357202e-02 1.4672607769569024e-02 0.0000000000000000e+00 1.4672607769569024e-02 -9.1087077647008241e-02 0.0000000000000000e+00 0.0000000000000000e+00 0.0000000000000000e+00 0.0000000000000000e+00  -9.0062067179161667e-02 -1.0233718921138169e-02 0.0000000000000000e+00 -1.0233718921138169e-02 -9.3936491897611968e-02 0.0000000000000000e+00 0.0000000000000000e+00 0.0000000000000000e+00 0.0000000000000000e+00  -9.0778116351656460e-02 -5.8736505681508018e-03 0.0000000000000000e+00 -5.8736505681508018e-03 -9.2813152127597512e-02 0.0000000000000000e+00 0.0000000000000000e+00 0.0000000000000000e+00 0.0000000000000000e+00  -9.0024561871015429e-02 -6.2193071554466775e-03 0.0000000000000000e+00 -6.2193071554466775e-03 -9.1630398592452617e-02 0.0000000000000000e+00 0.0000000000000000e+00 0.0000000000000000e+00 0.0000000000000000e+00  -9.0420065241461289e-02 -6.7021782601432624e-03 0.0000000000000000e+00 -6.7021782601432624e-03 -9.0594188177837487e-02 0.0000000000000000e+00 0.0000000000000000e+00 0.0000000000000000e+00 0.0000000000000000e+00  -8.9490818651543846e-02 -6.9751689346533663e-03 0.0000000000000000e+00 -6.9751689346533663e-03 -9.0749069897544138e-02 0.0000000000000000e+00 0.0000000000000000e+00 0.0000000000000000e+00 0.0000000000000000e+00  -8.8898696741326597e-02 -6.9474507629009004e-03 0.0000000000000000e+00 -6.9474507629009004e-03 -9.1079349521791406e-02 0.0000000000000000e+00 0.0000000000000000e+00 0.0000000000000000e+00 0.0000000000000000e+00  -8.8342376203351211e-02 -6.4551599684666726e-03 0.0000000000000000e+00 -6.4551599684666726e-03 -9.1477602589426263e-02 0.0000000000000000e+00 0.0000000000000000e+00 0.0000000000000000e+00 0.0000000000000000e+00  -8.8072461529215482e-02 -5.4640193563784793e-03 0.0000000000000000e+00 -5.4640193563784793e-03 -9.1536319699547619e-02 0.0000000000000000e+00 0.0000000000000000e+00 0.0000000000000000e+00 0.0000000000000000e+00  -8.8393598913159580e-02 -4.1712363201668514e-03 0.0000000000000000e+00 -4.1712363201668514e-03 -9.0749361382516047e-02 0.0000000000000000e+00 0.0000000000000000e+00 0.0000000000000000e+00 0.0000000000000000e+00  -8.9439101860669779e-02 -3.0326375515783775e-03 0.0000000000000000e+00 -3.0326375515783775e-03 -8.8882424193659784e-02 0.0000000000000000e+00 0.0000000000000000e+00 0.0000000000000000e+00 0.0000000000000000e+00  -9.1088028777313132e-02 -2.5934370766419051e-03 0.0000000000000000e+00 -2.5934370766419051e-03 -8.6144429565497477e-02 0.0000000000000000e+00 0.0000000000000000e+00 0.0000000000000000e+00 0.0000000000000000e+00  -9.2951710986676164e-02 -3.1830603254423603e-03 0.0000000000000000e+00 -3.1830603254423603e-03 -8.3183928123346976e-02 0.0000000000000000e+00 0.0000000000000000e+00 0.0000000000000000e+00 0.0000000000000000e+00  -9.4574075307239436e-02 -4.7385822157709331e-03 0.0000000000000000e+00 -4.7385822157709331e-03 -8.0779384077420482e-02 0.0000000000000000e+00 0.0000000000000000e+00 0.0000000000000000e+00 0.0000000000000000e+00  -9.5628412063527277e-02 -6.8620552502978126e-03 0.0000000000000000e+00 -6.8620552502978126e-03 -7.9514667372156747e-02 0.0000000000000000e+00 0.0000000000000000e+00 0.0000000000000000e+00 0.0000000000000000e+00  -9.6002318833475583e-02 -8.9857793670489669e-03 0.0000000000000000e+00 -8.9857793670489669e-03 -7.9617884609313266e-02 0.0000000000000000e+00 0.0000000000000000e+00 0.0000000000000000e+00 0.0000000000000000e+00  -9.5811795213489467e-02 -1.0530813973331606e-02 0.0000000000000000e+00 -1.0530813973331606e-02 -8.0925231575544571e-02 0.0000000000000000e+00 0.0000000000000000e+00 0.0000000000000000e+00 0.0000000000000000e+00  -9.5394197508132286e-02 -1.1062268478831438e-02 0.0000000000000000e+00 -1.1062268478831438e-02 -8.2907225181243757e-02 0.0000000000000000e+00 0.0000000000000000e+00 0.0000000000000000e+00 0.0000000000000000e+00  -9.5243405818224089e-02 -1.0459444670668975e-02 0.0000000000000000e+00 -1.0459444670668975e-02 -8.4804301450862041e-02 0.0000000000000000e+00 0.0000000000000000e+00 0.0000000000000000e+00 0.0000000000000000e+00  -9.5831968787708555e-02 -9.0076168863642055e-03 0.0000000000000000e+00 -9.0076168863642055e-03 -8.5933205501893775e-02 0.0000000000000000e+00 0.0000000000000000e+00 0.0000000000000000e+00 0.0000000000000000e+00  -9.7393450728744502e-02 -7.2678217748780114e-03 0.0000000000000000e+00 -7.2678217748780114e-03 -8.6034736792285890e-02 0.0000000000000000e+00 0.0000000000000000e+00 0.0000000000000000e+00 0.0000000000000000e+00  -9.9882783439876902e-02 -5.7727183422700938e-03 0.0000000000000000e+00 -5.7727183422700938e-03 -8.5361004468874915e-02 0.0000000000000000e+00 0.0000000000000000e+00 0.0000000000000000e+00 0.0000000000000000e+00  -1.0307642822235087e-01 -4.8102911123675133e-03 0.0000000000000000e+00 -4.8102911123675133e-03 -8.4526875454575434e-02 0.0000000000000000e+00 0.0000000000000000e+00 0.0000000000000000e+00 0.0000000000000000e+00  -1.0667419967584819e-01 -4.3828209929365263e-03 0.0000000000000000e+00 -4.3828209929365263e-03 -8.4261989886527444e-02 0.0000000000000000e+00 0.0000000000000000e+00 0.0000000000000000e+00 0.0000000000000000e+00  -1.1098238031177823e-01 -4.3004322779881992e-03 0.0000000000000000e+00 -4.3004322779881992e-03 -8.4950662186680653e-02 0.0000000000000000e+00 0.0000000000000000e+00 0.0000000000000000e+00 0.0000000000000000e+00  -1.1498163016190381e-01 -4.0232102450271636e-03 0.0000000000000000e+00 -4.0232102450271636e-03 -8.7905403497317181e-02 0.0000000000000000e+00 0.0000000000000000e+00 0.0000000000000000e+00 0.0000000000000000e+00  -1.1956769736710153e-01 -3.8738267592918446e-03 0.0000000000000000e+00 -3.8738267592918446e-03 -9.2626199876413046e-02 0.0000000000000000e+00 0.0000000000000000e+00 0.0000000000000000e+00 0.0000000000000000e+00  -1.2717519465023941e-01 3.6024275096553041e-03 0.0000000000000000e+00 3.6024275096553041e-03 -9.9930767708328511e-02 0.0000000000000000e+00 0.0000000000000000e+00 0.0000000000000000e+00 0.0000000000000000e+00  -1.2709939575258333e-01 -1.8088165493521990e-02 0.0000000000000000e+00 -1.8088165493521990e-02 -1.0286517955245622e-01 0.0000000000000000e+00 0.0000000000000000e+00 0.0000000000000000e+00 0.0000000000000000e+00  -1.3487639151703268e-01 9.1197867741264732e-02 0.0000000000000000e+00 9.1197867741264732e-02 -9.0795680778590779e-02 0.0000000000000000e+00 0.0000000000000000e+00 0.0000000000000000e+00 0.0000000000000000e+00  -7.7979808832654596e-02 -5.1878049569499526e-02 0.0000000000000000e+00 -5.1878049569499526e-02 -6.2242939094687103e-02 0.0000000000000000e+00 0.0000000000000000e+00 0.0000000000000000e+00 0.0000000000000000e+00  -2.0801279537929845e-01 1.8090516452215438e-03 0.0000000000000000e+00 1.8090516452215438e-03 -3.9239821361716526e-01 0.0000000000000000e+00 0.0000000000000000e+00 0.0000000000000000e+00 0.0000000000000000e+00  -2.8120438175658537e-03 1.0963375230966294e-02 0.0000000000000000e+00 1.0963375230966294e-02 4.6167761594181747e-02 0.0000000000000000e+00 0.0000000000000000e+00 0.0000000000000000e+00 0.0000000000000000e+00  -1.3148219798739404e-02 1.1610022099238719e-02 0.0000000000000000e+00 1.1610022099238719e-02 -1.2720658232024599e-03 0.0000000000000000e+00 0.0000000000000000e+00 0.0000000000000000e+00 0.0000000000000000e+00  2.5971750591605490e-03 -1.5910371097800208e-03 0.0000000000000000e+00 -1.5910371097800212e-03 4.2009286193069413e-03 0.0000000000000000e+00 0.0000000000000000e+00 0.0000000000000000e+00 0.0000000000000000e+00  2.4299475773597711e-03 4.0030217575552927e-04 0.0000000000000000e+00 4.0030217575552944e-04 2.3771631348844845e-03 0.0000000000000000e+00 0.0000000000000000e+00 0.0000000000000000e+00 0.0000000000000000e+00  2.3489753641719405e-03 -3.6117083755101379e-07 0.0000000000000000e+00 -3.6117083755100363e-07 2.3211545312781419e-03 0.0000000000000000e+00 0.0000000000000000e+00 0.0000000000000000e+00 0.0000000000000000e+00  2.3522155678609227e-03 -9.0191350115819106e-06 0.0000000000000000e+00 -9.0191350115819089e-06 2.3297936021089032e-03 0.0000000000000000e+00 0.0000000000000000e+00 0.0000000000000000e+00 0.0000000000000000e+00  2.4307247865857011e-03 -4.2327792334295082e-04 0.0000000000000000e+00 -4.2327792334295082e-04 2.3906497568346834e-03 0.0000000000000000e+00 0.0000000000000000e+00 0.0000000000000000e+00 0.0000000000000000e+00  2.5518076912638492e-03 1.5994127726244151e-03 0.0000000000000000e+00 1.5994127726244151e-03 4.1844498151703590e-03 0.0000000000000000e+00 0.0000000000000000e+00 0.0000000000000000e+00 0.0000000000000000e+00  -1.4297808964843438e-02 -1.1535108349361547e-02 0.0000000000000000e+00 -1.1535108349361547e-02 -1.3361121393840735e-03 0.0000000000000000e+00 0.0000000000000000e+00 0.0000000000000000e+00 0.0000000000000000e+00  -4.3959186248432036e-03 -1.5453967932620804e-02 0.0000000000000000e+00 -1.5453967932620804e-02 4.5056438017066942e-02 0.0000000000000000e+00 0.0000000000000000e+00 0.0000000000000000e+00 0.0000000000000000e+00  -2.1568123150116511e-01 1.0811034369950158e-02 0.0000000000000000e+00 1.0811034369950158e-02 -4.0242233098316627e-01 0.0000000000000000e+00 0.0000000000000000e+00 0.0000000000000000e+00 0.0000000000000000e+00  -7.6429338763185389e-02 4.5195677164406138e-02 0.0000000000000000e+00 4.5195677164406138e-02 -5.3708941455810212e-02 0.0000000000000000e+00 0.0000000000000000e+00 0.0000000000000000e+00 0.0000000000000000e+00  -1.3572595582527439e-01 -8.8946085361294322e-02 0.0000000000000000e+00 -8.8946085361294322e-02 -9.1614073589047010e-02 0.0000000000000000e+00 0.0000000000000000e+00 0.0000000000000000e+00 0.0000000000000000e+00  -1.2840235308975267e-01 1.7675833231627441e-02 0.0000000000000000e+00 1.7675833231627441e-02 -1.0110291178938723e-01 0.0000000000000000e+00 0.0000000000000000e+00 0.0000000000000000e+00 0.0000000000000000e+00  -1.2838395825894966e-01 -4.0725148115417342e-03 0.0000000000000000e+00 -4.0725148115417342e-03 -9.8119153509286142e-02 0.0000000000000000e+00 0.0000000000000000e+00 0.0000000000000000e+00 0.0000000000000000e+00  -1.2038831801981280e-01 3.2456976960202476e-03 0.0000000000000000e+00 3.2456976960202476e-03 -9.1291530732985918e-02 0.0000000000000000e+00 0.0000000000000000e+00 0.0000000000000000e+00 0.0000000000000000e+00  -1.1549144367770819e-01 3.4093749658972274e-03 0.0000000000000000e+00 3.4093749658972274e-03 -8.7013450863282063e-02 0.0000000000000000e+00 0.0000000000000000e+00 0.0000000000000000e+00 0.0000000000000000e+00  -1.1127550237550030e-01 3.7510864130679768e-03 0.0000000000000000e+00 3.7510864130679768e-03 -8.4442855873992029e-02 0.0000000000000000e+00 0.0000000000000000e+00 0.0000000000000000e+00 0.0000000000000000e+00  -1.0680629644794683e-01 3.9340681563267933e-03 0.0000000000000000e+00 3.9340681563267933e-03 -8.4050221229275926e-02 0.0000000000000000e+00 0.0000000000000000e+00 0.0000000000000000e+00 0.0000000000000000e+00  -1.0310867078798096e-01 4.4612790105030909e-03 0.0000000000000000e+00 4.4612790105030909e-03 -8.4517777394156557e-02 0.0000000000000000e+00 0.0000000000000000e+00 0.0000000000000000e+00 0.0000000000000000e+00  -9.9858216341401421e-02 5.5072253337852791e-03 0.0000000000000000e+00 5.5072253337852791e-03 -8.5476136029329158e-02 0.0000000000000000e+00 0.0000000000000000e+00 0.0000000000000000e+00 0.0000000000000000e+00  -9.7339042798476036e-02 7.0631570573104407e-03 0.0000000000000000e+00 7.0631570573104407e-03 -8.6217422367914368e-02 0.0000000000000000e+00 0.0000000000000000e+00 0.0000000000000000e+00 0.0000000000000000e+00  -9.5764751568845147e-02 8.8411815598409618e-03 0.0000000000000000e+00 8.8411815598409618e-03 -8.6143788893081941e-02 0.0000000000000000e+00 0.0000000000000000e+00 0.0000000000000000e+00 0.0000000000000000e+00  -9.5172369516786565e-02 1.0312223655427595e-02 0.0000000000000000e+00 1.0312223655427595e-02 -8.5017604151587614e-02 0.0000000000000000e+00 0.0000000000000000e+00 0.0000000000000000e+00 0.0000000000000000e+00  -9.5323835452100686e-02 1.0920007579390064e-02 0.0000000000000000e+00 1.0920007579390064e-02 -8.3108083460196575e-02 0.0000000000000000e+00 0.0000000000000000e+00 0.0000000000000000e+00 0.0000000000000000e+00  -9.5744270236969284e-02 1.0383664360968669e-02 0.0000000000000000e+00 1.0383664360968669e-02 -8.1105116818171688e-02 0.0000000000000000e+00 0.0000000000000000e+00 0.0000000000000000e+00 0.0000000000000000e+00  -9.5938809069455427e-02 8.8274687981237821e-03 0.0000000000000000e+00 8.8274687981237821e-03 -7.9772531978784700e-02 0.0000000000000000e+00 0.0000000000000000e+00 0.0000000000000000e+00 0.0000000000000000e+00  -9.5569933771728816e-02 6.6887361519765197e-03 0.0000000000000000e+00 6.6887361519765197e-03 -7.9642398035500328e-02 0.0000000000000000e+00 0.0000000000000000e+00 0.0000000000000000e+00 0.0000000000000000e+00  -9.4521512621752166e-02 4.5475911262228856e-03 0.0000000000000000e+00 4.5475911262228856e-03 -8.0880502337634760e-02 0.0000000000000000e+00 0.0000000000000000e+00 0.0000000000000000e+00 0.0000000000000000e+00  -9.2905073455901307e-02 2.9723948878866194e-03 0.0000000000000000e+00 2.9723948878866194e-03 -8.3261168431740237e-02 0.0000000000000000e+00 0.0000000000000000e+00 0.0000000000000000e+00 0.0000000000000000e+00  -9.1045779806163782e-02 2.3625122470731898e-03 0.0000000000000000e+00 2.3625122470731898e-03 -8.6203265799420947e-02 0.0000000000000000e+00 0.0000000000000000e+00 0.0000000000000000e+00 0.0000000000000000e+00  -8.9398644623710360e-02 2.7835577055430297e-03 0.0000000000000000e+00 2.7835577055430297e-03 -8.8929746247300337e-02 0.0000000000000000e+00 0.0000000000000000e+00 0.0000000000000000e+00 0.0000000000000000e+00  -8.8352877647826525e-02 3.9088135031541222e-03 0.0000000000000000e+00 3.9088135031541222e-03 -9.0790711473510727e-02 0.0000000000000000e+00 0.0000000000000000e+00 0.0000000000000000e+00 0.0000000000000000e+00  -8.8030899917341338e-02 5.1939232184376478e-03 0.0000000000000000e+00 5.1939232184376478e-03 -9.1574220849929000e-02 0.0000000000000000e+00 0.0000000000000000e+00 0.0000000000000000e+00 0.0000000000000000e+00  -8.8300052171704863e-02 6.1821154510748877e-03 0.0000000000000000e+00 6.1821154510748877e-03 -9.1512378485014131e-02 0.0000000000000000e+00 0.0000000000000000e+00 0.0000000000000000e+00 0.0000000000000000e+00  -8.8856088137444070e-02 6.6750092247272125e-03 0.0000000000000000e+00 6.6750092247272125e-03 -9.1110259983341615e-02 0.0000000000000000e+00 0.0000000000000000e+00 0.0000000000000000e+00 0.0000000000000000e+00  -8.9444549768841267e-02 6.7067980681896778e-03 0.0000000000000000e+00 6.7067980681896778e-03 -9.0778010076337984e-02 0.0000000000000000e+00 0.0000000000000000e+00 0.0000000000000000e+00 0.0000000000000000e+00  -9.0367617657015870e-02 6.4416450671257851e-03 0.0000000000000000e+00 6.4416450671257851e-03 -9.0619899391336370e-02 0.0000000000000000e+00 0.0000000000000000e+00 0.0000000000000000e+00 0.0000000000000000e+00  -8.9970917542128021e-02 5.9800617347694632e-03 0.0000000000000000e+00 5.9800617347694632e-03 -9.1650194862889264e-02 0.0000000000000000e+00 0.0000000000000000e+00 0.0000000000000000e+00 0.0000000000000000e+00  -9.0688117388084397e-02 5.6445665524313118e-03 0.0000000000000000e+00 5.6445665524313118e-03 -9.2820733311782019e-02 0.0000000000000000e+00 0.0000000000000000e+00 0.0000000000000000e+00 0.0000000000000000e+00  -9.0016304989502749e-02 1.0105817967000523e-02 0.0000000000000000e+00 1.0105817967000523e-02 -9.3920865490672453e-02 0.0000000000000000e+00 0.0000000000000000e+00 0.0000000000000000e+00 0.0000000000000000e+00  -8.2171642242919535e-02 -1.4866461809400013e-02 0.0000000000000000e+00 -1.4866461809400013e-02 -9.0922679133405335e-02 0.0000000000000000e+00 0.0000000000000000e+00 0.0000000000000000e+00 0.0000000000000000e+00  -4.5698176954847042e-02 1.2905789106631471e-01 0.0000000000000000e+00 1.2905789106631471e-01 -4.3539692141800666e-02 0.0000000000000000e+00 0.0000000000000000e+00 0.0000000000000000e+00 0.0000000000000000e+00  -7.2891672103560332e-02 -1.3567193452593945e-01 0.0000000000000000e+00 -1.3567193452593945e-01 -8.6222154474654408e-02 0.0000000000000000e+00 0.0000000000000000e+00 0.0000000000000000e+00 0.0000000000000000e+00  -2.1197964991691021e-01 4.2466150768034880e-02 0.0000000000000000e+00 4.2466150768034880e-02 -2.7989292606330612e-01 0.0000000000000000e+00 0.0000000000000000e+00 0.0000000000000000e+00 0.0000000000000000e+00  1.1847827536598330e-02 5.8601529477702819e-03 0.0000000000000000e+00 5.8601529477702819e-03 3.7615836667153589e-02 0.0000000000000000e+00 0.0000000000000000e+00 0.0000000000000000e+00 0.0000000000000000e+00  -7.1508413495005377e-03 1.2321056727857337e-02 0.0000000000000000e+00 1.2321056727857337e-02 7.6220337199064524e-04 0.0000000000000000e+00 0.0000000000000000e+00 0.0000000000000000e+00 0.0000000000000000e+00  8.9507910549727013e-03 -2.1072546099749749e-03 0.0000000000000000e+00 -2.1072546099749749e-03 9.8030421267440958e-03 0.0000000000000000e+00 0.0000000000000000e+00 0.0000000000000000e+00 0.0000000000000000e+00  7.3427183331945586e-03 5.9167155209330184e-04 0.0000000000000000e+00 5.9167155209330184e-04 7.2602806146733869e-03 0.0000000000000000e+00 0.0000000000000000e+00 0.0000000000000000e+00 0.0000000000000000e+00  7.5659575664679558e-03 -1.0785732378480038e-04 0.0000000000000000e+00 -1.0785732378480038e-04 7.6014685780214112e-03 0.0000000000000000e+00 0.0000000000000000e+00 0.0000000000000000e+00 0.0000000000000000e+00  7.5870832918533823e-03 6.3133826192108021e-06 0.0000000000000000e+00 6.3133826192108021e-06 7.5731222845974540e-03 0.0000000000000000e+00 0.0000000000000000e+00 0.0000000000000000e+00 0.0000000000000000e+00  7.5706270752160746e-03 2.7353293786642610e-06 0.0000000000000000e+00 2.7353293786642610e-06 7.5815852661657839e-03 0.0000000000000000e+00 0.0000000000000000e+00 0.0000000000000000e+00 0.0000000000000000e+00  7.5728305685573826e-03 1.3582490071929367e-05 0.0000000000000000e+00 1.3582490071929367e-05 7.5878429975184116e-03 0.0000000000000000e+00 0.0000000000000000e+00 0.0000000000000000e+00 0.0000000000000000e+00  7.5724383213377879e-03 2.5730596761121536e-05 0.0000000000000000e+00 2.5730596761121536e-05 7.5870115568217955e-03 0.0000000000000000e+00 0.0000000000000000e+00 0.0000000000000000e+00 0.0000000000000000e+00  7.5744736141237197e-03 3.8550558069867853e-05 0.0000000000000000e+00 3.8550558069867853e-05 7.5812047550859081e-03 0.0000000000000000e+00 0.0000000000000000e+00 0.0000000000000000e+00 0.0000000000000000e+00  7.6239973828887593e-03 -3.6565457009348069e-05 0.0000000000000000e+00 -3.6565457009348069e-05 7.6303447256437507e-03 0.0000000000000000e+00 0.0000000000000000e+00 0.0000000000000000e+00 0.0000000000000000e+00  7.6221293866734572e-03 -2.5041385474936242e-05 0.0000000000000000e+00 -2.5041385474936242e-05 7.6362618013205560e-03 0.0000000000000000e+00 0.0000000000000000e+00 0.0000000000000000e+00 0.0000000000000000e+00  7.6216979314639504e-03 -1.4350173053707355e-05 0.0000000000000000e+00 -1.4350173053707355e-05 7.6372692835195910e-03 0.0000000000000000e+00 0.0000000000000000e+00 0.0000000000000000e+00 0.0000000000000000e+00  7.6237006334106804e-03 -6.5041862371557527e-06 0.0000000000000000e+00 -6.5041862371557527e-06 7.6335043603461992e-03 0.0000000000000000e+00 0.0000000000000000e+00 0.0000000000000000e+00 0.0000000000000000e+00  7.6262177527990100e-03 1.0501384258594031e-05 0.0000000000000000e+00 1.0501384258594031e-05 7.6299237447711877e-03 0.0000000000000000e+00 0.0000000000000000e+00 0.0000000000000000e+00 0.0000000000000000e+00  7.6091193843833430e-03 -3.7105231767533521e-05 0.0000000000000000e+00 -3.7105231767533521e-05 7.5876296773812295e-03 0.0000000000000000e+00 0.0000000000000000e+00 0.0000000000000000e+00 0.0000000000000000e+00  7.7670560152277449e-03 1.9523640169913400e-04 0.0000000000000000e+00 1.9523640169913400e-04 7.7608831230081146e-03 0.0000000000000000e+00 0.0000000000000000e+00 0.0000000000000000e+00 0.0000000000000000e+00  6.7802366957365225e-03 -7.5763804483986266e-04 0.0000000000000000e+00 -7.5763804483986266e-04 6.9397546199287631e-03 0.0000000000000000e+00 0.0000000000000000e+00 0.0000000000000000e+00 0.0000000000000000e+00  1.0340919414706950e-02 1.3599096597548001e-03 0.0000000000000000e+00 1.3599096597548001e-03 1.0450449580926587e-02 0.0000000000000000e+00 0.0000000000000000e+00 0.0000000000000000e+00 0.0000000000000000e+00  -9.4164766631689815e-03 -1.0067687523572542e-02 0.0000000000000000e+00 -1.0067687523572542e-02 -2.6796398463523490e-03 0.0000000000000000e+00 0.0000000000000000e+00 0.0000000000000000e+00 0.0000000000000000e+00  1.1117289997509694e-02 -2.6393013006434946e-02 0.0000000000000000e+00 -2.6393013006434946e-02 2.0399586926252912e-02 0.0000000000000000e+00 0.0000000000000000e+00 0.0000000000000000e+00 0.0000000000000000e+00  -2.6904038605881764e-01 -7.0040559667209068e-03 0.0000000000000000e+00 -7.0040559667209068e-03 -2.7309655921889137e-01 0.0000000000000000e+00 0.0000000000000000e+00 0.0000000000000000e+00 0.0000000000000000e+00  -8.3260068801387158e-02 1.3422934031560266e-01 0.0000000000000000e+00 1.3422934031560266e-01 -7.3627012226080854e-02 0.0000000000000000e+00 0.0000000000000000e+00 0.0000000000000000e+00 0.0000000000000000e+00  -1.0936650640034415e-02 -1.2817643324096212e-01 0.0000000000000000e+00 -1.2817643324096212e-01 -7.1957912174185720e-02 0.0000000000000000e+00 0.0000000000000000e+00 0.0000000000000000e+00 0.0000000000000000e+00  -7.8523725990094551e-02 1.1061048950033080e-02 0.0000000000000000e+00 1.1061048950033080e-02 -1.0252777022559020e-01 0.0000000000000000e+00 0.0000000000000000e+00 0.0000000000000000e+00 0.0000000000000000e+00  -8.7906217554195740e-02 -5.6452816309582781e-03 0.0000000000000000e+00 -5.6452816309582781e-03 -9.2398476633479110e-02 0.0000000000000000e+00 0.0000000000000000e+00 0.0000000000000000e+00 0.0000000000000000e+00  -9.2877200841032487e-02 -7.6656485845819676e-03 0.0000000000000000e+00 -7.6656485845819676e-03 -9.0552852159050401e-02 0.0000000000000000e+00 0.0000000000000000e+00 0.0000000000000000e+00 0.0000000000000000e+00  -8.9557718999894634e-02 -7.1793063082083268e-03 0.0000000000000000e+00 -7.1793063082083268e-03 -9.0610812450391945e-02 0.0000000000000000e+00 0.0000000000000000e+00 0.0000000000000000e+00 0.0000000000000000e+00  -8.9812364562413566e-02 -7.8565087346463957e-03 0.0000000000000000e+00 -7.8565087346463957e-03 -9.0385833202540691e-02 0.0000000000000000e+00 0.0000000000000000e+00 0.0000000000000000e+00 0.0000000000000000e+00  -8.9035079047743187e-02 -7.8129433427589715e-03 0.0000000000000000e+00 -7.8129433427589715e-03 -9.1054465165814877e-02 0.0000000000000000e+00 0.0000000000000000e+00 0.0000000000000000e+00 0.0000000000000000e+00  -8.8074852041394536e-02 -7.1516391968937864e-03 0.0000000000000000e+00 -7.1516391968937864e-03 -9.2221044372442579e-02 0.0000000000000000e+00 0.0000000000000000e+00 0.0000000000000000e+00 0.0000000000000000e+00  -8.7617946485977080e-02 -5.6644015048597594e-03 0.0000000000000000e+00 -5.6644015048597594e-03 -9.2839080661125908e-02 0.0000000000000000e+00 0.0000000000000000e+00 0.0000000000000000e+00 0.0000000000000000e+00  -8.7848126233238677e-02 -3.5189264688882836e-03 0.0000000000000000e+00 -3.5189264688882836e-03 -9.2280630770665714e-02 0.0000000000000000e+00 0.0000000000000000e+00 0.0000000000000000e+00 0.0000000000000000e+00  -8.9187937000042558e-02 -1.4306414405925649e-03 0.0000000000000000e+00 -1.4306414405925649e-03 -8.9900123706317628e-02 0.0000000000000000e+00 0.0000000000000000e+00 0.0000000000000000e+00 0.0000000000000000e+00  -9.1495677444318801e-02 -4.1311438716404628e-04 0.0000000000000000e+00 -4.1311438716404628e-04 -8.5953297137551538e-02 0.0000000000000000e+00 0.0000000000000000e+00 0.0000000000000000e+00 0.0000000000000000e+00  -9.4089589455873909e-02 -1.0453407829371121e-03 0.0000000000000000e+00 -1.0453407829371121e-03 -8.1617449364719943e-02 0.0000000000000000e+00 0.0000000000000000e+00 0.0000000000000000e+00 0.0000000000000000e+00  -9.6253735858164394e-02 -3.1592963918141851e-03 0.0000000000000000e+00 -3.1592963918141851e-03 -7.8206572357642556e-02 0.0000000000000000e+00 0.0000000000000000e+00 0.0000000000000000e+00 0.0000000000000000e+00  -9.7564248484454483e-02 -6.0949845187150851e-03 0.0000000000000000e+00 -6.0949845187150851e-03 -7.6581724638628723e-02 0.0000000000000000e+00 0.0000000000000000e+00 0.0000000000000000e+00 0.0000000000000000e+00  -9.7898375248819280e-02 -9.0301333628043014e-03 0.0000000000000000e+00 -9.0301333628043014e-03 -7.7043432875749246e-02 0.0000000000000000e+00 0.0000000000000000e+00 0.0000000000000000e+00 0.0000000000000000e+00  -9.7378523905753564e-02 -1.1134932346351264e-02 0.0000000000000000e+00 -1.1134932346351264e-02 -7.9376702131182850e-02 0.0000000000000000e+00 0.0000000000000000e+00 0.0000000000000000e+00 0.0000000000000000e+00  -9.6416692498603906e-02 -1.1703729421355844e-02 0.0000000000000000e+00 -1.1703729421355844e-02 -8.2817062290611504e-02 0.0000000000000000e+00 0.0000000000000000e+00 0.0000000000000000e+00 0.0000000000000000e+00  -9.5742153292107515e-02 -1.0457714514612868e-02 0.0000000000000000e+00 -1.0457714514612868e-02 -8.6103115705580560e-02 0.0000000000000000e+00 0.0000000000000000e+00 0.0000000000000000e+00 0.0000000000000000e+00  -9.6144548054473242e-02 -7.8555084567629770e-03 0.0000000000000000e+00 -7.8555084567629770e-03 -8.7975193391370471e-02 0.0000000000000000e+00 0.0000000000000000e+00 0.0000000000000000e+00 0.0000000000000000e+00  -9.7963382075685362e-02 -4.9126671174772379e-03 0.0000000000000000e+00 -4.9126671174772379e-03 -8.8000971606376321e-02 0.0000000000000000e+00 0.0000000000000000e+00 0.0000000000000000e+00 0.0000000000000000e+00  -1.0091141105659235e-01 -2.4873291367354449e-03 0.0000000000000000e+00 -2.4873291367354449e-03 -8.6797181618342670e-02 0.0000000000000000e+00 0.0000000000000000e+00 0.0000000000000000e+00 0.0000000000000000e+00  -1.0477063587263423e-01 -8.8731494900517506e-04 0.0000000000000000e+00 -8.8731494900517506e-04 -8.5196436485250923e-02 0.0000000000000000e+00 0.0000000000000000e+00 0.0000000000000000e+00 0.0000000000000000e+00  -1.0920655586670529e-01 -1.2877053808837337e-05 0.0000000000000000e+00 -1.2877053808837337e-05 -8.4339633057133309e-02 0.0000000000000000e+00 0.0000000000000000e+00 0.0000000000000000e+00 0.0000000000000000e+00  -1.1282029936651901e-01 2.9788054180711208e-04 0.0000000000000000e+00 2.9788054180711208e-04 -8.5630165335643868e-02 0.0000000000000000e+00 0.0000000000000000e+00 0.0000000000000000e+00 0.0000000000000000e+00  -1.1944780749861732e-01 8.9026922994163448e-04 0.0000000000000000e+00 8.9026922994163448e-04 -8.8169606506747600e-02 0.0000000000000000e+00 0.0000000000000000e+00 0.0000000000000000e+00 0.0000000000000000e+00  -1.2317164882969861e-01 5.0043039346242277e-03 0.0000000000000000e+00 5.0043039346242277e-03 -9.4699559027795477e-02 0.0000000000000000e+00 0.0000000000000000e+00 0.0000000000000000e+00 0.0000000000000000e+00  -1.1777518367473347e-01 -1.4560219149892766e-02 0.0000000000000000e+00 -1.4560219149892766e-02 -1.0590343983367938e-01 0.0000000000000000e+00 0.0000000000000000e+00 0.0000000000000000e+00 0.0000000000000000e+00  -9.6305371330530493e-02 9.7776436506202713e-02 0.0000000000000000e+00 9.7776436506202713e-02 -1.1062014934871744e-01 0.0000000000000000e+00 0.0000000000000000e+00 0.0000000000000000e+00 0.0000000000000000e+00  -4.6878803089133780e-02 -2.4010042184004609e-02 0.0000000000000000e+00 -2.4010042184004609e-02 -3.4679164896797059e-02 0.0000000000000000e+00 0.0000000000000000e+00 0.0000000000000000e+00 0.0000000000000000e+00  -3.3142036651518897e-01 -9.4494824545894474e-02 0.0000000000000000e+00 -9.4494824545894474e-02 -3.8967211772971549e-01 0.0000000000000000e+00 0.0000000000000000e+00 0.0000000000000000e+00 0.0000000000000000e+00  -2.3787880628166929e-02 6.4813007105801720e-02 0.0000000000000000e+00 6.4813007105801720e-02 2.0979730379683541e-03 0.0000000000000000e+00 0.0000000000000000e+00 0.0000000000000000e+00 0.0000000000000000e+00  -1.9035504270209832e-02 6.0951493112207785e-03 0.0000000000000000e+00 6.0951493112207785e-03 -2.0800330068567853e-03 0.0000000000000000e+00 0.0000000000000000e+00 0.0000000000000000e+00 0.0000000000000000e+00  4.6801983611989475e-03 -4.4096832729547151e-04 0.0000000000000000e+00 -4.4096832729547151e-04 5.2854750804588466e-03 0.0000000000000000e+00 0.0000000000000000e+00 0.0000000000000000e+00 0.0000000000000000e+00  1.7190759918682358e-03 6.6859166711514682e-04 0.0000000000000000e+00 6.6859166711514682e-04 2.0823963606198576e-03 0.0000000000000000e+00 0.0000000000000000e+00 0.0000000000000000e+00 0.0000000000000000e+00  2.4926379863798726e-03 -8.7335376541505593e-05 0.0000000000000000e+00 -8.7335376541505593e-05 2.5205175084779619e-03 0.0000000000000000e+00 0.0000000000000000e+00 0.0000000000000000e+00 0.0000000000000000e+00  2.4313457344429593e-03 4.5155028445275158e-05 0.0000000000000000e+00 4.5155028445275151e-05 2.3571682561620046e-03 0.0000000000000000e+00 0.0000000000000000e+00 0.0000000000000000e+00 0.0000000000000000e+00  2.4320407671720636e-03 -4.5380737985392559e-05 0.0000000000000000e+00 -4.5380737985392559e-05 2.3620519795275181e-03 0.0000000000000000e+00 0.0000000000000000e+00 0.0000000000000000e+00 0.0000000000000000e+00  2.4960876516717957e-03 7.2091112170800058e-05 0.0000000000000000e+00 7.2091112170800058e-05 2.5344917707603221e-03 0.0000000000000000e+00 0.0000000000000000e+00 0.0000000000000000e+00 0.0000000000000000e+00  1.6929566905243352e-03 -6.3794994132282011e-04 0.0000000000000000e+00 -6.3794994132282011e-04 2.0825413477008532e-03 0.0000000000000000e+00 0.0000000000000000e+00 0.0000000000000000e+00 0.0000000000000000e+00  4.5276720210227113e-03 1.8014776009271912e-04 0.0000000000000000e+00 1.8014776009271912e-04 5.0973848391506040e-03 0.0000000000000000e+00 0.0000000000000000e+00 0.0000000000000000e+00 0.0000000000000000e+00  -1.8968403542537631e-02 -5.3942405848152290e-03 0.0000000000000000e+00 -5.3942405848152290e-03 -1.8223669615970021e-03 0.0000000000000000e+00 0.0000000000000000e+00 0.0000000000000000e+00 0.0000000000000000e+00  -2.6768907535435267e-02 -6.9404941782241963e-02 0.0000000000000000e+00 -6.9404941782241963e-02 -1.9942702777881152e-03 0.0000000000000000e+00 0.0000000000000000e+00 0.0000000000000000e+00 0.0000000000000000e+00  -3.3966110046268916e-01 1.0237360831114972e-01 0.0000000000000000e+00 1.0237360831114972e-01 -3.8649759462523209e-01 0.0000000000000000e+00 0.0000000000000000e+00 0.0000000000000000e+00 0.0000000000000000e+00  -4.2933861875899822e-02 2.0874940599574260e-02 0.0000000000000000e+00 2.0874940599574260e-02 -3.1339315395577702e-02 0.0000000000000000e+00 0.0000000000000000e+00 0.0000000000000000e+00 0.0000000000000000e+00  -9.4300872410650660e-02 -9.7339186352031828e-02 0.0000000000000000e+00 -9.7339186352031828e-02 -1.0972202637535700e-01 0.0000000000000000e+00 0.0000000000000000e+00 0.0000000000000000e+00 0.0000000000000000e+00  -1.1693373318175952e-01 1.3747883025513252e-02 0.0000000000000000e+00 1.3747883025513252e-02 -1.0417126356941363e-01 0.0000000000000000e+00 0.0000000000000000e+00 0.0000000000000000e+00 0.0000000000000000e+00  -1.2245794504914732e-01 -5.7012866725968539e-03 0.0000000000000000e+00 -5.7012866725968539e-03 -9.3298958446701205e-02 0.0000000000000000e+00 0.0000000000000000e+00 0.0000000000000000e+00 0.0000000000000000e+00  -1.1888354824465697e-01 -1.6545642221823616e-03 0.0000000000000000e+00 -1.6545642221823616e-03 -8.7335072473116601e-02 0.0000000000000000e+00 0.0000000000000000e+00 0.0000000000000000e+00 0.0000000000000000e+00  -1.1224862173284292e-01 -9.1718210270056160e-04 0.0000000000000000e+00 -9.1718210270056160e-04 -8.5239947947729891e-02 0.0000000000000000e+00 0.0000000000000000e+00 0.0000000000000000e+00 0.0000000000000000e+00  -1.0868376676455697e-01 -4.7330334912457241e-04 0.0000000000000000e+00 -4.7330334912457241e-04 -8.4255021906742236e-02 0.0000000000000000e+00 0.0000000000000000e+00 0.0000000000000000e+00 0.0000000000000000e+00  -1.0430946646808729e-01 5.3081829151279195e-04 0.0000000000000000e+00 5.3081829151279195e-04 -8.5292422536234494e-02 0.0000000000000000e+00 0.0000000000000000e+00 0.0000000000000000e+00 0.0000000000000000e+00  -1.0050622354424918e-01 2.2317028769811022e-03 0.0000000000000000e+00 2.2317028769811022e-03 -8.6993977119105545e-02 0.0000000000000000e+00 0.0000000000000000e+00 0.0000000000000000e+00 0.0000000000000000e+00  -9.7615916002836187e-02 4.7261896285384032e-03 0.0000000000000000e+00 4.7261896285384032e-03 -8.8237115641067676e-02 0.0000000000000000e+00 0.0000000000000000e+00 0.0000000000000000e+00 0.0000000000000000e+00  -9.5847603148609878e-02 7.7089356124439897e-03 0.0000000000000000e+00 7.7089356124439897e-03 -8.8214944086709157e-02 0.0000000000000000e+00 0.0000000000000000e+00 0.0000000000000000e+00 0.0000000000000000e+00  -9.5486534497034148e-02 1.0328835929013932e-02 0.0000000000000000e+00 1.0328835929013932e-02 -8.6327724976482847e-02 0.0000000000000000e+00 0.0000000000000000e+00 0.0000000000000000e+00 0.0000000000000000e+00  -9.6194126757387408e-02 1.1577362413877164e-02 0.0000000000000000e+00 1.1577362413877164e-02 -8.3016837490909504e-02 0.0000000000000000e+00 0.0000000000000000e+00 0.0000000000000000e+00 0.0000000000000000e+00  -9.7182060363208339e-02 1.1001314939952949e-02 0.0000000000000000e+00 1.1001314939952949e-02 -7.9547621803600796e-02 0.0000000000000000e+00 0.0000000000000000e+00 0.0000000000000000e+00 0.0000000000000000e+00  -9.7722875365141931e-02 8.8839246737120198e-03 0.0000000000000000e+00 8.8839246737120198e-03 -7.7184731128688414e-02 0.0000000000000000e+00 0.0000000000000000e+00 0.0000000000000000e+00 0.0000000000000000e+00  -9.7407151955314006e-02 5.9336655123732344e-03 0.0000000000000000e+00 5.9336655123732344e-03 -7.6693445039073327e-02 0.0000000000000000e+00 0.0000000000000000e+00 0.0000000000000000e+00 0.0000000000000000e+00  -9.6114693378779523e-02 2.9806025732203893e-03 0.0000000000000000e+00 2.9806025732203893e-03 -7.8288987334094826e-02 0.0000000000000000e+00 0.0000000000000000e+00 0.0000000000000000e+00 0.0000000000000000e+00  -9.3968201971068505e-02 8.4581333265382728e-04 0.0000000000000000e+00 8.4581333265382728e-04 -8.1673292359382837e-02 0.0000000000000000e+00 0.0000000000000000e+00 0.0000000000000000e+00 0.0000000000000000e+00  -9.1388948512545545e-02 1.8986316343518910e-04 0.0000000000000000e+00 1.8986316343518910e-04 -8.5990334569112106e-02 0.0000000000000000e+00 0.0000000000000000e+00 0.0000000000000000e+00 0.0000000000000000e+00  -8.9090404514605454e-02 1.1852193736520426e-03 0.0000000000000000e+00 1.1852193736520426e-03 -8.9929738870105025e-02 0.0000000000000000e+00 0.0000000000000000e+00 0.0000000000000000e+00 0.0000000000000000e+00  -8.7755617403203270e-02 3.2584874389526702e-03 0.0000000000000000e+00 3.2584874389526702e-03 -9.2311355985020646e-02 0.0000000000000000e+00 0.0000000000000000e+00 0.0000000000000000e+00 0.0000000000000000e+00  -8.7530902272526245e-02 5.3970992245232644e-03 0.0000000000000000e+00 5.3970992245232644e-03 -9.2871921114717454e-02 0.0000000000000000e+00 0.0000000000000000e+00 0.0000000000000000e+00 0.0000000000000000e+00  -8.7994812780743364e-02 6.8820469227090803e-03 0.0000000000000000e+00 6.8820469227090803e-03 -9.2254502667343918e-02 0.0000000000000000e+00 0.0000000000000000e+00 0.0000000000000000e+00 0.0000000000000000e+00  -8.8960367743466467e-02 7.5433332710459810e-03 0.0000000000000000e+00 7.5433332710459810e-03 -9.1088557781868376e-02 0.0000000000000000e+00 0.0000000000000000e+00 0.0000000000000000e+00 0.0000000000000000e+00  -8.9751345076139133e-02 7.5884144036931942e-03 0.0000000000000000e+00 7.5884144036931942e-03 -9.0414897741558933e-02 0.0000000000000000e+00 0.0000000000000000e+00 0.0000000000000000e+00 0.0000000000000000e+00  -8.9493336939074020e-02 6.9172635507465906e-03 0.0000000000000000e+00 6.9172635507465906e-03 -9.0646576225853870e-02 0.0000000000000000e+00 0.0000000000000000e+00 0.0000000000000000e+00 0.0000000000000000e+00  -9.2789671067885396e-02 7.3859656914423994e-03 0.0000000000000000e+00 7.3859656914423994e-03 -9.0595001751223994e-02 0.0000000000000000e+00 0.0000000000000000e+00 0.0000000000000000e+00 0.0000000000000000e+00  -8.7891049003528135e-02 5.5029418411334900e-03 0.0000000000000000e+00 5.5029418411334900e-03 -9.2445192798990161e-02 0.0000000000000000e+00 0.0000000000000000e+00 0.0000000000000000e+00 0.0000000000000000e+00  -7.8428356825460940e-02 -1.1433544444009829e-02 0.0000000000000000e+00 -1.1433544444009829e-02 -1.0238860158098015e-01 0.0000000000000000e+00 0.0000000000000000e+00 0.0000000000000000e+00 0.0000000000000000e+00  -1.1527120900013194e-02 1.2773789317136972e-01 0.0000000000000000e+00 1.2773789317136972e-01 -7.2207589361820770e-02 0.0000000000000000e+00 0.0000000000000000e+00 0.0000000000000000e+00 0.0000000000000000e+00  -8.1164381340990924e-02 -1.3267472902528832e-01 0.0000000000000000e+00 -1.3267472902528832e-01 -7.2022819491459153e-02 0.0000000000000000e+00 0.0000000000000000e+00 0.0000000000000000e+00 0.0000000000000000e+00  -2.7045988649353919e-01 5.0709734493649067e-03 0.0000000000000000e+00 5.0709734493649067e-03 -2.7449561738153244e-01 0.0000000000000000e+00 0.0000000000000000e+00 0.0000000000000000e+00 0.0000000000000000e+00  1.0863046010895619e-02 2.6943438216318335e-02 0.0000000000000000e+00 2.6943438216318335e-02 2.0251970947375263e-02 0.0000000000000000e+00 0.0000000000000000e+00 0.0000000000000000e+00 0.0000000000000000e+00  -9.4124342763954438e-03 9.9280059661013137e-03 0.0000000000000000e+00 9.9280059661013137e-03 -2.5915899396097850e-03 0.0000000000000000e+00 0.0000000000000000e+00 0.0000000000000000e+00 0.0000000000000000e+00  1.0367616823670656e-02 -1.3189514710176987e-03 0.0000000000000000e+00 -1.3189514710176987e-03 1.0471585924645477e-02 0.0000000000000000e+00 0.0000000000000000e+00 0.0000000000000000e+00 0.0000000000000000e+00  6.7038798655081906e-03 7.5992187289122988e-04 0.0000000000000000e+00 7.5992187289122988e-04 6.8782854365128914e-03 0.0000000000000000e+00 0.0000000000000000e+00 0.0000000000000000e+00 0.0000000000000000e+00  7.7155382905935042e-03 -1.9706187815890340e-04 0.0000000000000000e+00 -1.9706187815890340e-04 7.7064330469431902e-03 0.0000000000000000e+00 0.0000000000000000e+00 0.0000000000000000e+00 0.0000000000000000e+00  7.5463640052228394e-03 3.9899317951571889e-05 0.0000000000000000e+00 3.9899317951571889e-05 7.5257738377940593e-03 0.0000000000000000e+00 0.0000000000000000e+00 0.0000000000000000e+00 0.0000000000000000e+00  7.5639539177386420e-03 -1.0450459557383804e-05 0.0000000000000000e+00 -1.0450459557383804e-05 7.5702346167324597e-03 0.0000000000000000e+00 0.0000000000000000e+00 0.0000000000000000e+00 0.0000000000000000e+00  7.5610487986094528e-03 6.5451514366083256e-06 0.0000000000000000e+00 6.5451514366083256e-06 7.5734085661376960e-03 0.0000000000000000e+00 0.0000000000000000e+00 0.0000000000000000e+00 0.0000000000000000e+00  7.5591862393457722e-03 1.4108712355774867e-05 0.0000000000000000e+00 1.4108712355774867e-05 7.5769941222963832e-03 0.0000000000000000e+00 0.0000000000000000e+00 0.0000000000000000e+00 0.0000000000000000e+00  7.5598782318333120e-03 2.4481989047033924e-05 0.0000000000000000e+00 2.4481989047033924e-05 7.5754812679379550e-03 0.0000000000000000e+00 0.0000000000000000e+00 0.0000000000000000e+00 0.0000000000000000e+00  7.5619817741838331e-03 3.5615302719266426e-05 0.0000000000000000e+00 3.5615302719266426e-05 7.5688898394962881e-03 0.0000000000000000e+00 0.0000000000000000e+00 0.0000000000000000e+00 0.0000000000000000e+00  7.6126657908175887e-03 -3.3727991615679303e-05 0.0000000000000000e+00 -3.3727991615679303e-05 7.6192988957451586e-03 0.0000000000000000e+00 0.0000000000000000e+00 0.0000000000000000e+00 0.0000000000000000e+00  7.6105079525451346e-03 -2.3821949660163727e-05 0.0000000000000000e+00 -2.3821949660163727e-05 7.6259654969383726e-03 0.0000000000000000e+00 0.0000000000000000e+00 0.0000000000000000e+00 0.0000000000000000e+00  7.6099899077759232e-03 -1.5039252873656076e-05 0.0000000000000000e+00 -1.5039252873656076e-05 7.6281133551425332e-03 0.0000000000000000e+00 0.0000000000000000e+00 0.0000000000000000e+00 0.0000000000000000e+00  7.6111903695903335e-03 -6.4863524835907758e-06 0.0000000000000000e+00 -6.4863524835907758e-06 7.6263985849570727e-03 0.0000000000000000e+00 0.0000000000000000e+00 0.0000000000000000e+00 0.0000000000000000e+00  7.6115977676801169e-03 -4.6564217082248199e-06 0.0000000000000000e+00 -4.6564217082248199e-06 7.6175118884449734e-03 0.0000000000000000e+00 0.0000000000000000e+00 0.0000000000000000e+00 0.0000000000000000e+00  7.6293048677150361e-03 1.8645753325787586e-05 0.0000000000000000e+00 1.8645753325787586e-05 7.6236090691744213e-03 0.0000000000000000e+00 0.0000000000000000e+00 0.0000000000000000e+00 0.0000000000000000e+00  7.5571359139127992e-03 -4.8987871252891789e-05 0.0000000000000000e+00 -4.8987871252891789e-05 7.5395626586051302e-03 0.0000000000000000e+00 0.0000000000000000e+00 0.0000000000000000e+00 0.0000000000000000e+00  7.8882457077611001e-03 1.5614269900230052e-04 0.0000000000000000e+00 1.5614269900230052e-04 7.8215652546453299e-03 0.0000000000000000e+00 0.0000000000000000e+00 0.0000000000000000e+00 0.0000000000000000e+00  6.5746252764462606e-03 -5.1564751854091837e-04 0.0000000000000000e+00 -5.1564751854091837e-04 6.7662007024322738e-03 0.0000000000000000e+00 0.0000000000000000e+00 0.0000000000000000e+00 0.0000000000000000e+00  1.0310469102398512e-02 1.3383647516516806e-04 0.0000000000000000e+00 1.3383647516516806e-04 1.0208994141934520e-02 0.0000000000000000e+00 0.0000000000000000e+00 0.0000000000000000e+00 0.0000000000000000e+00  -6.2989164340432570e-03 -8.4183775077000186e-03 0.0000000000000000e+00 -8.4183775077000186e-03 -6.0749764974755635e-03 0.0000000000000000e+00 0.0000000000000000e+00 0.0000000000000000e+00 0.0000000000000000e+00  1.8968219103047548e-02 -2.7457662546456506e-02 0.0000000000000000e+00 -2.7457662546456506e-02 1.1008853111033643e-02 0.0000000000000000e+00 0.0000000000000000e+00 0.0000000000000000e+00 0.0000000000000000e+00  -2.8104906692118770e-01 -3.8151525847431179e-02 0.0000000000000000e+00 -3.8151525847431179e-02 -2.1788651296967024e-01 0.0000000000000000e+00 0.0000000000000000e+00 0.0000000000000000e+00 0.0000000000000000e+00  -1.8491462507450068e-01 1.8282161391135160e-01 0.0000000000000000e+00 1.8282161391135160e-01 -9.3640947462413998e-02 0.0000000000000000e+00 0.0000000000000000e+00 0.0000000000000000e+00 0.0000000000000000e+00  3.8047136038844756e-02 -1.1300823555491678e-01 0.0000000000000000e+00 -1.1300823555491678e-01 -8.9734505867986133e-02 0.0000000000000000e+00 0.0000000000000000e+00 0.0000000000000000e+00 0.0000000000000000e+00  -7.6346175012043938e-02 -1.1700296584217031e-02 0.0000000000000000e+00 -1.1700296584217031e-02 -1.2262874206130099e-01 0.0000000000000000e+00 0.0000000000000000e+00 0.0000000000000000e+00 0.0000000000000000e+00  -7.9919708003271014e-02 -1.0593958326884784e-03 0.0000000000000000e+00 -1.0593958326884784e-03 -9.4773208874447595e-02 0.0000000000000000e+00 0.0000000000000000e+00 0.0000000000000000e+00 0.0000000000000000e+00  -9.1234991081849737e-02 -1.0376646251518304e-02 0.0000000000000000e+00 -1.0376646251518304e-02 -9.0176472373385969e-02 0.0000000000000000e+00 0.0000000000000000e+00 0.0000000000000000e+00 0.0000000000000000e+00  -9.0043848184777814e-02 -8.6501142650177772e-03 0.0000000000000000e+00 -8.6501142650177772e-03 -9.0090778062497739e-02 0.0000000000000000e+00 0.0000000000000000e+00 0.0000000000000000e+00 0.0000000000000000e+00  -8.7986336186735709e-02 -8.8251209543835502e-03 0.0000000000000000e+00 -8.8251209543835502e-03 -9.1922177484916850e-02 0.0000000000000000e+00 0.0000000000000000e+00 0.0000000000000000e+00 0.0000000000000000e+00  -8.7824683880013910e-02 -8.0980027317960075e-03 0.0000000000000000e+00 -8.0980027317960075e-03 -9.3253918227634389e-02 0.0000000000000000e+00 0.0000000000000000e+00 0.0000000000000000e+00 0.0000000000000000e+00  -8.6986413781516628e-02 -6.1842981949803760e-03 0.0000000000000000e+00 -6.1842981949803760e-03 -9.4845142605402666e-02 0.0000000000000000e+00 0.0000000000000000e+00 0.0000000000000000e+00 0.0000000000000000e+00  -8.6766768432627636e-02 -2.8511476817571330e-03 0.0000000000000000e+00 -2.8511476817571330e-03 -9.5144469160514236e-02 0.0000000000000000e+00 0.0000000000000000e+00 0.0000000000000000e+00 0.0000000000000000e+00  -8.8467834784585891e-02 8.0513469624063513e-04 0.0000000000000000e+00 8.0513469624063513e-04 -9.2064917418118064e-02 0.0000000000000000e+00 0.0000000000000000e+00 0.0000000000000000e+00 0.0000000000000000e+00  -9.1731080302198315e-02 2.6752672720226950e-03 0.0000000000000000e+00 2.6752672720226950e-03 -8.6074818946384843e-02 0.0000000000000000e+00 0.0000000000000000e+00 0.0000000000000000e+00 0.0000000000000000e+00  -9.5216726734825743e-02 1.8182197930733442e-03 0.0000000000000000e+00 1.8182197930733442e-03 -7.9586104074441250e-02 0.0000000000000000e+00 0.0000000000000000e+00 0.0000000000000000e+00 0.0000000000000000e+00  -9.7884406059639675e-02 -1.1950254942864646e-03 0.0000000000000000e+00 -1.1950254942864646e-03 -7.4772226303785855e-02 0.0000000000000000e+00 0.0000000000000000e+00 0.0000000000000000e+00 0.0000000000000000e+00  -9.9371423079458510e-02 -5.2402288910345686e-03 0.0000000000000000e+00 -5.2402288910345686e-03 -7.2693154143947683e-02 0.0000000000000000e+00 0.0000000000000000e+00 0.0000000000000000e+00 0.0000000000000000e+00  -9.9656152608872936e-02 -9.2761353444247834e-03 0.0000000000000000e+00 -9.2761353444247834e-03 -7.3614287646451379e-02 0.0000000000000000e+00 0.0000000000000000e+00 0.0000000000000000e+00 0.0000000000000000e+00  -9.8780660535081874e-02 -1.2284396750998738e-02 0.0000000000000000e+00 -1.2284396750998738e-02 -7.7350344689549419e-02 0.0000000000000000e+00 0.0000000000000000e+00 0.0000000000000000e+00 0.0000000000000000e+00  -9.7052756025334058e-02 -1.3133302818626284e-02 0.0000000000000000e+00 -1.3133302818626284e-02 -8.3017694560161837e-02 0.0000000000000000e+00 0.0000000000000000e+00 0.0000000000000000e+00 0.0000000000000000e+00  -9.5432009231506368e-02 -1.1071246425496549e-02 0.0000000000000000e+00 -1.1071246425496549e-02 -8.8626773440636977e-02 0.0000000000000000e+00 0.0000000000000000e+00 0.0000000000000000e+00 0.0000000000000000e+00  -9.5339426060634891e-02 -6.7251811721031115e-03 0.0000000000000000e+00 -6.7251811721031115e-03 -9.1665017388201056e-02 0.0000000000000000e+00 0.0000000000000000e+00 0.0000000000000000e+00 0.0000000000000000e+00  -9.7486011929675542e-02 -2.1393740400000865e-03 0.0000000000000000e+00 -2.1393740400000865e-03 -9.1166903058258170e-02 0.0000000000000000e+00 0.0000000000000000e+00 0.0000000000000000e+00 0.0000000000000000e+00  -1.0092155176230214e-01 1.2113894617093292e-03 0.0000000000000000e+00 1.2113894617093292e-03 -8.8941034643410272e-02 0.0000000000000000e+00 0.0000000000000000e+00 0.0000000000000000e+00 0.0000000000000000e+00  -1.0416752358678376e-01 3.4106784938516209e-03 0.0000000000000000e+00 3.4106784938516209e-03 -8.7087225733946852e-02 0.0000000000000000e+00 0.0000000000000000e+00 0.0000000000000000e+00 0.0000000000000000e+00  -1.0896744954912363e-01 4.5134742470796145e-03 0.0000000000000000e+00 4.5134742470796145e-03 -8.5371298685839495e-02 0.0000000000000000e+00 0.0000000000000000e+00 0.0000000000000000e+00 0.0000000000000000e+00  -1.1555617417377108e-01 6.8443867444942120e-03 0.0000000000000000e+00 6.8443867444942120e-03 -8.5764811508409255e-02 0.0000000000000000e+00 0.0000000000000000e+00 0.0000000000000000e+00 0.0000000000000000e+00  -1.1015417990457102e-01 3.7775341754951947e-03 0.0000000000000000e+00 3.7775341754951947e-03 -9.2865697594490801e-02 0.0000000000000000e+00 0.0000000000000000e+00 0.0000000000000000e+00 0.0000000000000000e+00  -1.0951382172914005e-01 -1.8133953757363125e-03 0.0000000000000000e+00 -1.8133953757363125e-03 -1.2027562146596957e-01 0.0000000000000000e+00 0.0000000000000000e+00 0.0000000000000000e+00 0.0000000000000000e+00  -3.9976183538031798e-02 1.0660539532680856e-01 0.0000000000000000e+00 1.0660539532680856e-01 -1.2877764715737697e-01 0.0000000000000000e+00 0.0000000000000000e+00 0.0000000000000000e+00 0.0000000000000000e+00  -7.5567466063162558e-02 -6.8899947773007605e-02 0.0000000000000000e+00 -6.8899947773007605e-02 -5.5458813239887793e-02 0.0000000000000000e+00 0.0000000000000000e+00 0.0000000000000000e+00 0.0000000000000000e+00  -4.0434842841988278e-01 -8.2437028333856410e-02 0.0000000000000000e+00 -8.2437028333856410e-02 -2.8446772847684187e-01 0.0000000000000000e+00 0.0000000000000000e+00 0.0000000000000000e+00 0.0000000000000000e+00  -2.2988647578117818e-02 8.0161639289792558e-02 0.0000000000000000e+00 8.0161639289792558e-02 -2.5119797632479148e-02 0.0000000000000000e+00 0.0000000000000000e+00 0.0000000000000000e+00 0.0000000000000000e+00  -1.0669020548649162e-02 3.8305373730807587e-04 0.0000000000000000e+00 3.8305373730807587e-04 -4.6700885317656222e-03 0.0000000000000000e+00 0.0000000000000000e+00 0.0000000000000000e+00 0.0000000000000000e+00  3.8814196765454998e-03 2.8987438723980584e-03 0.0000000000000000e+00 2.8987438723980584e-03 4.0529029803827799e-03 0.0000000000000000e+00 0.0000000000000000e+00 0.0000000000000000e+00 0.0000000000000000e+00  1.4722115221924639e-03 9.1299793598962107e-05 0.0000000000000000e+00 9.1299793598962107e-05 2.1254887622615547e-03 0.0000000000000000e+00 0.0000000000000000e+00 0.0000000000000000e+00 0.0000000000000000e+00  2.6693694856603340e-03 -1.9849754186394447e-05 0.0000000000000000e+00 -1.9849754186394447e-05 2.6471701017205941e-03 0.0000000000000000e+00 0.0000000000000000e+00 0.0000000000000000e+00 0.0000000000000000e+00  2.4033000715865398e-03 6.5546645949484222e-05 0.0000000000000000e+00 6.5546645949484222e-05 2.3842494918182790e-03 0.0000000000000000e+00 0.0000000000000000e+00 0.0000000000000000e+00 0.0000000000000000e+00  2.4697150327074526e-03 4.5308703382357853e-08 0.0000000000000000e+00 4.5308703382353167e-08 2.4061747912975809e-03 0.0000000000000000e+00 0.0000000000000000e+00 0.0000000000000000e+00 0.0000000000000000e+00  2.4704040994706494e-03 -2.3168472902836605e-06 0.0000000000000000e+00 -2.3168472902836601e-06 2.4080257375329820e-03 0.0000000000000000e+00 0.0000000000000000e+00 0.0000000000000000e+00 0.0000000000000000e+00  2.4063678582736743e-03 -6.2296452915841565e-05 0.0000000000000000e+00 -6.2296452915841565e-05 2.3912462169200606e-03 0.0000000000000000e+00 0.0000000000000000e+00 0.0000000000000000e+00 0.0000000000000000e+00  2.6767528055736778e-03 -8.9615342223869995e-06 0.0000000000000000e+00 -8.9615342223869995e-06 2.6565611652953989e-03 0.0000000000000000e+00 0.0000000000000000e+00 0.0000000000000000e+00 0.0000000000000000e+00  1.4918417673098069e-03 1.3256598733758663e-05 0.0000000000000000e+00 1.3256598733758663e-05 2.1561006710938808e-03 0.0000000000000000e+00 0.0000000000000000e+00 0.0000000000000000e+00 0.0000000000000000e+00  3.4327050469170391e-03 -3.1698960560163445e-03 0.0000000000000000e+00 -3.1698960560163445e-03 3.5862944450680972e-03 0.0000000000000000e+00 0.0000000000000000e+00 0.0000000000000000e+00 0.0000000000000000e+00  -9.8456677273852274e-03 -9.4704696581939462e-05 0.0000000000000000e+00 -9.4704696581939462e-05 -4.8474044489518909e-03 0.0000000000000000e+00 0.0000000000000000e+00 0.0000000000000000e+00 0.0000000000000000e+00  -2.3546540317504625e-02 -8.1502890483226620e-02 0.0000000000000000e+00 -8.1502890483226620e-02 -2.7347900475075630e-02 0.0000000000000000e+00 0.0000000000000000e+00 0.0000000000000000e+00 0.0000000000000000e+00  -4.0725518343237027e-01 8.4447663075852705e-02 0.0000000000000000e+00 8.4447663075852705e-02 -2.7767934600642979e-01 0.0000000000000000e+00 0.0000000000000000e+00 0.0000000000000000e+00 0.0000000000000000e+00  -7.3432141321246980e-02 6.9204068825634832e-02 0.0000000000000000e+00 6.9204068825634832e-02 -5.2816983381211879e-02 0.0000000000000000e+00 0.0000000000000000e+00 0.0000000000000000e+00 0.0000000000000000e+00  -3.5834086436482261e-02 -1.0680305978669949e-01 0.0000000000000000e+00 -1.0680305978669949e-01 -1.2727155830209755e-01 0.0000000000000000e+00 0.0000000000000000e+00 0.0000000000000000e+00 0.0000000000000000e+00  -1.0759944902318913e-01 8.1171706332138892e-04 0.0000000000000000e+00 8.1171706332138892e-04 -1.1924043804741266e-01 0.0000000000000000e+00 0.0000000000000000e+00 0.0000000000000000e+00 0.0000000000000000e+00  -1.0843397138427147e-01 -4.2023805897568531e-03 0.0000000000000000e+00 -4.2023805897568531e-03 -9.2131344913647786e-02 0.0000000000000000e+00 0.0000000000000000e+00 0.0000000000000000e+00 0.0000000000000000e+00  -1.1423041768685162e-01 -7.3513402045112608e-03 0.0000000000000000e+00 -7.3513402045112608e-03 -8.5508817784916841e-02 0.0000000000000000e+00 0.0000000000000000e+00 0.0000000000000000e+00 0.0000000000000000e+00  -1.0791401623368309e-01 -4.8638929665564823e-03 0.0000000000000000e+00 -4.8638929665564823e-03 -8.5407415863548053e-02 0.0000000000000000e+00 0.0000000000000000e+00 0.0000000000000000e+00 0.0000000000000000e+00  -1.0327776813791817e-01 -3.6458343134023940e-03 0.0000000000000000e+00 -3.6458343134023940e-03 -8.7297424020729195e-02 0.0000000000000000e+00 0.0000000000000000e+00 0.0000000000000000e+00 0.0000000000000000e+00  -1.0019816392204833e-01 -1.3631443738936016e-03 0.0000000000000000e+00 -1.3631443738936016e-03 -8.9217735594512140e-02 0.0000000000000000e+00 0.0000000000000000e+00 0.0000000000000000e+00 0.0000000000000000e+00  -9.6895522933917386e-02 2.0402042185512551e-03 0.0000000000000000e+00 2.0402042185512551e-03 -9.1447515008953817e-02 0.0000000000000000e+00 0.0000000000000000e+00 0.0000000000000000e+00 0.0000000000000000e+00  -9.4849527828012675e-02 6.6466743742312918e-03 0.0000000000000000e+00 6.6466743742312918e-03 -9.1924272868728035e-02 0.0000000000000000e+00 0.0000000000000000e+00 0.0000000000000000e+00 0.0000000000000000e+00  -9.5017679957595358e-02 1.0994369031963505e-02 0.0000000000000000e+00 1.0994369031963505e-02 -8.8854660024077284e-02 0.0000000000000000e+00 0.0000000000000000e+00 0.0000000000000000e+00 0.0000000000000000e+00  -9.6695485115561502e-02 1.3046792229663337e-02 0.0000000000000000e+00 1.3046792229663337e-02 -8.3209651774362903e-02 0.0000000000000000e+00 0.0000000000000000e+00 0.0000000000000000e+00 0.0000000000000000e+00  -9.8466026759935404e-02 1.2181046619978772e-02 0.0000000000000000e+00 1.2181046619978772e-02 -7.7507124176654771e-02 0.0000000000000000e+00 0.0000000000000000e+00 0.0000000000000000e+00 0.0000000000000000e+00  -9.9373255903938945e-02 9.1540769645325256e-03 0.0000000000000000e+00 9.1540769645325256e-03 -7.3739879144385317e-02 0.0000000000000000e+00 0.0000000000000000e+00 0.0000000000000000e+00 0.0000000000000000e+00  -9.9115236452983799e-02 5.1016141109979912e-03 0.0000000000000000e+00 5.1016141109979912e-03 -7.2789235850775791e-02 0.0000000000000000e+00 0.0000000000000000e+00 0.0000000000000000e+00 0.0000000000000000e+00  -9.7655972606273719e-02 1.0404076295194441e-03 0.0000000000000000e+00 1.0404076295194441e-03 -7.4836385630039803e-02 0.0000000000000000e+00 0.0000000000000000e+00 0.0000000000000000e+00 0.0000000000000000e+00  -9.5018423808825539e-02 -1.9942865014993903e-03 0.0000000000000000e+00 -1.9942865014993903e-03 -7.9617693105485970e-02 0.0000000000000000e+00 0.0000000000000000e+00 0.0000000000000000e+00 0.0000000000000000e+00  -9.1559919410658927e-02 -2.8811254413740636e-03 0.0000000000000000e+00 -2.8811254413740636e-03 -8.6083568891575368e-02 0.0000000000000000e+00 0.0000000000000000e+00 0.0000000000000000e+00 0.0000000000000000e+00  -8.8313677770942900e-02 -1.0416551154581865e-03 0.0000000000000000e+00 -1.0416551154581865e-03 -9.2071494543411417e-02 0.0000000000000000e+00 0.0000000000000000e+00 0.0000000000000000e+00 0.0000000000000000e+00  -8.6620342448239893e-02 2.5970277938941471e-03 0.0000000000000000e+00 2.5970277938941471e-03 -9.5165872090796647e-02 0.0000000000000000e+00 0.0000000000000000e+00 0.0000000000000000e+00 0.0000000000000000e+00  -8.6850391131457705e-02 5.9279472192976775e-03 0.0000000000000000e+00 5.9279472192976775e-03 -9.4877380645241247e-02 0.0000000000000000e+00 0.0000000000000000e+00 0.0000000000000000e+00 0.0000000000000000e+00  -8.7711064400053773e-02 7.8408946887851324e-03 0.0000000000000000e+00 7.8408946887851324e-03 -9.3282923147436900e-02 0.0000000000000000e+00 0.0000000000000000e+00 0.0000000000000000e+00 0.0000000000000000e+00  -8.7890700706195021e-02 8.5682710005813133e-03 0.0000000000000000e+00 8.5682710005813133e-03 -9.1954491545645056e-02 0.0000000000000000e+00 0.0000000000000000e+00 0.0000000000000000e+00 0.0000000000000000e+00  -8.9940902363475364e-02 8.3886837455149424e-03 0.0000000000000000e+00 8.3886837455149424e-03 -9.0130530326208394e-02 0.0000000000000000e+00 0.0000000000000000e+00 0.0000000000000000e+00 0.0000000000000000e+00  -9.1210815556715952e-02 1.0112697448345113e-02 0.0000000000000000e+00 1.0112697448345113e-02 -9.0195867459411008e-02 0.0000000000000000e+00 0.0000000000000000e+00 0.0000000000000000e+00 0.0000000000000000e+00  -7.9934646000584725e-02 8.9174939147628537e-04 0.0000000000000000e+00 8.9174939147628537e-04 -9.4757845816555122e-02 0.0000000000000000e+00 0.0000000000000000e+00 0.0000000000000000e+00 0.0000000000000000e+00  -7.6377610269063381e-02 1.1002575205990925e-02 0.0000000000000000e+00 1.1002575205990925e-02 -1.2244743617466894e-01 0.0000000000000000e+00 0.0000000000000000e+00 0.0000000000000000e+00 0.0000000000000000e+00  3.7250496278268708e-02 1.1298283685618450e-01 0.0000000000000000e+00 1.1298283685618450e-01 -9.0171069228728445e-02 0.0000000000000000e+00 0.0000000000000000e+00 0.0000000000000000e+00 0.0000000000000000e+00  -1.8174941951769738e-01 -1.8145835265502794e-01 0.0000000000000000e+00 -1.8145835265502794e-01 -9.2582905259016440e-02 0.0000000000000000e+00 0.0000000000000000e+00 0.0000000000000000e+00 0.0000000000000000e+00  -2.8311214067371870e-01 3.6237144417458012e-02 0.0000000000000000e+00 3.6237144417458012e-02 -2.1921187391901120e-01 0.0000000000000000e+00 0.0000000000000000e+00 0.0000000000000000e+00 0.0000000000000000e+00  1.8898680796960797e-02 2.8153332655440573e-02 0.0000000000000000e+00 2.8153332655440573e-02 1.1047365433009373e-02 0.0000000000000000e+00 0.0000000000000000e+00 0.0000000000000000e+00 0.0000000000000000e+00  -6.2864941489358733e-03 8.1540839325825402e-03 0.0000000000000000e+00 8.1540839325825402e-03 -5.9409936221197284e-03 0.0000000000000000e+00 0.0000000000000000e+00 0.0000000000000000e+00 0.0000000000000000e+00  1.0400601313368349e-02 -4.6370116892758227e-05 0.0000000000000000e+00 -4.6370116892758227e-05 1.0316903207967121e-02 0.0000000000000000e+00 0.0000000000000000e+00 0.0000000000000000e+00 0.0000000000000000e+00  6.5140303188712528e-03 5.2531690488501377e-04 0.0000000000000000e+00 5.2531690488501377e-04 6.7080822840564543e-03 0.0000000000000000e+00 0.0000000000000000e+00 0.0000000000000000e+00 0.0000000000000000e+00  7.8275466270285483e-03 -1.5997481281913585e-04 0.0000000000000000e+00 -1.5997481281913585e-04 7.7628524631386938e-03 0.0000000000000000e+00 0.0000000000000000e+00 0.0000000000000000e+00 0.0000000000000000e+00  7.4910765850629080e-03 5.1245409424516766e-05 0.0000000000000000e+00 5.1245409424516766e-05 7.4811738712875532e-03 0.0000000000000000e+00 0.0000000000000000e+00 0.0000000000000000e+00 0.0000000000000000e+00  7.5667986514595274e-03 -1.8244579738444530e-05 0.0000000000000000e+00 -1.8244579738444530e-05 7.5648160949874713e-03 0.0000000000000000e+00 0.0000000000000000e+00 0.0000000000000000e+00 0.0000000000000000e+00  7.5489474697570695e-03 4.9759925471014708e-06 0.0000000000000000e+00 4.9759925471014708e-06 7.5578709535113120e-03 0.0000000000000000e+00 0.0000000000000000e+00 0.0000000000000000e+00 0.0000000000000000e+00  7.5489878351624523e-03 6.3109277960122536e-06 0.0000000000000000e+00 6.3109277960122536e-06 7.5667657237581780e-03 0.0000000000000000e+00 0.0000000000000000e+00 0.0000000000000000e+00 0.0000000000000000e+00  7.5480347952527616e-03 1.4569823536328718e-05 0.0000000000000000e+00 1.4569823536328718e-05 7.5681145521088759e-03 0.0000000000000000e+00 0.0000000000000000e+00 0.0000000000000000e+00 0.0000000000000000e+00  7.5487693493303774e-03 2.3026996751364649e-05 0.0000000000000000e+00 2.3026996751364649e-05 7.5655496720922867e-03 0.0000000000000000e+00 0.0000000000000000e+00 0.0000000000000000e+00 0.0000000000000000e+00  7.5511405995909043e-03 3.2525228253578884e-05 0.0000000000000000e+00 3.2525228253578884e-05 7.5582867354165454e-03 0.0000000000000000e+00 0.0000000000000000e+00 0.0000000000000000e+00 0.0000000000000000e+00  7.6026301040525946e-03 -3.0664632018854390e-05 0.0000000000000000e+00 -3.0664632018854390e-05 7.6097648176312437e-03 0.0000000000000000e+00 0.0000000000000000e+00 0.0000000000000000e+00 0.0000000000000000e+00  7.6001811091733476e-03 -2.2339552864193957e-05 0.0000000000000000e+00 -2.2339552864193957e-05 7.6173057456008584e-03 0.0000000000000000e+00 0.0000000000000000e+00 0.0000000000000000e+00 0.0000000000000000e+00  7.5992949634377327e-03 -1.4926689610591021e-05 0.0000000000000000e+00 -1.4926689610591021e-05 7.6206243061676645e-03 0.0000000000000000e+00 0.0000000000000000e+00 0.0000000000000000e+00 0.0000000000000000e+00  7.5996887874021689e-03 -9.1127531830766746e-06 0.0000000000000000e+00 -9.1127531830766746e-06 7.6195196817081777e-03 0.0000000000000000e+00 0.0000000000000000e+00 0.0000000000000000e+00 0.0000000000000000e+00  7.6029777032049026e-03 -2.6780389106145249e-06 0.0000000000000000e+00 -2.6780389106145249e-06 7.6162142485480854e-03 0.0000000000000000e+00 0.0000000000000000e+00 0.0000000000000000e+00 0.0000000000000000e+00  7.5999002341004158e-03 -5.0177553881142461e-06 0.0000000000000000e+00 -5.0177553881142461e-06 7.6022803660305872e-03 0.0000000000000000e+00 0.0000000000000000e+00 0.0000000000000000e+00 0.0000000000000000e+00  7.6312711986843799e-03 1.5018176392424541e-05 0.0000000000000000e+00 1.5018176392424541e-05 7.6159335044289102e-03 0.0000000000000000e+00 0.0000000000000000e+00 0.0000000000000000e+00 0.0000000000000000e+00  7.5260040381233241e-03 -3.7052836116598629e-05 0.0000000000000000e+00 -3.7052836116598629e-05 7.5119628276542503e-03 0.0000000000000000e+00 0.0000000000000000e+00 0.0000000000000000e+00 0.0000000000000000e+00  7.8693314788601115e-03 6.8856815609651546e-05 0.0000000000000000e+00 6.8856815609651546e-05 7.8232698007713337e-03 0.0000000000000000e+00 0.0000000000000000e+00 0.0000000000000000e+00 0.0000000000000000e+00  6.6201905259180467e-03 -3.5217120827400565e-04 0.0000000000000000e+00 -3.5217120827400565e-04 6.5780382948547591e-03 0.0000000000000000e+00 0.0000000000000000e+00 0.0000000000000000e+00 0.0000000000000000e+00  1.0175109334520451e-02 7.8252200841178699e-05 0.0000000000000000e+00 7.8252200841178699e-05 1.0091788928456526e-02 0.0000000000000000e+00 0.0000000000000000e+00 0.0000000000000000e+00 0.0000000000000000e+00  -2.9183116836966204e-03 -9.8594968191562625e-03 0.0000000000000000e+00 -9.8594968191562625e-03 -9.4013946180791959e-03 0.0000000000000000e+00 0.0000000000000000e+00 0.0000000000000000e+00 0.0000000000000000e+00  3.6072906113147465e-02 -8.0682855668540287e-03 0.0000000000000000e+00 -8.0682855668540287e-03 1.1560352939486651e-02 0.0000000000000000e+00 0.0000000000000000e+00 0.0000000000000000e+00 0.0000000000000000e+00  -2.0347193075096701e-01 -1.1265940585087465e-01 0.0000000000000000e+00 -1.1265940585087465e-01 -1.4902860493601849e-01 0.0000000000000000e+00 0.0000000000000000e+00 0.0000000000000000e+00 0.0000000000000000e+00  -4.0390364562642744e-01 2.3197145115954634e-01 0.0000000000000000e+00 2.3197145115954634e-01 -6.9099686006931338e-02 0.0000000000000000e+00 0.0000000000000000e+00 0.0000000000000000e+00 0.0000000000000000e+00  8.0473076210998487e-02 -6.1486342645144389e-02 0.0000000000000000e+00 -6.1486342645144389e-02 -8.3235988303137748e-02 0.0000000000000000e+00 0.0000000000000000e+00 0.0000000000000000e+00 0.0000000000000000e+00  -4.7297629556618974e-02 -4.9549974130710647e-02 0.0000000000000000e+00 -4.9549974130710647e-02 -1.5843473736107128e-01 0.0000000000000000e+00 0.0000000000000000e+00 0.0000000000000000e+00 0.0000000000000000e+00  -7.5839482060728672e-02 -4.4078216655241784e-03 0.0000000000000000e+00 -4.4078216655241784e-03 -1.2082107158446841e-01 0.0000000000000000e+00 0.0000000000000000e+00 0.0000000000000000e+00 0.0000000000000000e+00  -7.8677663933478428e-02 -9.4899308699505028e-03 0.0000000000000000e+00 -9.4899308699505028e-03 -9.8872213925880498e-02 0.0000000000000000e+00 0.0000000000000000e+00 0.0000000000000000e+00 0.0000000000000000e+00  -8.8596009735502704e-02 -1.0937576444252141e-02 0.0000000000000000e+00 -1.0937576444252141e-02 -9.3963936588339861e-02 0.0000000000000000e+00 0.0000000000000000e+00 0.0000000000000000e+00 0.0000000000000000e+00  -8.8306950856010022e-02 -9.0863032673772319e-03 0.0000000000000000e+00 -9.0863032673772319e-03 -9.4631778034582711e-02 0.0000000000000000e+00 0.0000000000000000e+00 0.0000000000000000e+00 0.0000000000000000e+00  -8.5804531866723849e-02 -7.6549244197661979e-03 0.0000000000000000e+00 -7.6549244197661979e-03 -9.8471800201354570e-02 0.0000000000000000e+00 0.0000000000000000e+00 0.0000000000000000e+00 0.0000000000000000e+00  -8.4918037415880207e-02 -2.4491937642551896e-03 0.0000000000000000e+00 -2.4491937642551896e-03 -1.0074427115864194e-01 0.0000000000000000e+00 0.0000000000000000e+00 0.0000000000000000e+00 0.0000000000000000e+00  -8.7433974913703416e-02 4.0583358537472471e-03 0.0000000000000000e+00 4.0583358537472471e-03 -9.6169470638498247e-02 0.0000000000000000e+00 0.0000000000000000e+00 0.0000000000000000e+00 0.0000000000000000e+00  -9.2125187701639508e-02 6.9874347297680627e-03 0.0000000000000000e+00 6.9874347297680627e-03 -8.6439856109483640e-02 0.0000000000000000e+00 0.0000000000000000e+00 0.0000000000000000e+00 0.0000000000000000e+00  -9.6437248224786484e-02 5.2949013562340252e-03 0.0000000000000000e+00 5.2949013562340252e-03 -7.6713061339397856e-02 0.0000000000000000e+00 0.0000000000000000e+00 0.0000000000000000e+00 0.0000000000000000e+00  -9.9144645257920674e-02 8.8550238721161491e-04 0.0000000000000000e+00 8.8550238721161491e-04 -7.0279472058887904e-02 0.0000000000000000e+00 0.0000000000000000e+00 0.0000000000000000e+00 0.0000000000000000e+00  -1.0050265086220714e-01 -4.3613855421106799e-03 0.0000000000000000e+00 -4.3613855421106799e-03 -6.7817704439064430e-02 0.0000000000000000e+00 0.0000000000000000e+00 0.0000000000000000e+00 0.0000000000000000e+00  -1.0090040431190256e-01 -9.5475858418970355e-03 0.0000000000000000e+00 -9.5475858418970320e-03 -6.9173830092761374e-02 0.0000000000000000e+00 0.0000000000000000e+00 0.0000000000000000e+00 0.0000000000000000e+00  -1.0007566148353018e-01 -1.3892204290508279e-02 0.0000000000000000e+00 -1.3892204290508279e-02 -7.4467361444024910e-02 0.0000000000000000e+00 0.0000000000000000e+00 0.0000000000000000e+00 0.0000000000000000e+00  -9.7668409439147813e-02 -1.5697448712355257e-02 0.0000000000000000e+00 -1.5697448712355257e-02 -8.3311114545119969e-02 0.0000000000000000e+00 0.0000000000000000e+00 0.0000000000000000e+00 0.0000000000000000e+00  -9.4592359361827888e-02 -1.2872658954781631e-02 0.0000000000000000e+00 -1.2872658954781631e-02 -9.2967565464925420e-02 0.0000000000000000e+00 0.0000000000000000e+00 0.0000000000000000e+00 0.0000000000000000e+00  -9.3334146073710961e-02 -5.6779044312766785e-03 0.0000000000000000e+00 -5.6779044312766785e-03 -9.8337495951572818e-02 0.0000000000000000e+00 0.0000000000000000e+00 0.0000000000000000e+00 0.0000000000000000e+00  -9.5662430260182216e-02 1.4642293277129135e-03 0.0000000000000000e+00 1.4642293277129135e-03 -9.6588137207484812e-02 0.0000000000000000e+00 0.0000000000000000e+00 0.0000000000000000e+00 0.0000000000000000e+00  -1.0031620166615868e-01 4.9183912288594325e-03 0.0000000000000000e+00 4.9183912288594325e-03 -9.1978754720338618e-02 0.0000000000000000e+00 0.0000000000000000e+00 0.0000000000000000e+00 0.0000000000000000e+00  -1.0410242364838376e-01 8.1043835344904950e-03 0.0000000000000000e+00 8.1043835344904950e-03 -9.0184302895662469e-02 0.0000000000000000e+00 0.0000000000000000e+00 0.0000000000000000e+00 0.0000000000000000e+00  -9.9292782286467388e-02 9.9606658970013504e-03 0.0000000000000000e+00 9.9606658970013504e-03 -9.3632291751856528e-02 0.0000000000000000e+00 0.0000000000000000e+00 0.0000000000000000e+00 0.0000000000000000e+00  -9.5458933457768388e-02 5.6133620334563933e-03 0.0000000000000000e+00 5.6133620334563933e-03 -1.1156176361326064e-01 0.0000000000000000e+00 0.0000000000000000e+00 0.0000000000000000e+00 0.0000000000000000e+00  -9.3725040306034443e-02 3.3688153245414180e-02 0.0000000000000000e+00 3.3688153245414180e-02 -1.5620040170579955e-01 0.0000000000000000e+00 0.0000000000000000e+00 0.0000000000000000e+00 0.0000000000000000e+00  4.0246638306307501e-02 8.4335562998479163e-02 0.0000000000000000e+00 8.4335562998479163e-02 -1.2932385932534746e-01 0.0000000000000000e+00 0.0000000000000000e+00 0.0000000000000000e+00 0.0000000000000000e+00  -2.7039071703517426e-01 -1.7040976669666666e-01 0.0000000000000000e+00 -1.7040976669666666e-01 -4.8133027279885651e-02 0.0000000000000000e+00 0.0000000000000000e+00 0.0000000000000000e+00 0.0000000000000000e+00  -3.5071726219134947e-01 2.6533338704667165e-02 0.0000000000000000e+00 2.6533338704667165e-02 -1.7722492050408792e-01 0.0000000000000000e+00 0.0000000000000000e+00 0.0000000000000000e+00 0.0000000000000000e+00  1.4592737546001107e-02 5.1015295698138417e-02 0.0000000000000000e+00 5.1015295698138417e-02 -1.2641204362511382e-02 0.0000000000000000e+00 0.0000000000000000e+00 0.0000000000000000e+00 0.0000000000000000e+00  -3.7597243160921996e-03 1.2698547486851793e-03 0.0000000000000000e+00 1.2698547486851793e-03 -1.2335451178820019e-02 0.0000000000000000e+00 0.0000000000000000e+00 0.0000000000000000e+00 0.0000000000000000e+00  3.3240415696794800e-03 4.0530560684902666e-03 0.0000000000000000e+00 4.0530560684902666e-03 3.4321370385578765e-03 0.0000000000000000e+00 0.0000000000000000e+00 0.0000000000000000e+00 0.0000000000000000e+00  1.9150283475013526e-03 -5.0108921767896646e-04 0.0000000000000000e+00 -5.0108921767896646e-04 2.1851901077435294e-03 0.0000000000000000e+00 0.0000000000000000e+00 0.0000000000000000e+00 0.0000000000000000e+00  2.6499791317035042e-03 1.7033866940128147e-04 0.0000000000000000e+00 1.7033866940128147e-04 2.6268119191558120e-03 0.0000000000000000e+00 0.0000000000000000e+00 0.0000000000000000e+00 0.0000000000000000e+00  2.3959701246634049e-03 1.5001465091998777e-05 0.0000000000000000e+00 1.5001465091998777e-05 2.4223152883139794e-03 0.0000000000000000e+00 0.0000000000000000e+00 0.0000000000000000e+00 0.0000000000000000e+00  2.4949143816592827e-03 1.4953583792682184e-05 0.0000000000000000e+00 1.4953583792682181e-05 2.4481364565229961e-03 0.0000000000000000e+00 0.0000000000000000e+00 0.0000000000000000e+00 0.0000000000000000e+00  2.4801033544343074e-03 9.4490497915052361e-06 0.0000000000000000e+00 9.4490497915052361e-06 2.4160167365935977e-03 0.0000000000000000e+00 0.0000000000000000e+00 0.0000000000000000e+00 0.0000000000000000e+00  2.4806489542615814e-03 -1.2436516834190256e-05 0.0000000000000000e+00 -1.2436516834190256e-05 2.4175820827295066e-03 0.0000000000000000e+00 0.0000000000000000e+00 0.0000000000000000e+00 0.0000000000000000e+00  2.4959306272052885e-03 -1.9674069209999790e-05 0.0000000000000000e+00 -1.9674069209999790e-05 2.4522034088383634e-03 0.0000000000000000e+00 0.0000000000000000e+00 0.0000000000000000e+00 0.0000000000000000e+00  2.3982875800645730e-03 -1.0016282023241207e-05 0.0000000000000000e+00 -1.0016282023241207e-05 2.4336744394161890e-03 0.0000000000000000e+00 0.0000000000000000e+00 0.0000000000000000e+00 0.0000000000000000e+00  2.6191473495224085e-03 -2.2067928147226622e-04 0.0000000000000000e+00 -2.2067928147226622e-04 2.6260513682177817e-03 0.0000000000000000e+00 0.0000000000000000e+00 0.0000000000000000e+00 0.0000000000000000e+00  1.8864472102893236e-03 5.8157700136612098e-04 0.0000000000000000e+00 5.8157700136612098e-04 2.1357955931016566e-03 0.0000000000000000e+00 0.0000000000000000e+00 0.0000000000000000e+00 0.0000000000000000e+00  2.7865275715425867e-03 -4.0591614933468238e-03 0.0000000000000000e+00 -4.0591614933468238e-03 2.8144775391437749e-03 0.0000000000000000e+00 0.0000000000000000e+00 0.0000000000000000e+00 0.0000000000000000e+00  -3.3930828343730780e-03 -1.5553958687722232e-03 0.0000000000000000e+00 -1.5553958687722232e-03 -1.2973865522145642e-02 0.0000000000000000e+00 0.0000000000000000e+00 0.0000000000000000e+00 0.0000000000000000e+00  1.5437019911211766e-02 -4.9998576778514978e-02 0.0000000000000000e+00 -4.9998576778514978e-02 -1.2771823129223325e-02 0.0000000000000000e+00 0.0000000000000000e+00 0.0000000000000000e+00 0.0000000000000000e+00  -3.4682854367370813e-01 -2.8494989819586945e-02 0.0000000000000000e+00 -2.8494989819586945e-02 -1.7260041764189404e-01 0.0000000000000000e+00 0.0000000000000000e+00 0.0000000000000000e+00 0.0000000000000000e+00  -2.7299335893855975e-01 1.7264152136085756e-01 0.0000000000000000e+00 1.7264152136085756e-01 -4.5735778215438457e-02 0.0000000000000000e+00 0.0000000000000000e+00 0.0000000000000000e+00 0.0000000000000000e+00  4.4476696216285409e-02 -8.3879797041983575e-02 0.0000000000000000e+00 -8.3879797041983575e-02 -1.2718029372361586e-01 0.0000000000000000e+00 0.0000000000000000e+00 0.0000000000000000e+00 0.0000000000000000e+00  -9.0879741821066784e-02 -3.4564100004939986e-02 0.0000000000000000e+00 -3.4564100004939986e-02 -1.5567855937248662e-01 0.0000000000000000e+00 0.0000000000000000e+00 0.0000000000000000e+00 0.0000000000000000e+00  -9.3757297819775237e-02 -5.7328769132715873e-03 0.0000000000000000e+00 -5.7328769132715873e-03 -1.1157095043048484e-01 0.0000000000000000e+00 0.0000000000000000e+00 0.0000000000000000e+00 0.0000000000000000e+00  -9.7768452399153757e-02 -9.9975450011774002e-03 0.0000000000000000e+00 -9.9975450011774002e-03 -9.3809684999224818e-02 0.0000000000000000e+00 0.0000000000000000e+00 0.0000000000000000e+00 0.0000000000000000e+00  -1.0295790259146459e-01 -8.1464969274333606e-03 0.0000000000000000e+00 -8.1464969274333606e-03 -9.0477239769421403e-02 0.0000000000000000e+00 0.0000000000000000e+00 0.0000000000000000e+00 0.0000000000000000e+00  -9.9399575648437044e-02 -4.8949585476417475e-03 0.0000000000000000e+00 -4.8949585476417475e-03 -9.2304821379438115e-02 0.0000000000000000e+00 0.0000000000000000e+00 0.0000000000000000e+00 0.0000000000000000e+00  -9.4912010250156192e-02 -1.4258190248892743e-03 0.0000000000000000e+00 -1.4258190248892743e-03 -9.6883423215201506e-02 0.0000000000000000e+00 0.0000000000000000e+00 0.0000000000000000e+00 0.0000000000000000e+00  -9.2710138515091731e-02 5.6966347123613998e-03 0.0000000000000000e+00 5.6966347123613998e-03 -9.8591526807456212e-02 0.0000000000000000e+00 0.0000000000000000e+00 0.0000000000000000e+00 0.0000000000000000e+00  -9.4058485937648928e-02 1.2868018719595892e-02 0.0000000000000000e+00 1.2868018719595892e-02 -9.3181459765801722e-02 0.0000000000000000e+00 0.0000000000000000e+00 0.0000000000000000e+00 0.0000000000000000e+00  -9.7203180130534167e-02 1.5665942001103945e-02 0.0000000000000000e+00 1.5665942001103945e-02 -8.3480924361171410e-02 0.0000000000000000e+00 0.0000000000000000e+00 0.0000000000000000e+00 0.0000000000000000e+00  -9.9660420515949533e-02 1.3827993617358647e-02 0.0000000000000000e+00 1.3827993617358647e-02 -7.4598237861727604e-02 0.0000000000000000e+00 0.0000000000000000e+00 0.0000000000000000e+00 0.0000000000000000e+00  -1.0051815516491720e-01 9.4538003224073144e-03 0.0000000000000000e+00 9.4538003224073144e-03 -6.9278381097293826e-02 0.0000000000000000e+00 0.0000000000000000e+00 0.0000000000000000e+00 0.0000000000000000e+00  -1.0014640171448141e-01 4.2503351399906840e-03 0.0000000000000000e+00 4.2503351399906840e-03 -6.7900340395640246e-02 0.0000000000000000e+00 0.0000000000000000e+00 0.0000000000000000e+00 0.0000000000000000e+00  -9.8820946347174865e-02 -1.0054727537749167e-03 0.0000000000000000e+00 -1.0054727537749167e-03 -7.0329752885548241e-02 0.0000000000000000e+00 0.0000000000000000e+00 0.0000000000000000e+00 0.0000000000000000e+00  -9.6157743897693382e-02 -5.4317836176867263e-03 0.0000000000000000e+00 -5.4317836176867263e-03 -7.6718404096517520e-02 0.0000000000000000e+00 0.0000000000000000e+00 0.0000000000000000e+00 0.0000000000000000e+00  -9.1890934691610512e-02 -7.1626523591807054e-03 0.0000000000000000e+00 -7.1626523591807054e-03 -8.6408576824727648e-02 0.0000000000000000e+00 0.0000000000000000e+00 0.0000000000000000e+00 0.0000000000000000e+00  -8.7227544333708842e-02 -4.2831627538671493e-03 0.0000000000000000e+00 -4.2831627538671493e-03 -9.6140357489388470e-02 0.0000000000000000e+00 0.0000000000000000e+00 0.0000000000000000e+00 0.0000000000000000e+00  -8.4718373799814992e-02 2.1996228557857383e-03 0.0000000000000000e+00 2.1996228557857383e-03 -1.0075692066056703e-01 0.0000000000000000e+00 0.0000000000000000e+00 0.0000000000000000e+00 0.0000000000000000e+00  -8.5613681970389072e-02 7.4212085449609708e-03 0.0000000000000000e+00 7.4212085449609708e-03 -9.8514803155526770e-02 0.0000000000000000e+00 0.0000000000000000e+00 0.0000000000000000e+00 0.0000000000000000e+00  -8.8144565107482392e-02 8.8559281982713168e-03 0.0000000000000000e+00 8.8559281982713168e-03 -9.4657424587377317e-02 0.0000000000000000e+00 0.0000000000000000e+00 0.0000000000000000e+00 0.0000000000000000e+00  -8.8502259465117333e-02 1.0684513344269515e-02 0.0000000000000000e+00 1.0684513344269515e-02 -9.3966872028295845e-02 0.0000000000000000e+00 0.0000000000000000e+00 0.0000000000000000e+00 0.0000000000000000e+00  -7.8669729945581163e-02 9.2950439756174126e-03 0.0000000000000000e+00 9.2950439756174126e-03 -9.8833715315508774e-02 0.0000000000000000e+00 0.0000000000000000e+00 0.0000000000000000e+00 0.0000000000000000e+00  -7.5701242264604951e-02 4.1043572868165821e-03 0.0000000000000000e+00 4.1043572868165821e-03 -1.2058825749907015e-01 0.0000000000000000e+00 0.0000000000000000e+00 0.0000000000000000e+00 0.0000000000000000e+00  -4.7928746802420007e-02 4.8908902434286902e-02 0.0000000000000000e+00 4.8908902434286902e-02 -1.5833310636810483e-01 0.0000000000000000e+00 0.0000000000000000e+00 0.0000000000000000e+00 0.0000000000000000e+00  8.0579786260483829e-02 6.2094787826154428e-02 0.0000000000000000e+00 6.2094787826154428e-02 -8.3987066789584730e-02 0.0000000000000000e+00 0.0000000000000000e+00 0.0000000000000000e+00 0.0000000000000000e+00  -4.0092076211447703e-01 -2.3187343908713814e-01 0.0000000000000000e+00 -2.3187343908713814e-01 -6.8685640033060186e-02 0.0000000000000000e+00 0.0000000000000000e+00 0.0000000000000000e+00 0.0000000000000000e+00  -2.0622376029413125e-01 1.1147405571474531e-01 0.0000000000000000e+00 1.1147405571474531e-01 -1.5034596049795812e-01 0.0000000000000000e+00 0.0000000000000000e+00 0.0000000000000000e+00 0.0000000000000000e+00  3.6368578020187621e-02 8.6853767818755191e-03 0.0000000000000000e+00 8.6853767818755191e-03 1.1834504176476749e-02 0.0000000000000000e+00 0.0000000000000000e+00 0.0000000000000000e+00 0.0000000000000000e+00  -2.9079034202827000e-03 9.5288063482535015e-03 0.0000000000000000e+00 9.5288063482535015e-03 -9.2891599644479832e-03 0.0000000000000000e+00 0.0000000000000000e+00 0.0000000000000000e+00 0.0000000000000000e+00  1.0373622331706231e-02 3.4060263395862957e-05 0.0000000000000000e+00 3.4060263395862957e-05 1.0341219564502296e-02 0.0000000000000000e+00 0.0000000000000000e+00 0.0000000000000000e+00 0.0000000000000000e+00  6.6149963434466511e-03 3.6464975798789623e-04 0.0000000000000000e+00 3.6464975798789623e-04 6.5655887542266644e-03 0.0000000000000000e+00 0.0000000000000000e+00 0.0000000000000000e+00 0.0000000000000000e+00  7.8299202475861432e-03 -8.4557592816345882e-05 0.0000000000000000e+00 -8.4557592816345882e-05 7.7687538019716954e-03 0.0000000000000000e+00 0.0000000000000000e+00 0.0000000000000000e+00 0.0000000000000000e+00  7.4650205244530749e-03 3.7865800047137261e-05 0.0000000000000000e+00 3.7865800047137261e-05 7.4531796830731795e-03 0.0000000000000000e+00 0.0000000000000000e+00 0.0000000000000000e+00 0.0000000000000000e+00  7.5689523278249949e-03 -1.5272215373521364e-05 0.0000000000000000e+00 -1.5272215373521364e-05 7.5581718103361678e-03 0.0000000000000000e+00 0.0000000000000000e+00 0.0000000000000000e+00 0.0000000000000000e+00  7.5372395337668123e-03 5.0252422034765480e-06 0.0000000000000000e+00 5.0252422034765480e-06 7.5434093501828125e-03 0.0000000000000000e+00 0.0000000000000000e+00 0.0000000000000000e+00 0.0000000000000000e+00  7.5410730686681117e-03 2.4265482179945322e-06 0.0000000000000000e+00 2.4265482179945322e-06 7.5571691240981188e-03 0.0000000000000000e+00 0.0000000000000000e+00 0.0000000000000000e+00 0.0000000000000000e+00  7.5381498094147150e-03 8.6416668243458365e-06 0.0000000000000000e+00 8.6416668243458365e-06 7.5601080565337242e-03 0.0000000000000000e+00 0.0000000000000000e+00 0.0000000000000000e+00 0.0000000000000000e+00  7.5380379571708062e-03 1.4222520229247041e-05 0.0000000000000000e+00 1.4222520229247041e-05 7.5609146227867425e-03 0.0000000000000000e+00 0.0000000000000000e+00 0.0000000000000000e+00 0.0000000000000000e+00  7.5391208682534508e-03 2.1348423197890729e-05 0.0000000000000000e+00 2.1348423197890729e-05 7.5572396678875772e-03 0.0000000000000000e+00 0.0000000000000000e+00 0.0000000000000000e+00 0.0000000000000000e+00  7.5417335635047803e-03 2.9251650409981710e-05 0.0000000000000000e+00 2.9251650409981710e-05 7.5492520245676016e-03 0.0000000000000000e+00 0.0000000000000000e+00 0.0000000000000000e+00 0.0000000000000000e+00  7.5938563338774478e-03 -2.7302725316763689e-05 0.0000000000000000e+00 -2.7302725316763689e-05 7.6016808904847332e-03 0.0000000000000000e+00 0.0000000000000000e+00 0.0000000000000000e+00 0.0000000000000000e+00  7.5910479564317637e-03 -2.0442649704962554e-05 0.0000000000000000e+00 -2.0442649704962554e-05 7.6102066446132799e-03 0.0000000000000000e+00 0.0000000000000000e+00 0.0000000000000000e+00 0.0000000000000000e+00  7.5896530892515975e-03 -1.4619299293450624e-05 0.0000000000000000e+00 -1.4619299293450624e-05 7.6145107579489030e-03 0.0000000000000000e+00 0.0000000000000000e+00 0.0000000000000000e+00 0.0000000000000000e+00  7.5897592901263116e-03 -9.7201145727544245e-06 0.0000000000000000e+00 -9.7201145727544245e-06 7.6149715804504463e-03 0.0000000000000000e+00 0.0000000000000000e+00 0.0000000000000000e+00 0.0000000000000000e+00  7.5904928104143380e-03 -6.6590515990966200e-06 0.0000000000000000e+00 -6.6590515990966200e-06 7.6111522265618235e-03 0.0000000000000000e+00 0.0000000000000000e+00 0.0000000000000000e+00 0.0000000000000000e+00  7.5952433379758242e-03 -2.9281628868752531e-06 0.0000000000000000e+00 -2.9281628868752544e-06 7.6067485029567283e-03 0.0000000000000000e+00 0.0000000000000000e+00 0.0000000000000000e+00 0.0000000000000000e+00  7.5894221321396579e-03 -6.8547709083969772e-06 0.0000000000000000e+00 -6.8547709083969772e-06 7.5896164435629325e-03 0.0000000000000000e+00 0.0000000000000000e+00 0.0000000000000000e+00 0.0000000000000000e+00  7.6223912681146156e-03 4.3713835551683037e-06 0.0000000000000000e+00 4.3713835551683037e-06 7.6063996927213688e-03 0.0000000000000000e+00 0.0000000000000000e+00 0.0000000000000000e+00 0.0000000000000000e+00  7.5066249330630885e-03 -3.0725662402678615e-05 0.0000000000000000e+00 -3.0725662402678615e-05 7.4922511757681233e-03 0.0000000000000000e+00 0.0000000000000000e+00 0.0000000000000000e+00 0.0000000000000000e+00  7.7570555453679206e-03 4.9132405115163654e-05 0.0000000000000000e+00 4.9132405115163654e-05 7.7611600484908472e-03 0.0000000000000000e+00 0.0000000000000000e+00 0.0000000000000000e+00 0.0000000000000000e+00  6.5742837642668080e-03 -5.0548151483811551e-04 0.0000000000000000e+00 -5.0548151483811551e-04 6.2549453634625348e-03 0.0000000000000000e+00 0.0000000000000000e+00 0.0000000000000000e+00 0.0000000000000000e+00  1.0332144173854377e-02 1.2613202087104745e-03 0.0000000000000000e+00 1.2613202087104745e-03 1.0119208169164649e-02 0.0000000000000000e+00 0.0000000000000000e+00 0.0000000000000000e+00 0.0000000000000000e+00  3.4677980127045187e-04 -1.2293343883788979e-02 0.0000000000000000e+00 -1.2293343883788979e-02 -7.8205984217378580e-03 0.0000000000000000e+00 0.0000000000000000e+00 0.0000000000000000e+00 0.0000000000000000e+00  4.1988026212202538e-02 1.2680140471252122e-02 0.0000000000000000e+00 1.2680140471252122e-02 1.8184803582013817e-03 0.0000000000000000e+00 0.0000000000000000e+00 0.0000000000000000e+00 0.0000000000000000e+00  -3.6645233152940257e-02 -1.2520971665267180e-01 0.0000000000000000e+00 -1.2520971665267180e-01 -6.7644046384392212e-02 0.0000000000000000e+00 0.0000000000000000e+00 0.0000000000000000e+00 0.0000000000000000e+00  -4.9271424469742908e-01 1.2316134690031438e-01 0.0000000000000000e+00 1.2316134690031438e-01 -1.1737710879931806e-02 0.0000000000000000e+00 0.0000000000000000e+00 0.0000000000000000e+00 0.0000000000000000e+00  -1.0020707990760569e-01 7.1252918079828115e-02 0.0000000000000000e+00 7.1252918079828115e-02 1.3979756536125149e-03 0.0000000000000000e+00 0.0000000000000000e+00 0.0000000000000000e+00 0.0000000000000000e+00  4.9219154610603125e-02 -4.8757041913935581e-02 0.0000000000000000e+00 -4.8757041913935581e-02 -1.7966257240090977e-01 0.0000000000000000e+00 0.0000000000000000e+00 0.0000000000000000e+00 0.0000000000000000e+00  -8.1814312208615819e-02 -2.4469846021207855e-02 0.0000000000000000e+00 -2.4469846021207855e-02 -1.8155422109455002e-01 0.0000000000000000e+00 0.0000000000000000e+00 0.0000000000000000e+00 0.0000000000000000e+00  -7.7054755761104099e-02 -1.2563844110091392e-02 0.0000000000000000e+00 -1.2563844110091392e-02 -1.4412424498609869e-01 0.0000000000000000e+00 0.0000000000000000e+00 0.0000000000000000e+00 0.0000000000000000e+00  -7.4858031922568874e-02 -1.1470545128430992e-02 0.0000000000000000e+00 -1.1470545128430992e-02 -1.1677209684009794e-01 0.0000000000000000e+00 0.0000000000000000e+00 0.0000000000000000e+00 0.0000000000000000e+00  -8.1428229948153921e-02 -1.2896359859417840e-02 0.0000000000000000e+00 -1.2896359859417840e-02 -1.1168685689602802e-01 0.0000000000000000e+00 0.0000000000000000e+00 0.0000000000000000e+00 0.0000000000000000e+00  -8.1967576895815783e-02 -2.7661468611369661e-03 0.0000000000000000e+00 -2.7661468611369661e-03 -1.1482079245058704e-01 0.0000000000000000e+00 0.0000000000000000e+00 0.0000000000000000e+00 0.0000000000000000e+00  -8.6091552910418867e-02 9.3286528183238685e-03 0.0000000000000000e+00 9.3286528183238685e-03 -1.0560879279605923e-01 0.0000000000000000e+00 0.0000000000000000e+00 0.0000000000000000e+00 0.0000000000000000e+00  -9.2857440213472073e-02 1.2557835517877652e-02 0.0000000000000000e+00 1.2557835517877652e-02 -8.8345397264114361e-02 0.0000000000000000e+00 0.0000000000000000e+00 0.0000000000000000e+00 0.0000000000000000e+00  -9.7117119542724159e-02 8.3898410283538144e-03 0.0000000000000000e+00 8.3898410283538144e-03 -7.4040159492446855e-02 0.0000000000000000e+00 0.0000000000000000e+00 0.0000000000000000e+00 0.0000000000000000e+00  -9.8380186224187968e-02 2.1204386788815175e-03 0.0000000000000000e+00 2.1204386788815175e-03 -6.6455888589756956e-02 0.0000000000000000e+00 0.0000000000000000e+00 0.0000000000000000e+00 0.0000000000000000e+00  -9.8853071599270537e-02 -3.5789062001391888e-03 0.0000000000000000e+00 -3.5789062001391888e-03 -6.4102357708494789e-02 0.0000000000000000e+00 0.0000000000000000e+00 0.0000000000000000e+00 0.0000000000000000e+00  -9.9862108515628753e-02 -9.0523903308784622e-03 0.0000000000000000e+00 -9.0523903308784622e-03 -6.5559258431100997e-02 0.0000000000000000e+00 0.0000000000000000e+00 0.0000000000000000e+00 0.0000000000000000e+00  -1.0047664377965398e-01 -1.4946401955904352e-02 0.0000000000000000e+00 -1.4946401955904352e-02 -7.1840078487503678e-02 0.0000000000000000e+00 0.0000000000000000e+00 0.0000000000000000e+00 0.0000000000000000e+00  -9.8448257383081147e-02 -1.9262208159284980e-02 0.0000000000000000e+00 -1.9262208159284980e-02 -8.4761977347130854e-02 0.0000000000000000e+00 0.0000000000000000e+00 0.0000000000000000e+00 0.0000000000000000e+00  -9.3453562803001558e-02 -1.6907146083772955e-02 0.0000000000000000e+00 -1.6907146083772955e-02 -1.0194660667156935e-01 0.0000000000000000e+00 0.0000000000000000e+00 0.0000000000000000e+00 0.0000000000000000e+00  -9.0031261841776122e-02 -4.9073761126281401e-03 0.0000000000000000e+00 -4.9073761126281401e-03 -1.1330998555530412e-01 0.0000000000000000e+00 0.0000000000000000e+00 0.0000000000000000e+00 0.0000000000000000e+00  -9.1074734444429400e-02 8.2465465383463592e-03 0.0000000000000000e+00 8.2465465383463592e-03 -1.1136373038253336e-01 0.0000000000000000e+00 0.0000000000000000e+00 0.0000000000000000e+00 0.0000000000000000e+00  -8.7638646810517334e-02 1.0299932648506500e-02 0.0000000000000000e+00 1.0299932648506500e-02 -1.1251394093668012e-01 0.0000000000000000e+00 0.0000000000000000e+00 0.0000000000000000e+00 0.0000000000000000e+00  -8.7094379913432676e-02 1.1439328133731025e-02 0.0000000000000000e+00 1.1439328133731025e-02 -1.3614225981817174e-01 0.0000000000000000e+00 0.0000000000000000e+00 0.0000000000000000e+00 0.0000000000000000e+00  -1.0288729708182019e-01 2.3742099718593927e-02 0.0000000000000000e+00 2.3742099718593927e-02 -1.7300336057359353e-01 0.0000000000000000e+00 0.0000000000000000e+00 0.0000000000000000e+00 0.0000000000000000e+00  -2.6292541906824361e-03 4.4036351079508741e-02 0.0000000000000000e+00 4.4036351079508741e-02 -1.9377935722802878e-01 0.0000000000000000e+00 0.0000000000000000e+00 0.0000000000000000e+00 0.0000000000000000e+00  -1.8133809996512384e-02 -5.7149521706340196e-03 0.0000000000000000e+00 -5.7149521706340196e-03 -5.0760389807131066e-02 0.0000000000000000e+00 0.0000000000000000e+00 0.0000000000000000e+00 0.0000000000000000e+00  -5.1754632993180305e-01 -1.8321900654177259e-01 0.0000000000000000e+00 -1.8321900654177259e-01 3.5560548713283784e-02 0.0000000000000000e+00 0.0000000000000000e+00 0.0000000000000000e+00 0.0000000000000000e+00  -1.4029487857634540e-01 1.3295642997364415e-01 0.0000000000000000e+00 1.3295642997364415e-01 -9.8521532472474152e-02 0.0000000000000000e+00 0.0000000000000000e+00 0.0000000000000000e+00 0.0000000000000000e+00  4.8092126134556150e-02 1.6988175576124504e-03 0.0000000000000000e+00 1.6988175576124504e-03 3.1904551343966319e-03 0.0000000000000000e+00 0.0000000000000000e+00 0.0000000000000000e+00 0.0000000000000000e+00  -2.8713586717254327e-03 7.6318687168806165e-03 0.0000000000000000e+00 7.6318687168806165e-03 -1.7755813637174718e-02 0.0000000000000000e+00 0.0000000000000000e+00 0.0000000000000000e+00 0.0000000000000000e+00  4.5798362175705062e-03 1.9394118260864781e-03 0.0000000000000000e+00 1.9394118260864781e-03 4.6986247947773145e-03 0.0000000000000000e+00 0.0000000000000000e+00 0.0000000000000000e+00 0.0000000000000000e+00  2.0883245369354834e-03 -4.0134420965185603e-04 0.0000000000000000e+00 -4.0134420965185603e-04 1.7899597034611492e-03 0.0000000000000000e+00 0.0000000000000000e+00 0.0000000000000000e+00 0.0000000000000000e+00  2.5914085374978252e-03 2.2142851889658127e-04 0.0000000000000000e+00 2.2142851889658127e-04 2.6383720540222493e-03 0.0000000000000000e+00 0.0000000000000000e+00 0.0000000000000000e+00 0.0000000000000000e+00  2.4302781284095631e-03 -3.7690815495710728e-05 0.0000000000000000e+00 -3.7690815495710734e-05 2.4511482626306674e-03 0.0000000000000000e+00 0.0000000000000000e+00 0.0000000000000000e+00 0.0000000000000000e+00  2.5051736010413862e-03 2.5688070181842175e-05 0.0000000000000000e+00 2.5688070181842175e-05 2.4749873326977783e-03 0.0000000000000000e+00 0.0000000000000000e+00 0.0000000000000000e+00 0.0000000000000000e+00  2.4894296719070682e-03 1.0864391189011009e-05 0.0000000000000000e+00 1.0864391189011009e-05 2.4387370978887425e-03 0.0000000000000000e+00 0.0000000000000000e+00 0.0000000000000000e+00 0.0000000000000000e+00  2.5002278298478253e-03 2.7870070899547607e-06 0.0000000000000000e+00 2.7870070899547607e-06 2.4321129166059428e-03 0.0000000000000000e+00 0.0000000000000000e+00 0.0000000000000000e+00 0.0000000000000000e+00  2.5002353625163277e-03 -6.7760041814099172e-06 0.0000000000000000e+00 -6.7760041814099172e-06 2.4333575391326102e-03 0.0000000000000000e+00 0.0000000000000000e+00 0.0000000000000000e+00 0.0000000000000000e+00  2.4890751590550438e-03 -1.3832585343864676e-05 0.0000000000000000e+00 -1.3832585343864676e-05 2.4430144201039168e-03 0.0000000000000000e+00 0.0000000000000000e+00 0.0000000000000000e+00 0.0000000000000000e+00  2.5010640488614087e-03 -2.9398578819848583e-05 0.0000000000000000e+00 -2.9398578819848583e-05 2.4794142473235151e-03 0.0000000000000000e+00 0.0000000000000000e+00 0.0000000000000000e+00 0.0000000000000000e+00  2.4156914482128243e-03 4.7223592924147157e-05 0.0000000000000000e+00 4.7223592924147157e-05 2.4650651559531395e-03 0.0000000000000000e+00 0.0000000000000000e+00 0.0000000000000000e+00 0.0000000000000000e+00  2.4492033742370065e-03 -2.8538495331078764e-04 0.0000000000000000e+00 -2.8538495331078764e-04 2.5632155601544200e-03 0.0000000000000000e+00 0.0000000000000000e+00 0.0000000000000000e+00 0.0000000000000000e+00  1.8016494028614512e-03 4.4072176837533047e-04 0.0000000000000000e+00 4.4072176837533047e-04 1.4798519968848732e-03 0.0000000000000000e+00 0.0000000000000000e+00 0.0000000000000000e+00 0.0000000000000000e+00  4.0501341275947563e-03 -1.8081840624352347e-03 0.0000000000000000e+00 -1.8081840624352347e-03 4.1150168863659485e-03 0.0000000000000000e+00 0.0000000000000000e+00 0.0000000000000000e+00 0.0000000000000000e+00  -2.8174240536206060e-03 -8.2153018171785067e-03 0.0000000000000000e+00 -8.2153018171785067e-03 -1.7962848761358098e-02 0.0000000000000000e+00 0.0000000000000000e+00 0.0000000000000000e+00 0.0000000000000000e+00  4.7109459669224418e-02 -1.8678856381974058e-04 0.0000000000000000e+00 -1.8678856381974058e-04 1.9439901312407679e-03 0.0000000000000000e+00 0.0000000000000000e+00 0.0000000000000000e+00 0.0000000000000000e+00  -1.3534002654242538e-01 -1.3315967329286316e-01 0.0000000000000000e+00 -1.3315967329286316e-01 -9.6360476264523487e-02 0.0000000000000000e+00 0.0000000000000000e+00 0.0000000000000000e+00 0.0000000000000000e+00  -5.1685559877018883e-01 1.8177113693230576e-01 0.0000000000000000e+00 1.8177113693230576e-01 3.5508962680355985e-02 0.0000000000000000e+00 0.0000000000000000e+00 0.0000000000000000e+00 0.0000000000000000e+00  -1.9269058432568882e-02 8.2262452629185308e-03 0.0000000000000000e+00 8.2262452629185308e-03 -4.7752118761172212e-02 0.0000000000000000e+00 0.0000000000000000e+00 0.0000000000000000e+00 0.0000000000000000e+00  1.0119610104327807e-03 -4.4296503848983371e-02 0.0000000000000000e+00 -4.4296503848983371e-02 -1.9307949591971185e-01 0.0000000000000000e+00 0.0000000000000000e+00 0.0000000000000000e+00 0.0000000000000000e+00  -1.0128545776318472e-01 -2.3635719736078784e-02 0.0000000000000000e+00 -2.3635719736078784e-02 -1.7332913212216766e-01 0.0000000000000000e+00 0.0000000000000000e+00 0.0000000000000000e+00 0.0000000000000000e+00  -8.5984852691693037e-02 -1.1225366946615037e-02 0.0000000000000000e+00 -1.1225366946615037e-02 -1.3656068083917550e-01 0.0000000000000000e+00 0.0000000000000000e+00 0.0000000000000000e+00 0.0000000000000000e+00  -8.6599141533172858e-02 -1.0053180344349802e-02 0.0000000000000000e+00 -1.0053180344349802e-02 -1.1291545241212698e-01 0.0000000000000000e+00 0.0000000000000000e+00 0.0000000000000000e+00 0.0000000000000000e+00  -9.0259595995238209e-02 -8.0609734191872794e-03 0.0000000000000000e+00 -8.0609734191872794e-03 -1.1163749254331337e-01 0.0000000000000000e+00 0.0000000000000000e+00 0.0000000000000000e+00 0.0000000000000000e+00  -8.9343253563855987e-02 5.0184605300143117e-03 0.0000000000000000e+00 5.0184605300143117e-03 -1.1352965674544432e-01 0.0000000000000000e+00 0.0000000000000000e+00 0.0000000000000000e+00 0.0000000000000000e+00  -9.2841775702463339e-02 1.6978461450071498e-02 0.0000000000000000e+00 1.6978461450071498e-02 -1.0213219457684554e-01 0.0000000000000000e+00 0.0000000000000000e+00 0.0000000000000000e+00 0.0000000000000000e+00  -9.7906075694765185e-02 1.9292278301204929e-02 0.0000000000000000e+00 1.9292278301204929e-02 -8.4891386891115805e-02 0.0000000000000000e+00 0.0000000000000000e+00 0.0000000000000000e+00 0.0000000000000000e+00  -9.9984197296631480e-02 1.4919808312458604e-02 0.0000000000000000e+00 1.4919808312458604e-02 -7.1924670592796086e-02 0.0000000000000000e+00 0.0000000000000000e+00 0.0000000000000000e+00 0.0000000000000000e+00  -9.9391083091583204e-02 8.9781660913893068e-03 0.0000000000000000e+00 8.9781660913893068e-03 -6.5632941695500602e-02 0.0000000000000000e+00 0.0000000000000000e+00 0.0000000000000000e+00 0.0000000000000000e+00  -9.8393889589227956e-02 3.4895129352721251e-03 0.0000000000000000e+00 3.4895129352721251e-03 -6.4176475270376537e-02 0.0000000000000000e+00 0.0000000000000000e+00 0.0000000000000000e+00 0.0000000000000000e+00  -9.7949343355195770e-02 -2.1989845702787476e-03 0.0000000000000000e+00 -2.1989845702787476e-03 -6.6503072202573690e-02 0.0000000000000000e+00 0.0000000000000000e+00 0.0000000000000000e+00 0.0000000000000000e+00  -9.6744924512674094e-02 -8.4658660333158647e-03 0.0000000000000000e+00 -8.4658660333158647e-03 -7.4018564758896344e-02 0.0000000000000000e+00 0.0000000000000000e+00 0.0000000000000000e+00 0.0000000000000000e+00  -9.2561067820518150e-02 -1.2677765938950158e-02 0.0000000000000000e+00 -1.2677765938950158e-02 -8.8248012885780380e-02 0.0000000000000000e+00 0.0000000000000000e+00 0.0000000000000000e+00 0.0000000000000000e+00  -8.5842806227441490e-02 -9.5391558724922734e-03 0.0000000000000000e+00 -9.5391558724922734e-03 -1.0550500275971422e-01 0.0000000000000000e+00 0.0000000000000000e+00 0.0000000000000000e+00 0.0000000000000000e+00  -8.1717987412905896e-02 2.4973019953995752e-03 0.0000000000000000e+00 2.4973019953995752e-03 -1.1481035082468426e-01 0.0000000000000000e+00 0.0000000000000000e+00 0.0000000000000000e+00 0.0000000000000000e+00  -8.1220449638707101e-02 1.2689154485643599e-02 0.0000000000000000e+00 1.2689154485643599e-02 -1.1171288448177721e-01 0.0000000000000000e+00 0.0000000000000000e+00 0.0000000000000000e+00 0.0000000000000000e+00  -7.4742570273950523e-02 1.1313600539721492e-02 0.0000000000000000e+00 1.1313600539721492e-02 -1.1663572585150395e-01 0.0000000000000000e+00 0.0000000000000000e+00 0.0000000000000000e+00 0.0000000000000000e+00  -7.6783185994463043e-02 1.2282787596657716e-02 0.0000000000000000e+00 1.2282787596657716e-02 -1.4387542051085520e-01 0.0000000000000000e+00 0.0000000000000000e+00 0.0000000000000000e+00 0.0000000000000000e+00  -8.1937635629495464e-02 2.4141158953168106e-02 0.0000000000000000e+00 2.4141158953168106e-02 -1.8130594075542761e-01 0.0000000000000000e+00 0.0000000000000000e+00 0.0000000000000000e+00 0.0000000000000000e+00  4.8350331114296825e-02 4.8529200212989530e-02 0.0000000000000000e+00 4.8529200212989530e-02 -1.8009878931198434e-01 0.0000000000000000e+00 0.0000000000000000e+00 0.0000000000000000e+00 0.0000000000000000e+00  -9.6820592743286429e-02 -6.9761828936380568e-02 0.0000000000000000e+00 -6.9761828936380568e-02 1.0124098504993995e-04 0.0000000000000000e+00 0.0000000000000000e+00 0.0000000000000000e+00 0.0000000000000000e+00  -4.9395981409773548e-01 -1.2556895081249037e-01 0.0000000000000000e+00 -1.2556895081249037e-01 -1.1081549951959410e-02 0.0000000000000000e+00 0.0000000000000000e+00 0.0000000000000000e+00 0.0000000000000000e+00  -3.8219269871246742e-02 1.2603767199946050e-01 0.0000000000000000e+00 1.2603767199946050e-01 -6.8447158650616235e-02 0.0000000000000000e+00 0.0000000000000000e+00 0.0000000000000000e+00 0.0000000000000000e+00  4.2865143055814403e-02 -1.2486427456482593e-02 0.0000000000000000e+00 -1.2486427456482593e-02 2.8530017255231012e-03 0.0000000000000000e+00 0.0000000000000000e+00 0.0000000000000000e+00 0.0000000000000000e+00  2.0522440111553526e-04 1.2048924515138061e-02 0.0000000000000000e+00 1.2048924515138061e-02 -8.1479047413809593e-03 0.0000000000000000e+00 0.0000000000000000e+00 0.0000000000000000e+00 0.0000000000000000e+00  1.0526875282351730e-02 -1.1864821130288979e-03 0.0000000000000000e+00 -1.1864821130288979e-03 1.0343769431742644e-02 0.0000000000000000e+00 0.0000000000000000e+00 0.0000000000000000e+00 0.0000000000000000e+00  6.6752882222886742e-03 5.2521190787496329e-04 0.0000000000000000e+00 5.2521190787496329e-04 6.3771945322121252e-03 0.0000000000000000e+00 0.0000000000000000e+00 0.0000000000000000e+00 0.0000000000000000e+00  7.7921395008603003e-03 -7.8395831414365168e-05 0.0000000000000000e+00 -7.8395831414365168e-05 7.7673819533088705e-03 0.0000000000000000e+00 0.0000000000000000e+00 0.0000000000000000e+00 0.0000000000000000e+00  7.4600815184663501e-03 3.5400918556343211e-05 0.0000000000000000e+00 3.5400918556343211e-05 7.4336938057843844e-03 0.0000000000000000e+00 0.0000000000000000e+00 0.0000000000000000e+00 0.0000000000000000e+00  7.5643316948435712e-03 -4.6383381010642730e-06 0.0000000000000000e+00 -4.6383381010642730e-06 7.5500936033135353e-03 0.0000000000000000e+00 0.0000000000000000e+00 0.0000000000000000e+00 0.0000000000000000e+00  7.5284299678137125e-03 6.3549171805580905e-06 0.0000000000000000e+00 6.3549171805580905e-06 7.5310806521297876e-03 0.0000000000000000e+00 0.0000000000000000e+00 0.0000000000000000e+00 0.0000000000000000e+00  7.5340878377252929e-03 2.3063643002541634e-06 0.0000000000000000e+00 2.3063643002541630e-06 7.5481929374779776e-03 0.0000000000000000e+00 0.0000000000000000e+00 0.0000000000000000e+00 0.0000000000000000e+00  7.5296082571782528e-03 5.9788562629125446e-06 0.0000000000000000e+00 5.9788562629125446e-06 7.5522207534533536e-03 0.0000000000000000e+00 0.0000000000000000e+00 0.0000000000000000e+00 0.0000000000000000e+00  7.5291775773253600e-03 8.9495735285318871e-06 0.0000000000000000e+00 8.9495735285318871e-06 7.5557373017446569e-03 0.0000000000000000e+00 0.0000000000000000e+00 0.0000000000000000e+00 0.0000000000000000e+00  7.5292719095454499e-03 1.3718374797876355e-05 0.0000000000000000e+00 1.3718374797876355e-05 7.5550019807448538e-03 0.0000000000000000e+00 0.0000000000000000e+00 0.0000000000000000e+00 0.0000000000000000e+00  7.5307992682015212e-03 1.9309279173332801e-05 0.0000000000000000e+00 1.9309279173332801e-05 7.5504682287944611e-03 0.0000000000000000e+00 0.0000000000000000e+00 0.0000000000000000e+00 0.0000000000000000e+00  7.5336966661627442e-03 2.5754810797024946e-05 0.0000000000000000e+00 2.5754810797024946e-05 7.5417050901978519e-03 0.0000000000000000e+00 0.0000000000000000e+00 0.0000000000000000e+00 0.0000000000000000e+00  7.5864360809731364e-03 -2.3577250532523758e-05 0.0000000000000000e+00 -2.3577250532523758e-05 7.5950435933923727e-03 0.0000000000000000e+00 0.0000000000000000e+00 0.0000000000000000e+00 0.0000000000000000e+00  7.5832297980787345e-03 -1.8151131242128245e-05 0.0000000000000000e+00 -1.8151131242128245e-05 7.6045328379223910e-03 0.0000000000000000e+00 0.0000000000000000e+00 0.0000000000000000e+00 0.0000000000000000e+00  7.5813361596682137e-03 -1.3605093415959983e-05 0.0000000000000000e+00 -1.3605093415959983e-05 7.6098409499358883e-03 0.0000000000000000e+00 0.0000000000000000e+00 0.0000000000000000e+00 0.0000000000000000e+00  7.5805245064900599e-03 -1.0079680812373158e-05 0.0000000000000000e+00 -1.0079680812373158e-05 7.6112434772277948e-03 0.0000000000000000e+00 0.0000000000000000e+00 0.0000000000000000e+00 0.0000000000000000e+00  7.5809544711886593e-03 -7.5065646488677056e-06 0.0000000000000000e+00 -7.5065646488677056e-06 7.6093716965719782e-03 0.0000000000000000e+00 0.0000000000000000e+00 0.0000000000000000e+00 0.0000000000000000e+00  7.5813009725803956e-03 -6.7279503750054683e-06 0.0000000000000000e+00 -6.7279503750054683e-06 7.6034964099157510e-03 0.0000000000000000e+00 0.0000000000000000e+00 0.0000000000000000e+00 0.0000000000000000e+00  7.5858471233734466e-03 -5.6643818789952858e-06 0.0000000000000000e+00 -5.6643818789952858e-06 7.5980146519369950e-03 0.0000000000000000e+00 0.0000000000000000e+00 0.0000000000000000e+00 0.0000000000000000e+00  7.5785218898087522e-03 -1.0086816815468021e-05 0.0000000000000000e+00 -1.0086816815468021e-05 7.5788096041444417e-03 0.0000000000000000e+00 0.0000000000000000e+00 0.0000000000000000e+00 0.0000000000000000e+00  7.6031836136607103e-03 -3.4023726981062345e-06 0.0000000000000000e+00 -3.4023726981062345e-06 7.5936525145639906e-03 0.0000000000000000e+00 0.0000000000000000e+00 0.0000000000000000e+00 0.0000000000000000e+00  7.4733933819402451e-03 -5.2690246956008586e-05 0.0000000000000000e+00 -5.2690246956008586e-05 7.4531821348981387e-03 0.0000000000000000e+00 0.0000000000000000e+00 0.0000000000000000e+00 0.0000000000000000e+00  7.6129324368752697e-03 1.1790642817840119e-04 0.0000000000000000e+00 1.1790642817840119e-04 7.5909427046482311e-03 0.0000000000000000e+00 0.0000000000000000e+00 0.0000000000000000e+00 0.0000000000000000e+00  6.6206054737614007e-03 -7.6741996137388315e-04 0.0000000000000000e+00 -7.6741996137388315e-04 6.2625093241181545e-03 0.0000000000000000e+00 0.0000000000000000e+00 0.0000000000000000e+00 0.0000000000000000e+00  9.8786188666496102e-03 2.1753037371131131e-03 0.0000000000000000e+00 2.1753037371131131e-03 9.0475442118233326e-03 0.0000000000000000e+00 0.0000000000000000e+00 0.0000000000000000e+00 0.0000000000000000e+00  5.3086508754873083e-03 -9.5873838051081552e-03 0.0000000000000000e+00 -9.5873838051081552e-03 1.4465389208112947e-03 0.0000000000000000e+00 0.0000000000000000e+00 0.0000000000000000e+00 0.0000000000000000e+00  2.2930428306595203e-02 5.6132593591024160e-03 0.0000000000000000e+00 5.6132593591024160e-03 -1.8928599449948666e-02 0.0000000000000000e+00 0.0000000000000000e+00 0.0000000000000000e+00 0.0000000000000000e+00  7.7919246193895467e-02 -2.2902345852625353e-02 0.0000000000000000e+00 -2.2902345852625353e-02 5.3127122348858866e-03 0.0000000000000000e+00 0.0000000000000000e+00 0.0000000000000000e+00 0.0000000000000000e+00  -1.7606716208915793e-01 -1.0983321733263618e-01 0.0000000000000000e+00 -1.0983321733263618e-01 -2.8970356405410728e-02 0.0000000000000000e+00 0.0000000000000000e+00 0.0000000000000000e+00 0.0000000000000000e+00  -4.7350348943768467e-01 1.5488525046614812e-01 0.0000000000000000e+00 1.5488525046614812e-01 1.6690169722318762e-01 0.0000000000000000e+00 0.0000000000000000e+00 0.0000000000000000e+00 0.0000000000000000e+00  -6.4666733475858773e-02 1.8609724895094590e-02 0.0000000000000000e+00 1.8609724895094590e-02 -3.9960571955856448e-03 0.0000000000000000e+00 0.0000000000000000e+00 0.0000000000000000e+00 0.0000000000000000e+00  1.9068492052721878e-02 -1.0646928020416981e-02 0.0000000000000000e+00 -1.0646928020416981e-02 -2.2149623485470246e-01 0.0000000000000000e+00 0.0000000000000000e+00 0.0000000000000000e+00 0.0000000000000000e+00  -1.0105706352063011e-01 -8.1226824400196500e-03 0.0000000000000000e+00 -8.1226824400196500e-03 -2.2209178914391087e-01 0.0000000000000000e+00 0.0000000000000000e+00 0.0000000000000000e+00 0.0000000000000000e+00  -1.0333805535214792e-01 -2.8679802915878481e-02 0.0000000000000000e+00 -2.8679802915878481e-02 -2.0483991536240545e-01 0.0000000000000000e+00 0.0000000000000000e+00 0.0000000000000000e+00 0.0000000000000000e+00  -7.7163662278434367e-02 -4.0962175807106134e-03 0.0000000000000000e+00 -4.0962175807106134e-03 -1.9823691394367313e-01 0.0000000000000000e+00 0.0000000000000000e+00 0.0000000000000000e+00 0.0000000000000000e+00  -7.8446934744409696e-02 1.6394553537420548e-02 0.0000000000000000e+00 1.6394553537420548e-02 -1.6709223416784844e-01 0.0000000000000000e+00 0.0000000000000000e+00 0.0000000000000000e+00 0.0000000000000000e+00  -8.5876438753669210e-02 1.6220931585390844e-02 0.0000000000000000e+00 1.6220931585390844e-02 -1.2911584576640145e-01 0.0000000000000000e+00 0.0000000000000000e+00 0.0000000000000000e+00 0.0000000000000000e+00  -8.6726062351525510e-02 7.0674635605448141e-03 0.0000000000000000e+00 7.0674635605448141e-03 -1.0453056848412497e-01 0.0000000000000000e+00 0.0000000000000000e+00 0.0000000000000000e+00 0.0000000000000000e+00  -8.3905082880026571e-02 -8.3025730238642340e-05 0.0000000000000000e+00 -8.3025730238642340e-05 -9.4269993140570219e-02 0.0000000000000000e+00 0.0000000000000000e+00 0.0000000000000000e+00 0.0000000000000000e+00  -8.2511986930600384e-02 -3.1372710561119632e-03 0.0000000000000000e+00 -3.1372710561119632e-03 -9.1827175506336636e-02 0.0000000000000000e+00 0.0000000000000000e+00 0.0000000000000000e+00 0.0000000000000000e+00  -8.4805998252596049e-02 -5.6320188428841469e-03 0.0000000000000000e+00 -5.6320188428841469e-03 -9.3476434482217277e-02 0.0000000000000000e+00 0.0000000000000000e+00 0.0000000000000000e+00 0.0000000000000000e+00  -8.9207295994320063e-02 -1.1582766464990339e-02 0.0000000000000000e+00 -1.1582766464990339e-02 -1.0183937772788083e-01 0.0000000000000000e+00 0.0000000000000000e+00 0.0000000000000000e+00 0.0000000000000000e+00  -9.0941631788888325e-02 -2.0321185597338313e-02 0.0000000000000000e+00 -2.0321185597338313e-02 -1.2344893464258304e-01 0.0000000000000000e+00 0.0000000000000000e+00 0.0000000000000000e+00 0.0000000000000000e+00  -8.5898616312751364e-02 -2.2452695064855969e-02 0.0000000000000000e+00 -2.2452695064855969e-02 -1.5985717768873908e-01 0.0000000000000000e+00 0.0000000000000000e+00 0.0000000000000000e+00 0.0000000000000000e+00  -8.2777943198258153e-02 -4.8342795913743023e-03 0.0000000000000000e+00 -4.8342795913743023e-03 -1.9453806980242300e-01 0.0000000000000000e+00 0.0000000000000000e+00 0.0000000000000000e+00 0.0000000000000000e+00  -1.0543536082888939e-01 2.4158322576847205e-02 0.0000000000000000e+00 2.4158322576847205e-02 -2.0482683726886791e-01 0.0000000000000000e+00 0.0000000000000000e+00 0.0000000000000000e+00 0.0000000000000000e+00  -1.1977295420523905e-01 1.4368157415018512e-02 0.0000000000000000e+00 1.4368157415018512e-02 -2.1659680038507245e-01 0.0000000000000000e+00 0.0000000000000000e+00 0.0000000000000000e+00 0.0000000000000000e+00  -1.7662052182878793e-02 4.0234101891476418e-03 0.0000000000000000e+00 4.0234101891476418e-03 -2.3337658298670430e-01 0.0000000000000000e+00 0.0000000000000000e+00 0.0000000000000000e+00 0.0000000000000000e+00  -1.7171184280193791e-02 1.0759419579636028e-02 0.0000000000000000e+00 1.0759419579636028e-02 -6.7627534516786533e-02 0.0000000000000000e+00 0.0000000000000000e+00 0.0000000000000000e+00 0.0000000000000000e+00  -4.2915080673501965e-01 -1.5327126846782940e-01 0.0000000000000000e+00 -1.5327126846782940e-01 1.7687581858521734e-01 0.0000000000000000e+00 0.0000000000000000e+00 0.0000000000000000e+00 0.0000000000000000e+00  -2.8953442140533864e-01 6.1533321143457657e-02 0.0000000000000000e+00 6.1533321143457657e-02 4.7797972274229361e-03 0.0000000000000000e+00 0.0000000000000000e+00 0.0000000000000000e+00 0.0000000000000000e+00  6.4340982481648740e-02 5.9605562046139003e-02 0.0000000000000000e+00 5.9605562046139003e-02 -6.0812784757067794e-03 0.0000000000000000e+00 0.0000000000000000e+00 0.0000000000000000e+00 0.0000000000000000e+00  3.4808294310141742e-02 -1.4310207550410273e-02 0.0000000000000000e+00 -1.4310207550410273e-02 -1.7743295156964267e-02 0.0000000000000000e+00 0.0000000000000000e+00 0.0000000000000000e+00 0.0000000000000000e+00  -1.5786849865972758e-03 1.1358570585118058e-02 0.0000000000000000e+00 1.1358570585118058e-02 -1.0388423973709269e-02 0.0000000000000000e+00 0.0000000000000000e+00 0.0000000000000000e+00 0.0000000000000000e+00  5.0966229939200802e-03 -1.1574517347946712e-03 0.0000000000000000e+00 -1.1574517347946712e-03 4.6231073971894554e-03 0.0000000000000000e+00 0.0000000000000000e+00 0.0000000000000000e+00 0.0000000000000000e+00  1.7259472394618798e-03 2.8963547383124101e-04 0.0000000000000000e+00 2.8963547383124101e-04 1.3202830642302533e-03 0.0000000000000000e+00 0.0000000000000000e+00 0.0000000000000000e+00 0.0000000000000000e+00  2.6076147218250644e-03 6.9649930667559616e-05 0.0000000000000000e+00 6.9649930667559616e-05 2.7518399987403997e-03 0.0000000000000000e+00 0.0000000000000000e+00 0.0000000000000000e+00 0.0000000000000000e+00  2.4466713835114679e-03 -3.5956430675142690e-05 0.0000000000000000e+00 -3.5956430675142690e-05 2.4442550151758760e-03 0.0000000000000000e+00 0.0000000000000000e+00 0.0000000000000000e+00 0.0000000000000000e+00  2.5107095333415643e-03 2.3826892570783206e-05 0.0000000000000000e+00 2.3826892570783206e-05 2.4973826877260886e-03 0.0000000000000000e+00 0.0000000000000000e+00 0.0000000000000000e+00 0.0000000000000000e+00  2.4995992912328108e-03 5.2882120217119735e-06 0.0000000000000000e+00 5.2882120217119735e-06 2.4594134181133002e-03 0.0000000000000000e+00 0.0000000000000000e+00 0.0000000000000000e+00 0.0000000000000000e+00  2.5098226038439038e-03 7.6402221373264959e-06 0.0000000000000000e+00 7.6402221373264959e-06 2.4486917055119052e-03 0.0000000000000000e+00 0.0000000000000000e+00 0.0000000000000000e+00 0.0000000000000000e+00  2.5106591109296406e-03 1.3347461917116441e-06 0.0000000000000000e+00 1.3347461917116441e-06 2.4392369578423944e-03 0.0000000000000000e+00 0.0000000000000000e+00 0.0000000000000000e+00 0.0000000000000000e+00  2.5104495786952663e-03 -4.9627977819420434e-06 0.0000000000000000e+00 -4.9627977819420417e-06 2.4401839618775896e-03 0.0000000000000000e+00 0.0000000000000000e+00 0.0000000000000000e+00 0.0000000000000000e+00  2.5090821977216773e-03 -1.0564055114960643e-05 0.0000000000000000e+00 -1.0564055114960643e-05 2.4511428450764610e-03 0.0000000000000000e+00 0.0000000000000000e+00 0.0000000000000000e+00 0.0000000000000000e+00  2.4977304228177700e-03 -5.6433684268017036e-06 0.0000000000000000e+00 -5.6433684268017036e-06 2.4636293163526153e-03 0.0000000000000000e+00 0.0000000000000000e+00 0.0000000000000000e+00 0.0000000000000000e+00  2.4978566669912453e-03 -2.5916981255562875e-05 0.0000000000000000e+00 -2.5916981255562875e-05 2.4952791105424480e-03 0.0000000000000000e+00 0.0000000000000000e+00 0.0000000000000000e+00 0.0000000000000000e+00  2.3970501867136580e-03 4.0222245894146708e-05 0.0000000000000000e+00 4.0222245894146708e-05 2.4314799749662864e-03 0.0000000000000000e+00 0.0000000000000000e+00 0.0000000000000000e+00 0.0000000000000000e+00  2.3444427109908005e-03 -1.1010092936895811e-04 0.0000000000000000e+00 -1.1010092936895811e-04 2.4795811560098979e-03 0.0000000000000000e+00 0.0000000000000000e+00 0.0000000000000000e+00 0.0000000000000000e+00  1.4546085295654577e-03 -2.0141658647623894e-04 0.0000000000000000e+00 -2.0141658647623894e-04 9.2801872464201834e-04 0.0000000000000000e+00 0.0000000000000000e+00 0.0000000000000000e+00 0.0000000000000000e+00  5.0588772861150759e-03 1.3678715714268395e-03 0.0000000000000000e+00 1.3678715714268395e-03 4.7956570752990466e-03 0.0000000000000000e+00 0.0000000000000000e+00 0.0000000000000000e+00 0.0000000000000000e+00  -1.3940760509538973e-03 -1.1535780973907540e-02 0.0000000000000000e+00 -1.1535780973907540e-02 -9.9313404118773051e-03 0.0000000000000000e+00 0.0000000000000000e+00 0.0000000000000000e+00 0.0000000000000000e+00  3.3977420244623004e-02 1.3721483028584183e-02 0.0000000000000000e+00 1.3721483028584183e-02 -1.8693776371771942e-02 0.0000000000000000e+00 0.0000000000000000e+00 0.0000000000000000e+00 0.0000000000000000e+00  6.4906290881198064e-02 -5.7524342276362224e-02 0.0000000000000000e+00 -5.7524342276362224e-02 -5.6827305820004864e-03 0.0000000000000000e+00 0.0000000000000000e+00 0.0000000000000000e+00 0.0000000000000000e+00  -2.8397131649811735e-01 -6.4334219055134548e-02 0.0000000000000000e+00 -6.4334219055134548e-02 2.8657724920074703e-03 0.0000000000000000e+00 0.0000000000000000e+00 0.0000000000000000e+00 0.0000000000000000e+00  -4.3136267159954228e-01 1.5429976744152502e-01 0.0000000000000000e+00 1.5429976744152502e-01 1.7607868537860893e-01 0.0000000000000000e+00 0.0000000000000000e+00 0.0000000000000000e+00 0.0000000000000000e+00  -1.7492803671600481e-02 -9.5781539974591004e-03 0.0000000000000000e+00 -9.5781539974591004e-03 -6.5232848414359057e-02 0.0000000000000000e+00 0.0000000000000000e+00 0.0000000000000000e+00 0.0000000000000000e+00  -1.5481986870602421e-02 -3.9853752296537216e-03 0.0000000000000000e+00 -3.9853752296537216e-03 -2.3327947092202528e-01 0.0000000000000000e+00 0.0000000000000000e+00 0.0000000000000000e+00 0.0000000000000000e+00  -1.1865988050911545e-01 -1.3837907919130645e-02 0.0000000000000000e+00 -1.3837907919130645e-02 -2.1703781686799734e-01 0.0000000000000000e+00 0.0000000000000000e+00 0.0000000000000000e+00 0.0000000000000000e+00  -1.0480544067885765e-01 -2.3852884043649481e-02 0.0000000000000000e+00 -2.3852884043649481e-02 -2.0503392942475004e-01 0.0000000000000000e+00 0.0000000000000000e+00 0.0000000000000000e+00 0.0000000000000000e+00  -8.2105275835481342e-02 4.9948462860423789e-03 0.0000000000000000e+00 4.9948462860423789e-03 -1.9474847642020740e-01 0.0000000000000000e+00 0.0000000000000000e+00 0.0000000000000000e+00 0.0000000000000000e+00  -8.5238524749203862e-02 2.2594692285943446e-02 0.0000000000000000e+00 2.2594692285943446e-02 -1.6004486057415659e-01 0.0000000000000000e+00 0.0000000000000000e+00 0.0000000000000000e+00 0.0000000000000000e+00  -9.0350209558050898e-02 2.0410190550946429e-02 0.0000000000000000e+00 2.0410190550946429e-02 -1.2353062394031193e-01 0.0000000000000000e+00 0.0000000000000000e+00 0.0000000000000000e+00 0.0000000000000000e+00  -8.8658704042075709e-02 1.1575244253977541e-02 0.0000000000000000e+00 1.1575244253977541e-02 -1.0183849936423081e-01 0.0000000000000000e+00 0.0000000000000000e+00 0.0000000000000000e+00 0.0000000000000000e+00  -8.4259750383731444e-02 5.5473356179795803e-03 0.0000000000000000e+00 5.5473356179795803e-03 -9.3474258694428297e-02 0.0000000000000000e+00 0.0000000000000000e+00 0.0000000000000000e+00 0.0000000000000000e+00  -8.1954590543309239e-02 3.0442249783803753e-03 0.0000000000000000e+00 3.0442249783803753e-03 -9.1851201073343644e-02 0.0000000000000000e+00 0.0000000000000000e+00 0.0000000000000000e+00 0.0000000000000000e+00  -8.3359908237374991e-02 3.8480881067679905e-05 0.0000000000000000e+00 3.8480881067679905e-05 -9.4267756877576700e-02 0.0000000000000000e+00 0.0000000000000000e+00 0.0000000000000000e+00 0.0000000000000000e+00  -8.6240350696049475e-02 -7.0614616469238242e-03 0.0000000000000000e+00 -7.0614616469238242e-03 -1.0441258079081536e-01 0.0000000000000000e+00 0.0000000000000000e+00 0.0000000000000000e+00 0.0000000000000000e+00  -8.5492753797874355e-02 -1.6241373730282224e-02 0.0000000000000000e+00 -1.6241373730282224e-02 -1.2883687255766021e-01 0.0000000000000000e+00 0.0000000000000000e+00 0.0000000000000000e+00 0.0000000000000000e+00  -7.8143327144493666e-02 -1.6564987274682176e-02 0.0000000000000000e+00 -1.6564987274682176e-02 -1.6675073197183046e-01 0.0000000000000000e+00 0.0000000000000000e+00 0.0000000000000000e+00 0.0000000000000000e+00  -7.6754126464528241e-02 3.7486352650586202e-03 0.0000000000000000e+00 3.7486352650586202e-03 -1.9806239122751468e-01 0.0000000000000000e+00 0.0000000000000000e+00 0.0000000000000000e+00 0.0000000000000000e+00  -1.0279214774614712e-01 2.8486514402113701e-02 0.0000000000000000e+00 2.8486514402113701e-02 -2.0479780218078988e-01 0.0000000000000000e+00 0.0000000000000000e+00 0.0000000000000000e+00 0.0000000000000000e+00  -1.0121963732125323e-01 8.2338995399601749e-03 0.0000000000000000e+00 8.2338995399601749e-03 -2.2177004418416210e-01 0.0000000000000000e+00 0.0000000000000000e+00 0.0000000000000000e+00 0.0000000000000000e+00  1.8367344039329190e-02 1.0231743541412524e-02 0.0000000000000000e+00 1.0231743541412524e-02 -2.2193531463799468e-01 0.0000000000000000e+00 0.0000000000000000e+00 0.0000000000000000e+00 0.0000000000000000e+00  -6.2106280053191625e-02 -1.7792111720007036e-02 0.0000000000000000e+00 -1.7792111720007036e-02 -6.2485079458496247e-03 0.0000000000000000e+00 0.0000000000000000e+00 0.0000000000000000e+00 0.0000000000000000e+00  -4.7215123054119079e-01 -1.5575283379255411e-01 0.0000000000000000e+00 -1.5575283379255411e-01 1.6773299385938958e-01 0.0000000000000000e+00 0.0000000000000000e+00 0.0000000000000000e+00 0.0000000000000000e+00  -1.7938517588173175e-01 1.0871887507537191e-01 0.0000000000000000e+00 1.0871887507537191e-01 -2.8816478886827524e-02 0.0000000000000000e+00 0.0000000000000000e+00 0.0000000000000000e+00 0.0000000000000000e+00  7.8290768127433616e-02 2.4103716436277810e-02 0.0000000000000000e+00 2.4103716436277810e-02 5.6469911725347778e-03 0.0000000000000000e+00 0.0000000000000000e+00 0.0000000000000000e+00 0.0000000000000000e+00  2.3330885521258775e-02 -6.2653497810559386e-03 0.0000000000000000e+00 -6.2653497810559360e-03 -1.8166741000826821e-02 0.0000000000000000e+00 0.0000000000000000e+00 0.0000000000000000e+00 0.0000000000000000e+00  5.1567359161443531e-03 9.5859736354712982e-03 0.0000000000000000e+00 9.5859736354712982e-03 1.2558158028971173e-03 0.0000000000000000e+00 0.0000000000000000e+00 0.0000000000000000e+00 0.0000000000000000e+00  9.4988843819768468e-03 -2.0645583059042093e-03 0.0000000000000000e+00 -2.0645583059042093e-03 8.4774693083284475e-03 0.0000000000000000e+00 0.0000000000000000e+00 0.0000000000000000e+00 0.0000000000000000e+00  6.5863206975689849e-03 8.2931499554999113e-04 0.0000000000000000e+00 8.2931499554999113e-04 6.3821532081472839e-03 0.0000000000000000e+00 0.0000000000000000e+00 0.0000000000000000e+00 0.0000000000000000e+00  7.7174031150425938e-03 -1.4179928784429526e-04 0.0000000000000000e+00 -1.4179928784429526e-04 7.7458617042612974e-03 0.0000000000000000e+00 0.0000000000000000e+00 0.0000000000000000e+00 0.0000000000000000e+00  7.4468173671888580e-03 5.9104912164796674e-05 0.0000000000000000e+00 5.9104912164796674e-05 7.4154131699067484e-03 0.0000000000000000e+00 0.0000000000000000e+00 0.0000000000000000e+00 0.0000000000000000e+00  7.5509075827289475e-03 3.7551038266124980e-06 0.0000000000000000e+00 3.7551038266124980e-06 7.5437054286850462e-03 0.0000000000000000e+00 0.0000000000000000e+00 0.0000000000000000e+00 0.0000000000000000e+00  7.5189576829366800e-03 1.0896249007510328e-05 0.0000000000000000e+00 1.0896249007510328e-05 7.5219789861780727e-03 0.0000000000000000e+00 0.0000000000000000e+00 0.0000000000000000e+00 0.0000000000000000e+00  7.5259316782839026e-03 5.2450261977819154e-06 0.0000000000000000e+00 5.2450261977819154e-06 7.5404083078604170e-03 0.0000000000000000e+00 0.0000000000000000e+00 0.0000000000000000e+00 0.0000000000000000e+00  7.5215007196474462e-03 5.9049542753148799e-06 0.0000000000000000e+00 5.9049542753148799e-06 7.5450641766188582e-03 0.0000000000000000e+00 0.0000000000000000e+00 0.0000000000000000e+00 0.0000000000000000e+00  7.5213143558742999e-03 6.5734794120845077e-06 0.0000000000000000e+00 6.5734794120845077e-06 7.5505187705425933e-03 0.0000000000000000e+00 0.0000000000000000e+00 0.0000000000000000e+00 0.0000000000000000e+00  7.5210258914837173e-03 9.1236397929156313e-06 0.0000000000000000e+00 9.1236397929156313e-06 7.5520680800446414e-03 0.0000000000000000e+00 0.0000000000000000e+00 0.0000000000000000e+00 0.0000000000000000e+00  7.5219322044493397e-03 1.2587849563787453e-05 0.0000000000000000e+00 1.2587849563787453e-05 7.5504717388270434e-03 0.0000000000000000e+00 0.0000000000000000e+00 0.0000000000000000e+00 0.0000000000000000e+00  7.5238666081504221e-03 1.6954775779322157e-05 0.0000000000000000e+00 1.6954775779322157e-05 7.5450815168354602e-03 0.0000000000000000e+00 0.0000000000000000e+00 0.0000000000000000e+00 0.0000000000000000e+00  7.5270657115047730e-03 2.1995519732093898e-05 0.0000000000000000e+00 2.1995519732093898e-05 7.5356105815604316e-03 0.0000000000000000e+00 0.0000000000000000e+00 0.0000000000000000e+00 0.0000000000000000e+00  7.5805752860648029e-03 -1.9499635459106370e-05 0.0000000000000000e+00 -1.9499635459106370e-05 7.5898802590913163e-03 0.0000000000000000e+00 0.0000000000000000e+00 0.0000000000000000e+00 0.0000000000000000e+00  7.5770155124589489e-03 -1.5420647292394443e-05 0.0000000000000000e+00 -1.5420647292394443e-05 7.6001626412166611e-03 0.0000000000000000e+00 0.0000000000000000e+00 0.0000000000000000e+00 0.0000000000000000e+00  7.5745707555322853e-03 -1.1983382967940270e-05 0.0000000000000000e+00 -1.1983382967940270e-05 7.6062572882450667e-03 0.0000000000000000e+00 0.0000000000000000e+00 0.0000000000000000e+00 0.0000000000000000e+00  7.5729886578227131e-03 -9.3051186566805317e-06 0.0000000000000000e+00 -9.3051186566805317e-06 7.6086814793249226e-03 0.0000000000000000e+00 0.0000000000000000e+00 0.0000000000000000e+00 0.0000000000000000e+00  7.5719659229834552e-03 -7.6563888018123304e-06 0.0000000000000000e+00 -7.6563888018123304e-06 7.6077113200794088e-03 0.0000000000000000e+00 0.0000000000000000e+00 0.0000000000000000e+00 0.0000000000000000e+00  7.5717505106301175e-03 -7.0192689050691120e-06 0.0000000000000000e+00 -7.0192689050691120e-06 7.6039754709531903e-03 0.0000000000000000e+00 0.0000000000000000e+00 0.0000000000000000e+00 0.0000000000000000e+00  7.5709227210041339e-03 -8.0323422196373619e-06 0.0000000000000000e+00 -8.0323422196373619e-06 7.5964602324771809e-03 0.0000000000000000e+00 0.0000000000000000e+00 0.0000000000000000e+00 0.0000000000000000e+00  7.5736712192148664e-03 -9.0068309321394876e-06 0.0000000000000000e+00 -9.0068309321394876e-06 7.5893512304616674e-03 0.0000000000000000e+00 0.0000000000000000e+00 0.0000000000000000e+00 0.0000000000000000e+00  7.5647678662863630e-03 -1.6242090758341650e-05 0.0000000000000000e+00 -1.6242090758341650e-05 7.5667408356032860e-03 0.0000000000000000e+00 0.0000000000000000e+00 0.0000000000000000e+00 0.0000000000000000e+00  7.5768806132150302e-03 -1.1780026976839091e-05 0.0000000000000000e+00 -1.1780026976839091e-05 7.5733415116022778e-03 0.0000000000000000e+00 0.0000000000000000e+00 0.0000000000000000e+00 0.0000000000000000e+00  7.4379334709003507e-03 -9.0035827934310616e-05 0.0000000000000000e+00 -9.0035827934310616e-05 7.3987435739185882e-03 0.0000000000000000e+00 0.0000000000000000e+00 0.0000000000000000e+00 0.0000000000000000e+00  7.4626771231793418e-03 1.5495326021493103e-04 0.0000000000000000e+00 1.5495326021493103e-04 7.3677134056524081e-03 0.0000000000000000e+00 0.0000000000000000e+00 0.0000000000000000e+00 0.0000000000000000e+00  6.9081772032351550e-03 -6.7533228546949652e-04 0.0000000000000000e+00 -6.7533228546949652e-04 6.9800674710651447e-03 0.0000000000000000e+00 0.0000000000000000e+00 0.0000000000000000e+00 0.0000000000000000e+00  7.7077954006240157e-03 1.0087417498734713e-03 0.0000000000000000e+00 1.0087417498734713e-03 6.2880614774008161e-03 0.0000000000000000e+00 0.0000000000000000e+00 0.0000000000000000e+00 0.0000000000000000e+00  9.8599064606755323e-03 -1.5290623590285071e-03 0.0000000000000000e+00 -1.5290623590285071e-03 8.9260151112372805e-03 0.0000000000000000e+00 0.0000000000000000e+00 0.0000000000000000e+00 0.0000000000000000e+00  6.8964076379946556e-03 -1.0170128347558541e-02 0.0000000000000000e+00 -1.0170128347558541e-02 -1.0639497998284156e-02 0.0000000000000000e+00 0.0000000000000000e+00 0.0000000000000000e+00 0.0000000000000000e+00  5.3522313130286027e-02 1.8459568902881671e-02 0.0000000000000000e+00 1.8459568902881671e-02 -1.6277682432118138e-02 0.0000000000000000e+00 0.0000000000000000e+00 0.0000000000000000e+00 0.0000000000000000e+00  1.0869158581239076e-01 -3.7155434622421331e-02 0.0000000000000000e+00 -3.7155434622421331e-02 2.3187121952615131e-02 0.0000000000000000e+00 0.0000000000000000e+00 0.0000000000000000e+00 0.0000000000000000e+00  -1.2777689669024611e-01 -9.7529318491218125e-02 0.0000000000000000e+00 -9.7529318491218125e-02 6.5748809482449808e-02 0.0000000000000000e+00 0.0000000000000000e+00 0.0000000000000000e+00 0.0000000000000000e+00  -4.1138705660439634e-01 9.0734283193096330e-02 0.0000000000000000e+00 9.0734283193096330e-02 2.7298898566920216e-01 0.0000000000000000e+00 0.0000000000000000e+00 0.0000000000000000e+00 0.0000000000000000e+00  -2.2928474456398601e-01 5.1124020113548697e-02 0.0000000000000000e+00 5.1124020113548697e-02 1.8153333286292855e-01 0.0000000000000000e+00 0.0000000000000000e+00 0.0000000000000000e+00 0.0000000000000000e+00  -3.3700520221720924e-02 -2.7294129188233967e-02 0.0000000000000000e+00 -2.7294129188233967e-02 -1.2073110149700655e-01 0.0000000000000000e+00 0.0000000000000000e+00 0.0000000000000000e+00 0.0000000000000000e+00  -7.3342923442977284e-02 2.5823302467591361e-02 0.0000000000000000e+00 2.5823302467591361e-02 -2.7539962036145171e-01 0.0000000000000000e+00 0.0000000000000000e+00 0.0000000000000000e+00 0.0000000000000000e+00  -1.4808251824527860e-01 4.7075435892648669e-02 0.0000000000000000e+00 4.7075435892648669e-02 -2.8547990317249988e-01 0.0000000000000000e+00 0.0000000000000000e+00 0.0000000000000000e+00 0.0000000000000000e+00  -1.6654843602096447e-01 2.3376671082774941e-02 0.0000000000000000e+00 2.3376671082774941e-02 -2.5695155711948986e-01 0.0000000000000000e+00 0.0000000000000000e+00 0.0000000000000000e+00 0.0000000000000000e+00  -1.5556591472038483e-01 1.4438112107289795e-03 0.0000000000000000e+00 1.4438112107289795e-03 -2.3858755385256622e-01 0.0000000000000000e+00 0.0000000000000000e+00 0.0000000000000000e+00 0.0000000000000000e+00  -1.4184716734692973e-01 -5.8981518484955480e-03 0.0000000000000000e+00 -5.8981518484955480e-03 -2.3315009019205929e-01 0.0000000000000000e+00 0.0000000000000000e+00 0.0000000000000000e+00 0.0000000000000000e+00  -1.3617882504234904e-01 -3.0382934169941593e-03 0.0000000000000000e+00 -3.0382934169941593e-03 -2.3276101162317964e-01 0.0000000000000000e+00 0.0000000000000000e+00 0.0000000000000000e+00 0.0000000000000000e+00  -1.4138945317210422e-01 8.5106601694451831e-04 0.0000000000000000e+00 8.5106601694451831e-04 -2.3316098300762958e-01 0.0000000000000000e+00 0.0000000000000000e+00 0.0000000000000000e+00 0.0000000000000000e+00  -1.5557321810681624e-01 -3.6983421912378210e-03 0.0000000000000000e+00 -3.6983421912378210e-03 -2.3737513890829640e-01 0.0000000000000000e+00 0.0000000000000000e+00 0.0000000000000000e+00 0.0000000000000000e+00  -1.6996394726245262e-01 -2.2488893880136484e-02 0.0000000000000000e+00 -2.2488893880136484e-02 -2.5321169313707520e-01 0.0000000000000000e+00 0.0000000000000000e+00 0.0000000000000000e+00 0.0000000000000000e+00  -1.6118406673615618e-01 -4.7717239877713667e-02 0.0000000000000000e+00 -4.7717239877713667e-02 -2.8188492413897265e-01 0.0000000000000000e+00 0.0000000000000000e+00 0.0000000000000000e+00 0.0000000000000000e+00  -9.7198599594630328e-02 -3.7585396804317661e-02 0.0000000000000000e+00 -3.7585396804317661e-02 -2.8653401634135939e-01 0.0000000000000000e+00 0.0000000000000000e+00 0.0000000000000000e+00 0.0000000000000000e+00  -3.5100603547212506e-02 2.1454954192742876e-02 0.0000000000000000e+00 2.1454954192742876e-02 -1.6682053136805067e-01 0.0000000000000000e+00 0.0000000000000000e+00 0.0000000000000000e+00 0.0000000000000000e+00  -1.8452967708224763e-01 -2.5373586566754345e-02 0.0000000000000000e+00 -2.5373586566754345e-02 1.2178931348327166e-01 0.0000000000000000e+00 0.0000000000000000e+00 0.0000000000000000e+00 0.0000000000000000e+00  -4.1427414630084269e-01 -1.0617557195216226e-01 0.0000000000000000e+00 -1.0617557195216226e-01 2.9020522852790548e-01 0.0000000000000000e+00 0.0000000000000000e+00 0.0000000000000000e+00 0.0000000000000000e+00  -2.0990621248601082e-01 6.8783453342407319e-02 0.0000000000000000e+00 6.8783453342407319e-02 9.8437095725723067e-02 0.0000000000000000e+00 0.0000000000000000e+00 0.0000000000000000e+00 0.0000000000000000e+00  9.0875674716460297e-02 6.5029653754371683e-02 0.0000000000000000e+00 6.5029653754371683e-02 2.3447316210473426e-02 0.0000000000000000e+00 0.0000000000000000e+00 0.0000000000000000e+00 0.0000000000000000e+00  6.8194846965176567e-02 -2.0943981607971021e-02 0.0000000000000000e+00 -2.0943981607971021e-02 -1.0254873866823019e-02 0.0000000000000000e+00 0.0000000000000000e+00 0.0000000000000000e+00 0.0000000000000000e+00  6.0323469631084689e-03 6.0421866835827500e-03 0.0000000000000000e+00 6.0421866835827500e-03 -2.0656598932244970e-02 0.0000000000000000e+00 0.0000000000000000e+00 0.0000000000000000e+00 0.0000000000000000e+00  3.8892225883259942e-03 4.2646703827953856e-03 0.0000000000000000e+00 4.2646703827953856e-03 2.5556668326893661e-03 0.0000000000000000e+00 0.0000000000000000e+00 0.0000000000000000e+00 0.0000000000000000e+00  3.5224243281277070e-03 -1.7435321259339587e-03 0.0000000000000000e+00 -1.7435321259339587e-03 2.0952773833306988e-03 0.0000000000000000e+00 0.0000000000000000e+00 0.0000000000000000e+00 0.0000000000000000e+00  1.5812735701862244e-03 7.1191182582312589e-04 0.0000000000000000e+00 7.1191182582312589e-04 1.4507055600361030e-03 0.0000000000000000e+00 0.0000000000000000e+00 0.0000000000000000e+00 0.0000000000000000e+00  2.5811448423759243e-03 -1.4638537164171777e-04 0.0000000000000000e+00 -1.4638537164171777e-04 2.7207240165622081e-03 0.0000000000000000e+00 0.0000000000000000e+00 0.0000000000000000e+00 0.0000000000000000e+00  2.4276209819393264e-03 6.9789123298432361e-06 0.0000000000000000e+00 6.9789123298432361e-06 2.4315590473321124e-03 0.0000000000000000e+00 0.0000000000000000e+00 0.0000000000000000e+00 0.0000000000000000e+00  2.5189588504672352e-03 3.7289193590310179e-06 0.0000000000000000e+00 3.7289193590310179e-06 2.5197198851407069e-03 0.0000000000000000e+00 0.0000000000000000e+00 0.0000000000000000e+00 0.0000000000000000e+00  2.5077280595875865e-03 1.4094569920058221e-07 0.0000000000000000e+00 1.4094569920058221e-07 2.4745930597003967e-03 0.0000000000000000e+00 0.0000000000000000e+00 0.0000000000000000e+00 0.0000000000000000e+00  2.5164992811666596e-03 6.4433054336037231e-06 0.0000000000000000e+00 6.4433054336037231e-06 2.4645739527433112e-03 0.0000000000000000e+00 0.0000000000000000e+00 0.0000000000000000e+00 0.0000000000000000e+00  2.5177265579122208e-03 3.6420254376585942e-06 0.0000000000000000e+00 3.6420254376585942e-06 2.4506303541575120e-03 0.0000000000000000e+00 0.0000000000000000e+00 0.0000000000000000e+00 0.0000000000000000e+00  2.5196273659571552e-03 5.0549580149786117e-07 0.0000000000000000e+00 5.0549580149786117e-07 2.4447803055905513e-03 0.0000000000000000e+00 0.0000000000000000e+00 0.0000000000000000e+00 0.0000000000000000e+00  2.5193970253528605e-03 -3.7213617684430667e-06 0.0000000000000000e+00 -3.7213617684430667e-06 2.4452806353162724e-03 0.0000000000000000e+00 0.0000000000000000e+00 0.0000000000000000e+00 0.0000000000000000e+00  2.5171528660831795e-03 -6.0720275352066295e-06 0.0000000000000000e+00 -6.0720275352066295e-06 2.4519849081564315e-03 0.0000000000000000e+00 0.0000000000000000e+00 0.0000000000000000e+00 0.0000000000000000e+00  2.5156533130941175e-03 -7.7795819627502048e-06 0.0000000000000000e+00 -7.7795819627502048e-06 2.4653522589863880e-03 0.0000000000000000e+00 0.0000000000000000e+00 0.0000000000000000e+00 0.0000000000000000e+00  2.5061964928256805e-03 -4.0682101762859143e-08 0.0000000000000000e+00 -4.0682101762859778e-08 2.4732924503366375e-03 0.0000000000000000e+00 0.0000000000000000e+00 0.0000000000000000e+00 0.0000000000000000e+00  2.5007251281195654e-03 -1.2984103659648297e-05 0.0000000000000000e+00 -1.2984103659648297e-05 2.5024216810090949e-03 0.0000000000000000e+00 0.0000000000000000e+00 0.0000000000000000e+00 0.0000000000000000e+00  2.3628974383802814e-03 -1.1602961795088745e-05 0.0000000000000000e+00 -1.1602961795088745e-05 2.3546285596438565e-03 0.0000000000000000e+00 0.0000000000000000e+00 0.0000000000000000e+00 0.0000000000000000e+00  2.3079182268637729e-03 1.2227078087744033e-04 0.0000000000000000e+00 1.2227078087744033e-04 2.3629315976536995e-03 0.0000000000000000e+00 0.0000000000000000e+00 0.0000000000000000e+00 0.0000000000000000e+00  1.4844060562151185e-03 -6.6300323496185250e-04 0.0000000000000000e+00 -6.6300323496185250e-04 1.4309356648258015e-03 0.0000000000000000e+00 0.0000000000000000e+00 0.0000000000000000e+00 0.0000000000000000e+00  3.4812927035283948e-03 1.7381610242189866e-03 0.0000000000000000e+00 1.7381610242189866e-03 2.2378386398503817e-03 0.0000000000000000e+00 0.0000000000000000e+00 0.0000000000000000e+00 0.0000000000000000e+00  3.6805136989878757e-03 -4.1905065857508420e-03 0.0000000000000000e+00 -4.1905065857508420e-03 2.2880744139650538e-03 0.0000000000000000e+00 0.0000000000000000e+00 0.0000000000000000e+00 0.0000000000000000e+00  5.4017668739461842e-03 -6.7681342041563952e-03 0.0000000000000000e+00 -6.7681342041563952e-03 -2.1172405757221593e-02 0.0000000000000000e+00 0.0000000000000000e+00 0.0000000000000000e+00 0.0000000000000000e+00  6.5470085054218419e-02 2.1668605693763391e-02 0.0000000000000000e+00 2.1668605693763391e-02 -1.2657986679962778e-02 0.0000000000000000e+00 0.0000000000000000e+00 0.0000000000000000e+00 0.0000000000000000e+00  9.0917934090548325e-02 -6.3622022893064095e-02 0.0000000000000000e+00 -6.3622022893064095e-02 2.3165913684004415e-02 0.0000000000000000e+00 0.0000000000000000e+00 0.0000000000000000e+00 0.0000000000000000e+00  -2.0742702772673008e-01 -7.0120655132583823e-02 0.0000000000000000e+00 -7.0120655132583823e-02 9.6411962302754478e-02 0.0000000000000000e+00 0.0000000000000000e+00 0.0000000000000000e+00 0.0000000000000000e+00  -4.1488994512039218e-01 1.0636285239499682e-01 0.0000000000000000e+00 1.0636285239499682e-01 2.8879598626069947e-01 0.0000000000000000e+00 0.0000000000000000e+00 0.0000000000000000e+00 0.0000000000000000e+00  -1.8500783955478523e-01 2.6428652604655881e-02 0.0000000000000000e+00 2.6428652604655881e-02 1.2308783443607973e-01 0.0000000000000000e+00 0.0000000000000000e+00 0.0000000000000000e+00 0.0000000000000000e+00  -3.4274152306259520e-02 -2.1241039920492848e-02 0.0000000000000000e+00 -2.1241039920492848e-02 -1.6603670916513133e-01 0.0000000000000000e+00 0.0000000000000000e+00 0.0000000000000000e+00 0.0000000000000000e+00  -9.6183673613726331e-02 3.7746747289280805e-02 0.0000000000000000e+00 3.7746747289280805e-02 -2.8650817350065433e-01 0.0000000000000000e+00 0.0000000000000000e+00 0.0000000000000000e+00 0.0000000000000000e+00  -1.6044690432358008e-01 4.7985871200367756e-02 0.0000000000000000e+00 4.7985871200367756e-02 -2.8200361414992714e-01 0.0000000000000000e+00 0.0000000000000000e+00 0.0000000000000000e+00 0.0000000000000000e+00  -1.6936859355095105e-01 2.2667773157558684e-02 0.0000000000000000e+00 2.2667773157558684e-02 -2.5321038698044029e-01 0.0000000000000000e+00 0.0000000000000000e+00 0.0000000000000000e+00 0.0000000000000000e+00  -1.5498681530709876e-01 3.6812288827255814e-03 0.0000000000000000e+00 3.6812288827255814e-03 -2.3726274785049103e-01 0.0000000000000000e+00 0.0000000000000000e+00 0.0000000000000000e+00 0.0000000000000000e+00  -1.4073210757982432e-01 -9.7743838564544219e-04 0.0000000000000000e+00 -9.7743838564544219e-04 -2.3307715790701922e-01 0.0000000000000000e+00 0.0000000000000000e+00 0.0000000000000000e+00 0.0000000000000000e+00  -1.3546063529847582e-01 2.9264033735138190e-03 0.0000000000000000e+00 2.9264033735138190e-03 -2.3275190620519012e-01 0.0000000000000000e+00 0.0000000000000000e+00 0.0000000000000000e+00 0.0000000000000000e+00  -1.4110401915386597e-01 5.8778537132698839e-03 0.0000000000000000e+00 5.8778537132698839e-03 -2.3314583162180857e-01 0.0000000000000000e+00 0.0000000000000000e+00 0.0000000000000000e+00 0.0000000000000000e+00  -1.5486123506815233e-01 -1.3218468056363916e-03 0.0000000000000000e+00 -1.3218468056363916e-03 -2.3847815046554394e-01 0.0000000000000000e+00 0.0000000000000000e+00 0.0000000000000000e+00 0.0000000000000000e+00  -1.6603161040735570e-01 -2.3164939242013963e-02 0.0000000000000000e+00 -2.3164939242013963e-02 -2.5669702570223601e-01 0.0000000000000000e+00 0.0000000000000000e+00 0.0000000000000000e+00 0.0000000000000000e+00  -1.4798504295365403e-01 -4.7060530605545450e-02 0.0000000000000000e+00 -4.7060530605545450e-02 -2.8524793430604983e-01 0.0000000000000000e+00 0.0000000000000000e+00 0.0000000000000000e+00 0.0000000000000000e+00  -7.3623708305387559e-02 -2.6324555296856914e-02 0.0000000000000000e+00 -2.6324555296856914e-02 -2.7582165165088135e-01 0.0000000000000000e+00 0.0000000000000000e+00 0.0000000000000000e+00 0.0000000000000000e+00  -3.2948023044852198e-02 2.7113607941165643e-02 0.0000000000000000e+00 2.7113607941165643e-02 -1.2260291412490730e-01 0.0000000000000000e+00 0.0000000000000000e+00 0.0000000000000000e+00 0.0000000000000000e+00  -2.2691772624819867e-01 -5.0266945102377669e-02 0.0000000000000000e+00 -5.0266945102377669e-02 1.7949636794996146e-01 0.0000000000000000e+00 0.0000000000000000e+00 0.0000000000000000e+00 0.0000000000000000e+00  -4.1112641797890198e-01 -9.1872534558210595e-02 0.0000000000000000e+00 -9.1872534558210595e-02 2.7457221059060866e-01 0.0000000000000000e+00 0.0000000000000000e+00 0.0000000000000000e+00 0.0000000000000000e+00  -1.3050179806408763e-01 9.6553277547307179e-02 0.0000000000000000e+00 9.6553277547307179e-02 6.6669120859838754e-02 0.0000000000000000e+00 0.0000000000000000e+00 0.0000000000000000e+00 0.0000000000000000e+00  1.0892071512535198e-01 3.8451977785506943e-02 0.0000000000000000e+00 3.8451977785506943e-02 2.3422346022611697e-02 0.0000000000000000e+00 0.0000000000000000e+00 0.0000000000000000e+00 0.0000000000000000e+00  5.5335164413745037e-02 -1.8384780565662687e-02 0.0000000000000000e+00 -1.8384780565662687e-02 -1.4362381824289871e-02 0.0000000000000000e+00 0.0000000000000000e+00 0.0000000000000000e+00 0.0000000000000000e+00  7.2194661028719574e-03 9.8420024857776081e-03 0.0000000000000000e+00 9.8420024857776081e-03 -1.0489723335124388e-02 0.0000000000000000e+00 0.0000000000000000e+00 0.0000000000000000e+00 0.0000000000000000e+00  1.0056958680177228e-02 1.5417476191103864e-03 0.0000000000000000e+00 1.5417476191103869e-03 9.2867308803686408e-03 0.0000000000000000e+00 0.0000000000000000e+00 0.0000000000000000e+00 0.0000000000000000e+00  7.8053468132510320e-03 -1.0575921637280569e-03 0.0000000000000000e+00 -1.0575921637280567e-03 6.2576914348487552e-03 0.0000000000000000e+00 0.0000000000000000e+00 0.0000000000000000e+00 0.0000000000000000e+00  6.8033334646533487e-03 7.3524328780354294e-04 0.0000000000000000e+00 7.3524328780354305e-04 6.7039421170906237e-03 0.0000000000000000e+00 0.0000000000000000e+00 0.0000000000000000e+00 0.0000000000000000e+00  7.5586082162354502e-03 -1.6445544397030362e-04 0.0000000000000000e+00 -1.6445544397030362e-04 7.5528648697943271e-03 0.0000000000000000e+00 0.0000000000000000e+00 0.0000000000000000e+00 0.0000000000000000e+00  7.4153214166090059e-03 8.6770617767420401e-05 0.0000000000000000e+00 8.6770617767420401e-05 7.4127940568412438e-03 0.0000000000000000e+00 0.0000000000000000e+00 0.0000000000000000e+00 0.0000000000000000e+00  7.5255264054129439e-03 4.1182234752630642e-06 0.0000000000000000e+00 4.1182234752630642e-06 7.5344585487815479e-03 0.0000000000000000e+00 0.0000000000000000e+00 0.0000000000000000e+00 0.0000000000000000e+00  7.5037331930535370e-03 1.6419097073007930e-05 0.0000000000000000e+00 1.6419097073007930e-05 7.5152925208958853e-03 0.0000000000000000e+00 0.0000000000000000e+00 0.0000000000000000e+00 0.0000000000000000e+00  7.5139760004264118e-03 8.5468331711095741e-06 0.0000000000000000e+00 8.5468331711095741e-06 7.5344708884625784e-03 0.0000000000000000e+00 0.0000000000000000e+00 0.0000000000000000e+00 0.0000000000000000e+00  7.5119439134452553e-03 7.2388638758910030e-06 0.0000000000000000e+00 7.2388638758910030e-06 7.5392430364228233e-03 0.0000000000000000e+00 0.0000000000000000e+00 0.0000000000000000e+00 0.0000000000000000e+00  7.5131538234718860e-03 5.9966317551113005e-06 0.0000000000000000e+00 5.9966317551113005e-06 7.5457562079248976e-03 0.0000000000000000e+00 0.0000000000000000e+00 0.0000000000000000e+00 0.0000000000000000e+00  7.5135127397785535e-03 6.6081006529885609e-06 0.0000000000000000e+00 6.6081006529885609e-06 7.5488645071751272e-03 0.0000000000000000e+00 0.0000000000000000e+00 0.0000000000000000e+00 0.0000000000000000e+00  7.5145695743653630e-03 8.2866712775528920e-06 0.0000000000000000e+00 8.2866712775528920e-06 7.5495128547200937e-03 0.0000000000000000e+00 0.0000000000000000e+00 0.0000000000000000e+00 0.0000000000000000e+00  7.5161348844147375e-03 1.0950622868014165e-05 0.0000000000000000e+00 1.0950622868014165e-05 7.5469720806660328e-03 0.0000000000000000e+00 0.0000000000000000e+00 0.0000000000000000e+00 0.0000000000000000e+00  7.5185220089365760e-03 1.4254461441571573e-05 0.0000000000000000e+00 1.4254461441571573e-05 7.5409543588811816e-03 0.0000000000000000e+00 0.0000000000000000e+00 0.0000000000000000e+00 0.0000000000000000e+00  7.5219722924760677e-03 1.7998734541603662e-05 0.0000000000000000e+00 1.7998734541603662e-05 7.5309550757567617e-03 0.0000000000000000e+00 0.0000000000000000e+00 0.0000000000000000e+00 0.0000000000000000e+00  7.5765449071859836e-03 -1.5164890054657261e-05 0.0000000000000000e+00 -1.5164890054657261e-05 7.5862241998847241e-03 0.0000000000000000e+00 0.0000000000000000e+00 0.0000000000000000e+00 0.0000000000000000e+00  7.5727507556475285e-03 -1.2322817445443980e-05 0.0000000000000000e+00 -1.2322817445443980e-05 7.5968944906730498e-03 0.0000000000000000e+00 0.0000000000000000e+00 0.0000000000000000e+00 0.0000000000000000e+00  7.5698430954150540e-03 -9.6954713935845955e-06 0.0000000000000000e+00 -9.6954713935845955e-06 7.6035131149083156e-03 0.0000000000000000e+00 0.0000000000000000e+00 0.0000000000000000e+00 0.0000000000000000e+00  7.5674307582986921e-03 -7.5718693134943448e-06 0.0000000000000000e+00 -7.5718693134943448e-06 7.6066836285053081e-03 0.0000000000000000e+00 0.0000000000000000e+00 0.0000000000000000e+00 0.0000000000000000e+00  7.5652904452922724e-03 -6.2297445924619529e-06 0.0000000000000000e+00 -6.2297445924619529e-06 7.6067944129017189e-03 0.0000000000000000e+00 0.0000000000000000e+00 0.0000000000000000e+00 0.0000000000000000e+00  7.5631198274789795e-03 -5.9567691278315219e-06 0.0000000000000000e+00 -5.9567691278315219e-06 7.6039535484720214e-03 0.0000000000000000e+00 0.0000000000000000e+00 0.0000000000000000e+00 0.0000000000000000e+00  7.5611680175252018e-03 -6.7506611262388161e-06 0.0000000000000000e+00 -6.7506611262388161e-06 7.5986249019777199e-03 0.0000000000000000e+00 0.0000000000000000e+00 0.0000000000000000e+00 0.0000000000000000e+00  7.5580577710293037e-03 -9.3575355047284854e-06 0.0000000000000000e+00 -9.3575355047284854e-06 7.5895729209561370e-03 0.0000000000000000e+00 0.0000000000000000e+00 0.0000000000000000e+00 0.0000000000000000e+00  7.5570048050354601e-03 -1.2165696611549550e-05 0.0000000000000000e+00 -1.2165696611549550e-05 7.5804252768586758e-03 0.0000000000000000e+00 0.0000000000000000e+00 0.0000000000000000e+00 0.0000000000000000e+00  7.5429121855722231e-03 -2.4335549718677415e-05 0.0000000000000000e+00 -2.4335549718677415e-05 7.5570948787330658e-03 0.0000000000000000e+00 0.0000000000000000e+00 0.0000000000000000e+00 0.0000000000000000e+00  7.5279035771293589e-03 -2.4542172046004840e-05 0.0000000000000000e+00 -2.4542172046004840e-05 7.5446477256964533e-03 0.0000000000000000e+00 0.0000000000000000e+00 0.0000000000000000e+00 0.0000000000000000e+00  7.3689009641943323e-03 -8.9483971004498050e-05 0.0000000000000000e+00 -8.9483971004498050e-05 7.3644130468083855e-03 0.0000000000000000e+00 0.0000000000000000e+00 0.0000000000000000e+00 0.0000000000000000e+00  7.2807780762706043e-03 6.5234746358999187e-05 0.0000000000000000e+00 6.5234746358999187e-05 7.1969750344081304e-03 0.0000000000000000e+00 0.0000000000000000e+00 0.0000000000000000e+00 0.0000000000000000e+00  7.2598763742489783e-03 -1.9507724633359319e-04 0.0000000000000000e+00 -1.9507724633359316e-04 7.3092872330029045e-03 0.0000000000000000e+00 0.0000000000000000e+00 0.0000000000000000e+00 0.0000000000000000e+00  6.6521204924014175e-03 -4.4435567239894892e-04 0.0000000000000000e+00 -4.4435567239894887e-04 5.8050914383275349e-03 0.0000000000000000e+00 0.0000000000000000e+00 0.0000000000000000e+00 0.0000000000000000e+00  9.3733711285698372e-03 1.5646032120226092e-03 0.0000000000000000e+00 1.5646032120226092e-03 7.8142600929059520e-03 0.0000000000000000e+00 0.0000000000000000e+00 0.0000000000000000e+00 0.0000000000000000e+00  9.8805306571313218e-03 -4.0173583186855688e-03 0.0000000000000000e+00 -4.0173583186855688e-03 7.2641062788146651e-03 0.0000000000000000e+00 0.0000000000000000e+00 0.0000000000000000e+00 0.0000000000000000e+00  1.0950602681218226e-02 -7.3419927935720782e-03 0.0000000000000000e+00 -7.3419927935720782e-03 -1.1977011069384796e-02 0.0000000000000000e+00 0.0000000000000000e+00 0.0000000000000000e+00 0.0000000000000000e+00  5.6083244277606824e-02 1.8042566000329587e-02 0.0000000000000000e+00 1.8042566000329587e-02 -1.8213759807273501e-02 0.0000000000000000e+00 0.0000000000000000e+00 0.0000000000000000e+00 0.0000000000000000e+00  1.4028114368022759e-01 4.6561256052525405e-03 0.0000000000000000e+00 4.6561256052525405e-03 3.2087209797573617e-02 0.0000000000000000e+00 0.0000000000000000e+00 0.0000000000000000e+00 0.0000000000000000e+00  1.0909435097365214e-01 -7.2725020518396827e-02 0.0000000000000000e+00 -7.2725020518396827e-02 1.0230936090826194e-01 0.0000000000000000e+00 0.0000000000000000e+00 0.0000000000000000e+00 0.0000000000000000e+00  -1.0496520176357306e-01 -4.9647608442673567e-02 0.0000000000000000e+00 -4.9647608442673567e-02 2.3583734059886360e-01 0.0000000000000000e+00 0.0000000000000000e+00 0.0000000000000000e+00 0.0000000000000000e+00  -2.3205372555607778e-01 2.3252205816327962e-02 0.0000000000000000e+00 2.3252205816327962e-02 3.8175661522498094e-01 0.0000000000000000e+00 0.0000000000000000e+00 0.0000000000000000e+00 0.0000000000000000e+00  -2.2171347207447911e-01 2.6229979654029976e-02 0.0000000000000000e+00 2.6229979654029976e-02 3.8926961623534956e-01 0.0000000000000000e+00 0.0000000000000000e+00 0.0000000000000000e+00 0.0000000000000000e+00  -2.0152681956376955e-01 9.5441382042953538e-03 0.0000000000000000e+00 9.5441382042953538e-03 3.2311216511137730e-01 0.0000000000000000e+00 0.0000000000000000e+00 0.0000000000000000e+00 0.0000000000000000e+00  -1.9158801981371140e-01 -1.4489384956216911e-03 0.0000000000000000e+00 -1.4489384956216911e-03 2.5170250051405835e-01 0.0000000000000000e+00 0.0000000000000000e+00 0.0000000000000000e+00 0.0000000000000000e+00  -1.8487521571193558e-01 -4.8166480562610919e-03 0.0000000000000000e+00 -4.8166480562610919e-03 1.9755808558847759e-01 0.0000000000000000e+00 0.0000000000000000e+00 0.0000000000000000e+00 0.0000000000000000e+00  -1.8230845660605696e-01 -2.2080604083069152e-03 0.0000000000000000e+00 -2.2080604083069152e-03 1.7474336848812219e-01 0.0000000000000000e+00 0.0000000000000000e+00 0.0000000000000000e+00 0.0000000000000000e+00  -1.8537759213919280e-01 1.0761128750771240e-03 0.0000000000000000e+00 1.0761128750771240e-03 1.8991133670274371e-01 0.0000000000000000e+00 0.0000000000000000e+00 0.0000000000000000e+00 0.0000000000000000e+00  -1.9296599726958477e-01 -7.7036958263307462e-04 0.0000000000000000e+00 -7.7036958263307462e-04 2.3833414210354198e-01 0.0000000000000000e+00 0.0000000000000000e+00 0.0000000000000000e+00 0.0000000000000000e+00  -2.0331483545364309e-01 -9.9892631260089029e-03 0.0000000000000000e+00 -9.9892631260089029e-03 3.0712931505492086e-01 0.0000000000000000e+00 0.0000000000000000e+00 0.0000000000000000e+00 0.0000000000000000e+00  -2.2210932987396373e-01 -2.5633225455416728e-02 0.0000000000000000e+00 -2.5633225455416728e-02 3.7686523775036601e-01 0.0000000000000000e+00 0.0000000000000000e+00 0.0000000000000000e+00 0.0000000000000000e+00  -2.4163062604263402e-01 -3.0381177257881163e-02 0.0000000000000000e+00 -3.0381177257881163e-02 3.9135080148433010e-01 0.0000000000000000e+00 0.0000000000000000e+00 0.0000000000000000e+00 0.0000000000000000e+00  -1.4921878935447710e-01 3.1600334919006649e-02 0.0000000000000000e+00 3.1600334919006649e-02 2.6628601400187352e-01 0.0000000000000000e+00 0.0000000000000000e+00 0.0000000000000000e+00 0.0000000000000000e+00  7.2984833593048207e-02 7.9369884497776835e-02 0.0000000000000000e+00 7.9369884497776835e-02 1.1693977831424224e-01 0.0000000000000000e+00 0.0000000000000000e+00 0.0000000000000000e+00 0.0000000000000000e+00  1.4588071301033620e-01 7.9033231710124580e-03 0.0000000000000000e+00 7.9033231710124580e-03 4.1683429822130712e-02 0.0000000000000000e+00 0.0000000000000000e+00 0.0000000000000000e+00 0.0000000000000000e+00  6.8370008389321668e-02 -2.1583324784786539e-02 0.0000000000000000e+00 -2.1583324784786539e-02 -1.4640999443912950e-02 0.0000000000000000e+00 0.0000000000000000e+00 0.0000000000000000e+00 0.0000000000000000e+00  1.0505230306539817e-02 3.3726911665224158e-03 0.0000000000000000e+00 3.3726911665224158e-03 -1.9440780704266802e-02 0.0000000000000000e+00 0.0000000000000000e+00 0.0000000000000000e+00 0.0000000000000000e+00  3.8154325973813962e-03 5.5201307479236638e-03 0.0000000000000000e+00 5.5201307479236638e-03 3.1701876465618908e-04 0.0000000000000000e+00 0.0000000000000000e+00 0.0000000000000000e+00 0.0000000000000000e+00  4.3948686771687730e-03 -1.4095766026671096e-03 0.0000000000000000e+00 -1.4095766026671096e-03 2.8061854878613963e-03 0.0000000000000000e+00 0.0000000000000000e+00 0.0000000000000000e+00 0.0000000000000000e+00  1.9691066691973746e-03 -8.2836517202899721e-05 0.0000000000000000e+00 -8.2836517202899721e-05 1.2710678395709070e-03 0.0000000000000000e+00 0.0000000000000000e+00 0.0000000000000000e+00 0.0000000000000000e+00  2.0659104928741445e-03 3.3260237074918757e-04 0.0000000000000000e+00 3.3260237074918757e-04 2.1718221160945176e-03 0.0000000000000000e+00 0.0000000000000000e+00 0.0000000000000000e+00 0.0000000000000000e+00  2.4702348528734160e-03 -1.5331128784450851e-04 0.0000000000000000e+00 -1.5331128784450851e-04 2.4214724279778468e-03 0.0000000000000000e+00 0.0000000000000000e+00 0.0000000000000000e+00 0.0000000000000000e+00  2.4380141122206478e-03 3.9005513178136118e-05 0.0000000000000000e+00 3.9005513178136118e-05 2.4427656331609789e-03 0.0000000000000000e+00 0.0000000000000000e+00 0.0000000000000000e+00 0.0000000000000000e+00  2.5323238834293392e-03 -2.0230036856956659e-05 0.0000000000000000e+00 -2.0230036856956659e-05 2.5258937806567298e-03 0.0000000000000000e+00 0.0000000000000000e+00 0.0000000000000000e+00 0.0000000000000000e+00  2.5165338953861004e-03 -3.4808736836633313e-06 0.0000000000000000e+00 -3.4808736836633313e-06 2.4846876110200282e-03 0.0000000000000000e+00 0.0000000000000000e+00 0.0000000000000000e+00 0.0000000000000000e+00  2.5234752182719282e-03 1.6006945627551279e-06 0.0000000000000000e+00 1.6006945627551283e-06 2.4779930765378494e-03 0.0000000000000000e+00 0.0000000000000000e+00 0.0000000000000000e+00 0.0000000000000000e+00  2.5229625592328988e-03 2.8989787450735762e-06 0.0000000000000000e+00 2.8989787450735771e-06 2.4623738068420067e-03 0.0000000000000000e+00 0.0000000000000000e+00 0.0000000000000000e+00 0.0000000000000000e+00  2.5243524059994876e-03 2.5510221716088738e-06 0.0000000000000000e+00 2.5510221716088738e-06 2.4532550363526840e-03 0.0000000000000000e+00 0.0000000000000000e+00 0.0000000000000000e+00 0.0000000000000000e+00  2.5246872744424439e-03 3.5188723981198393e-08 0.0000000000000000e+00 3.5188723981198393e-08 2.4481295936191780e-03 0.0000000000000000e+00 0.0000000000000000e+00 0.0000000000000000e+00 0.0000000000000000e+00  2.5244299850693298e-03 -2.7739567596825074e-06 0.0000000000000000e+00 -2.7739567596825074e-06 2.4483784153956551e-03 0.0000000000000000e+00 0.0000000000000000e+00 0.0000000000000000e+00 0.0000000000000000e+00  2.5237296608358320e-03 -4.9365321283766922e-06 0.0000000000000000e+00 -4.9365321283766922e-06 2.4537003075863675e-03 0.0000000000000000e+00 0.0000000000000000e+00 0.0000000000000000e+00 0.0000000000000000e+00  2.5223997389196692e-03 -4.7381597897174390e-06 0.0000000000000000e+00 -4.7381597897174390e-06 2.4624407071777528e-03 0.0000000000000000e+00 0.0000000000000000e+00 0.0000000000000000e+00 0.0000000000000000e+00  2.5226985520724232e-03 -3.9591711178897500e-06 0.0000000000000000e+00 -3.9591711178897517e-06 2.4760823941325240e-03 0.0000000000000000e+00 0.0000000000000000e+00 0.0000000000000000e+00 0.0000000000000000e+00  2.5120595348504136e-03 -1.0190179736520894e-06 0.0000000000000000e+00 -1.0190179736520896e-06 2.4787417917090083e-03 0.0000000000000000e+00 0.0000000000000000e+00 0.0000000000000000e+00 0.0000000000000000e+00  2.4934565809217775e-03 1.5464203889353825e-06 0.0000000000000000e+00 1.5464203889353825e-06 2.4982845335377499e-03 0.0000000000000000e+00 0.0000000000000000e+00 0.0000000000000000e+00 0.0000000000000000e+00  2.3129107862997541e-03 -3.9837687007410790e-05 0.0000000000000000e+00 -3.9837687007410797e-05 2.3002125275708297e-03 0.0000000000000000e+00 0.0000000000000000e+00 0.0000000000000000e+00 0.0000000000000000e+00  2.2539013229193844e-03 1.8082731195042016e-04 0.0000000000000000e+00 1.8082731195042016e-04 2.1819913987569709e-03 0.0000000000000000e+00 0.0000000000000000e+00 0.0000000000000000e+00 0.0000000000000000e+00  2.1168049210505187e-03 -2.7439248166332959e-04 0.0000000000000000e+00 -2.7439248166332959e-04 2.3044264466554267e-03 0.0000000000000000e+00 0.0000000000000000e+00 0.0000000000000000e+00 0.0000000000000000e+00  1.6868865146481059e-03 1.0210768773764384e-04 0.0000000000000000e+00 1.0210768773764384e-04 7.7020447720113996e-04 0.0000000000000000e+00 0.0000000000000000e+00 0.0000000000000000e+00 0.0000000000000000e+00  4.6643315835575858e-03 1.5578076514779092e-03 0.0000000000000000e+00 1.5578076514779092e-03 3.4459891399464654e-03 0.0000000000000000e+00 0.0000000000000000e+00 0.0000000000000000e+00 0.0000000000000000e+00  4.1223219954844145e-03 -5.7628861249131363e-03 0.0000000000000000e+00 -5.7628861249131363e-03 4.6137307411223978e-04 0.0000000000000000e+00 0.0000000000000000e+00 0.0000000000000000e+00 0.0000000000000000e+00  9.8079713056527310e-03 -4.0481975386449870e-03 0.0000000000000000e+00 -4.0481975386449870e-03 -2.0522329128650652e-02 0.0000000000000000e+00 0.0000000000000000e+00 0.0000000000000000e+00 0.0000000000000000e+00  6.5697093338317303e-02 2.2475479667164181e-02 0.0000000000000000e+00 2.2475479667164181e-02 -1.7099615957228902e-02 0.0000000000000000e+00 0.0000000000000000e+00 0.0000000000000000e+00 0.0000000000000000e+00  1.4455846764715816e-01 -7.1250190812696271e-03 0.0000000000000000e+00 -7.1250190812696271e-03 4.1059809216299203e-02 0.0000000000000000e+00 0.0000000000000000e+00 0.0000000000000000e+00 0.0000000000000000e+00  7.3202629934101746e-02 -7.9293214448028115e-02 0.0000000000000000e+00 -7.9293214448028115e-02 1.1598066237477177e-01 0.0000000000000000e+00 0.0000000000000000e+00 0.0000000000000000e+00 0.0000000000000000e+00  -1.4874003649034290e-01 -3.1877084263140343e-02 0.0000000000000000e+00 -3.1877084263140343e-02 2.6519427591682709e-01 0.0000000000000000e+00 0.0000000000000000e+00 0.0000000000000000e+00 0.0000000000000000e+00  -2.4145121765287478e-01 3.0591097964535640e-02 0.0000000000000000e+00 3.0591097964535640e-02 3.9102238487807361e-01 0.0000000000000000e+00 0.0000000000000000e+00 0.0000000000000000e+00 0.0000000000000000e+00  -2.2186494058526782e-01 2.6001820664107351e-02 0.0000000000000000e+00 2.6001820664107351e-02 3.7714635950356534e-01 0.0000000000000000e+00 0.0000000000000000e+00 0.0000000000000000e+00 0.0000000000000000e+00  -2.0293661411734776e-01 1.0119634209336238e-02 0.0000000000000000e+00 1.0119634209336238e-02 3.0740008137914038e-01 0.0000000000000000e+00 0.0000000000000000e+00 0.0000000000000000e+00 0.0000000000000000e+00  -1.9231580254436456e-01 7.4294643652434290e-04 0.0000000000000000e+00 7.4294643652434290e-04 2.3845480372564345e-01 0.0000000000000000e+00 0.0000000000000000e+00 0.0000000000000000e+00 0.0000000000000000e+00  -1.8464182789816511e-01 -1.1246470347759333e-03 0.0000000000000000e+00 -1.1246470347759333e-03 1.8955318759184753e-01 0.0000000000000000e+00 0.0000000000000000e+00 0.0000000000000000e+00 0.0000000000000000e+00  -1.8161808073226227e-01 2.1597713448768619e-03 0.0000000000000000e+00 2.1597713448768619e-03 1.7395637937902234e-01 0.0000000000000000e+00 0.0000000000000000e+00 0.0000000000000000e+00 0.0000000000000000e+00  -1.8423645007062978e-01 4.8143556062002430e-03 0.0000000000000000e+00 4.8143556062002430e-03 1.9652837087030967e-01 0.0000000000000000e+00 0.0000000000000000e+00 0.0000000000000000e+00 0.0000000000000000e+00  -1.9098498904033320e-01 1.4841993202902555e-03 0.0000000000000000e+00 1.4841993202902555e-03 2.5067155465419128e-01 0.0000000000000000e+00 0.0000000000000000e+00 0.0000000000000000e+00 0.0000000000000000e+00  -2.0095613903160162e-01 -9.4567141674780815e-03 0.0000000000000000e+00 -9.4567141674780815e-03 3.2229860328388188e-01 0.0000000000000000e+00 0.0000000000000000e+00 0.0000000000000000e+00 0.0000000000000000e+00  -2.2119606041357909e-01 -2.6110319165853334e-02 0.0000000000000000e+00 -2.6110319165853334e-02 3.8886560837891748e-01 0.0000000000000000e+00 0.0000000000000000e+00 0.0000000000000000e+00 0.0000000000000000e+00  -2.3192307770975412e-01 -2.3649614151248444e-02 0.0000000000000000e+00 -2.3649614151248444e-02 3.8272303307231531e-01 0.0000000000000000e+00 0.0000000000000000e+00 0.0000000000000000e+00 0.0000000000000000e+00  -1.0611122138114729e-01 4.8826893667921659e-02 0.0000000000000000e+00 4.8826893667921659e-02 2.3757572150193013e-01 0.0000000000000000e+00 0.0000000000000000e+00 0.0000000000000000e+00 0.0000000000000000e+00  1.0853286855503994e-01 7.3254133202764082e-02 0.0000000000000000e+00 7.3254133202764082e-02 1.0340481718446390e-01 0.0000000000000000e+00 0.0000000000000000e+00 0.0000000000000000e+00 0.0000000000000000e+00  1.4170557102018427e-01 -3.9602196186663378e-03 0.0000000000000000e+00 -3.9602196186663378e-03 3.3194946129443653e-02 0.0000000000000000e+00 0.0000000000000000e+00 0.0000000000000000e+00 0.0000000000000000e+00  5.8355070221495116e-02 -1.7721632919842925e-02 0.0000000000000000e+00 -1.7721632919842925e-02 -1.6027780096147064e-02 0.0000000000000000e+00 0.0000000000000000e+00 0.0000000000000000e+00 0.0000000000000000e+00  1.1501890936585650e-02 6.9994714331110533e-03 0.0000000000000000e+00 6.9994714331110533e-03 -1.1212670392158699e-02 0.0000000000000000e+00 0.0000000000000000e+00 0.0000000000000000e+00 0.0000000000000000e+00  9.6307865186003611e-03 3.7691729856477868e-03 0.0000000000000000e+00 3.7691729856477868e-03 7.2212730585689408e-03 0.0000000000000000e+00 0.0000000000000000e+00 0.0000000000000000e+00 0.0000000000000000e+00  8.7895333171835229e-03 -1.3904297566195885e-03 0.0000000000000000e+00 -1.3904297566195885e-03 6.7906736957025812e-03 0.0000000000000000e+00 0.0000000000000000e+00 0.0000000000000000e+00 0.0000000000000000e+00  6.8205121912776811e-03 3.6254125444743206e-04 0.0000000000000000e+00 3.6254125444743195e-04 6.3662189393677944e-03 0.0000000000000000e+00 0.0000000000000000e+00 0.0000000000000000e+00 0.0000000000000000e+00  7.2313969463215482e-03 2.2844126692703803e-04 0.0000000000000000e+00 2.2844126692703803e-04 7.2429647615380203e-03 0.0000000000000000e+00 0.0000000000000000e+00 0.0000000000000000e+00 0.0000000000000000e+00  7.3818838301734409e-03 -5.2538947332618164e-05 0.0000000000000000e+00 -5.2538947332618124e-05 7.2521327393798305e-03 0.0000000000000000e+00 0.0000000000000000e+00 0.0000000000000000e+00 0.0000000000000000e+00  7.4028674896663036e-03 8.4209509194452058e-05 0.0000000000000000e+00 8.4209509194452058e-05 7.4140937075710921e-03 0.0000000000000000e+00 0.0000000000000000e+00 0.0000000000000000e+00 0.0000000000000000e+00  7.4910713987118788e-03 1.7844217741363071e-06 0.0000000000000000e+00 1.7844217741363071e-06 7.5089715509996605e-03 0.0000000000000000e+00 0.0000000000000000e+00 0.0000000000000000e+00 0.0000000000000000e+00  7.4836309288437586e-03 1.7636908497840934e-05 0.0000000000000000e+00 1.7636908497840934e-05 7.5083028732694955e-03 0.0000000000000000e+00 0.0000000000000000e+00 0.0000000000000000e+00 0.0000000000000000e+00  7.4976336718327588e-03 8.6607413096060637e-06 0.0000000000000000e+00 8.6607413096060637e-06 7.5283657508486996e-03 0.0000000000000000e+00 0.0000000000000000e+00 0.0000000000000000e+00 0.0000000000000000e+00  7.4996211988118955e-03 7.4800089388812281e-06 0.0000000000000000e+00 7.4800089388812281e-06 7.5342629727716669e-03 0.0000000000000000e+00 0.0000000000000000e+00 0.0000000000000000e+00 0.0000000000000000e+00  7.5035269645509339e-03 5.3276328134859351e-06 0.0000000000000000e+00 5.3276328134859351e-06 7.5415349591783287e-03 0.0000000000000000e+00 0.0000000000000000e+00 0.0000000000000000e+00 0.0000000000000000e+00  7.5057522185980269e-03 4.7550732349676738e-06 0.0000000000000000e+00 4.7550732349676738e-06 7.5456731539845934e-03 0.0000000000000000e+00 0.0000000000000000e+00 0.0000000000000000e+00 0.0000000000000000e+00  7.5079331057078258e-03 5.1742605423860530e-06 0.0000000000000000e+00 5.1742605423860530e-06 7.5478803725077086e-03 0.0000000000000000e+00 0.0000000000000000e+00 0.0000000000000000e+00 0.0000000000000000e+00  7.5099793664665177e-03 6.6107719997030933e-06 0.0000000000000000e+00 6.6107719997030933e-06 7.5474730637375394e-03 0.0000000000000000e+00 0.0000000000000000e+00 0.0000000000000000e+00 0.0000000000000000e+00  7.5122603777993914e-03 8.7512576357322025e-06 0.0000000000000000e+00 8.7512576357322025e-06 7.5442757751983973e-03 0.0000000000000000e+00 0.0000000000000000e+00 0.0000000000000000e+00 0.0000000000000000e+00  7.5150140822494629e-03 1.1280199283697258e-05 0.0000000000000000e+00 1.1280199283697258e-05 7.5378818377321768e-03 0.0000000000000000e+00 0.0000000000000000e+00 0.0000000000000000e+00 0.0000000000000000e+00  7.5186050793162422e-03 1.3856054354522774e-05 0.0000000000000000e+00 1.3856054354522774e-05 7.5277303515202685e-03 0.0000000000000000e+00 0.0000000000000000e+00 0.0000000000000000e+00 0.0000000000000000e+00  7.5745977296786957e-03 -1.0781793826336407e-05 0.0000000000000000e+00 -1.0781793826336407e-05 7.5840560951646475e-03 0.0000000000000000e+00 0.0000000000000000e+00 0.0000000000000000e+00 0.0000000000000000e+00  7.5707857302891972e-03 -8.9852881826970199e-06 0.0000000000000000e+00 -8.9852881826970199e-06 7.5944866264308422e-03 0.0000000000000000e+00 0.0000000000000000e+00 0.0000000000000000e+00 0.0000000000000000e+00  7.5675602219650393e-03 -6.8513125976694989e-06 0.0000000000000000e+00 -6.8513125976694989e-06 7.6012456749219130e-03 0.0000000000000000e+00 0.0000000000000000e+00 0.0000000000000000e+00 0.0000000000000000e+00  7.5644909742326842e-03 -4.8898168503203166e-06 0.0000000000000000e+00 -4.8898168503203166e-06 7.6049466891976612e-03 0.0000000000000000e+00 0.0000000000000000e+00 0.0000000000000000e+00 0.0000000000000000e+00  7.5612765762319298e-03 -3.4950476223933669e-06 0.0000000000000000e+00 -3.4950476223933669e-06 7.6058543977323874e-03 0.0000000000000000e+00 0.0000000000000000e+00 0.0000000000000000e+00 0.0000000000000000e+00  7.5577020173558896e-03 -2.9159281986530246e-06 0.0000000000000000e+00 -2.9159281986530246e-06 7.6041235441460927e-03 0.0000000000000000e+00 0.0000000000000000e+00 0.0000000000000000e+00 0.0000000000000000e+00  7.5533987362725345e-03 -3.3947659988933587e-06 0.0000000000000000e+00 -3.3947659988933587e-06 7.5997079854423534e-03 0.0000000000000000e+00 0.0000000000000000e+00 0.0000000000000000e+00 0.0000000000000000e+00  7.5483912277738794e-03 -4.8954140070521326e-06 0.0000000000000000e+00 -4.8954140070521326e-06 7.5929289635244430e-03 0.0000000000000000e+00 0.0000000000000000e+00 0.0000000000000000e+00 0.0000000000000000e+00  7.5411267506321948e-03 -8.3102890359318565e-06 0.0000000000000000e+00 -8.3102890359318565e-06 7.5827228328716858e-03 0.0000000000000000e+00 0.0000000000000000e+00 0.0000000000000000e+00 0.0000000000000000e+00  7.5329852967897489e-03 -1.1273693627616975e-05 0.0000000000000000e+00 -1.1273693627616975e-05 7.5708970318297212e-03 0.0000000000000000e+00 0.0000000000000000e+00 0.0000000000000000e+00 0.0000000000000000e+00  7.5113039384763630e-03 -2.3435828019984445e-05 0.0000000000000000e+00 -2.3435828019984445e-05 7.5496405046062308e-03 0.0000000000000000e+00 0.0000000000000000e+00 0.0000000000000000e+00 0.0000000000000000e+00  7.4719005858038699e-03 -2.3764587969506739e-05 0.0000000000000000e+00 -2.3764587969506739e-05 7.4967480479575547e-03 0.0000000000000000e+00 0.0000000000000000e+00 0.0000000000000000e+00 0.0000000000000000e+00  7.3312519402911813e-03 -2.7841416068472349e-05 0.0000000000000000e+00 -2.7841416068472349e-05 7.3074217256265369e-03 0.0000000000000000e+00 0.0000000000000000e+00 0.0000000000000000e+00 0.0000000000000000e+00  7.3061195333152884e-03 -3.4978676615432048e-05 0.0000000000000000e+00 -3.4978676615432048e-05 7.2636518325798188e-03 0.0000000000000000e+00 0.0000000000000000e+00 0.0000000000000000e+00 0.0000000000000000e+00  7.0666907456760370e-03 -2.9497745486655831e-05 0.0000000000000000e+00 -2.9497745486655831e-05 6.9193113556201436e-03 0.0000000000000000e+00 0.0000000000000000e+00 0.0000000000000000e+00 0.0000000000000000e+00  6.8997069128153366e-03 -1.7202076026739916e-04 0.0000000000000000e+00 -1.7202076026739916e-04 6.9951701308082152e-03 0.0000000000000000e+00 0.0000000000000000e+00 0.0000000000000000e+00 0.0000000000000000e+00  6.7267094696691464e-03 -2.9768627238561620e-04 0.0000000000000000e+00 -2.9768627238561620e-04 5.6865117524023427e-03 0.0000000000000000e+00 0.0000000000000000e+00 0.0000000000000000e+00 0.0000000000000000e+00  9.0596142887049130e-03 1.0516869968166032e-03 0.0000000000000000e+00 1.0516869968166030e-03 7.4496910864546790e-03 0.0000000000000000e+00 0.0000000000000000e+00 0.0000000000000000e+00 0.0000000000000000e+00  1.0427672520413904e-02 -2.0430815392382001e-03 0.0000000000000000e+00 -2.0430815392382005e-03 7.4992714768253831e-03 0.0000000000000000e+00 0.0000000000000000e+00 0.0000000000000000e+00 0.0000000000000000e+00  1.0196714273147047e-02 -6.3403342781204741e-03 0.0000000000000000e+00 -6.3403342781204741e-03 -1.2794405277199649e-03 0.0000000000000000e+00 0.0000000000000000e+00 0.0000000000000000e+00 0.0000000000000000e+00  2.3259213018978687e-02 1.8564189087060736e-03 0.0000000000000000e+00 1.8564189087060736e-03 -1.4926358155372275e-02 0.0000000000000000e+00 0.0000000000000000e+00 0.0000000000000000e+00 0.0000000000000000e+00  7.1001615751801944e-02 1.6509773894046884e-02 0.0000000000000000e+00 1.6509773894046884e-02 -6.8866448052782954e-03 0.0000000000000000e+00 0.0000000000000000e+00 0.0000000000000000e+00 0.0000000000000000e+00  1.4148372858955621e-01 1.4410765465875022e-02 0.0000000000000000e+00 1.4410765465875022e-02 2.8730670368061876e-02 0.0000000000000000e+00 0.0000000000000000e+00 0.0000000000000000e+00 0.0000000000000000e+00  1.9607840408063504e-01 3.1633444356791818e-03 0.0000000000000000e+00 3.1633444356791818e-03 7.6426866195785856e-02 0.0000000000000000e+00 0.0000000000000000e+00 0.0000000000000000e+00 0.0000000000000000e+00  2.2054562104231187e-01 -5.4100481421291494e-03 0.0000000000000000e+00 -5.4100481421291494e-03 1.2364897736042330e-01 0.0000000000000000e+00 0.0000000000000000e+00 0.0000000000000000e+00 0.0000000000000000e+00  2.2130018940589655e-01 -9.3198974264735602e-03 0.0000000000000000e+00 -9.3198974264735602e-03 1.6354437337849345e-01 0.0000000000000000e+00 0.0000000000000000e+00 0.0000000000000000e+00 0.0000000000000000e+00  2.1141542099051983e-01 -7.7719592523329897e-03 0.0000000000000000e+00 -7.7719592523329897e-03 1.9155033244452996e-01 0.0000000000000000e+00 0.0000000000000000e+00 0.0000000000000000e+00 0.0000000000000000e+00  2.0507588647082498e-01 -2.0826841056105273e-03 0.0000000000000000e+00 -2.0826841056105273e-03 2.0305924965712860e-01 0.0000000000000000e+00 0.0000000000000000e+00 0.0000000000000000e+00 0.0000000000000000e+00  2.0925053245883066e-01 4.1028910268009330e-03 0.0000000000000000e+00 4.1028910268009330e-03 1.9539373118854464e-01 0.0000000000000000e+00 0.0000000000000000e+00 0.0000000000000000e+00 0.0000000000000000e+00  2.1880335860899705e-01 6.7295511354470167e-03 0.0000000000000000e+00 6.7295511354470167e-03 1.7005322062814962e-01 0.0000000000000000e+00 0.0000000000000000e+00 0.0000000000000000e+00 0.0000000000000000e+00  2.2039634387558871e-01 4.1420558088605570e-03 0.0000000000000000e+00 4.1420558088605570e-03 1.3123622942590504e-01 0.0000000000000000e+00 0.0000000000000000e+00 0.0000000000000000e+00 0.0000000000000000e+00  2.0038043858626675e-01 -3.3917149025912158e-03 0.0000000000000000e+00 -3.3917149025912158e-03 8.4042803568349964e-02 0.0000000000000000e+00 0.0000000000000000e+00 0.0000000000000000e+00 0.0000000000000000e+00  1.5063447318868706e-01 -1.4086669842053437e-02 0.0000000000000000e+00 -1.4086669842053437e-02 3.4707175633723560e-02 0.0000000000000000e+00 0.0000000000000000e+00 0.0000000000000000e+00 0.0000000000000000e+00  8.0264529286553157e-02 -1.8529174648729378e-02 0.0000000000000000e+00 -1.8529174648729378e-02 -4.5395377562329059e-03 0.0000000000000000e+00 0.0000000000000000e+00 0.0000000000000000e+00 0.0000000000000000e+00  2.5964283782381255e-02 -5.5206759096828213e-03 0.0000000000000000e+00 -5.5206759096828213e-03 -1.7469828304783528e-02 0.0000000000000000e+00 0.0000000000000000e+00 0.0000000000000000e+00 0.0000000000000000e+00  6.1405582858107682e-03 5.2570932490419572e-03 0.0000000000000000e+00 5.2570932490419572e-03 -7.8798603299836019e-03 0.0000000000000000e+00 0.0000000000000000e+00 0.0000000000000000e+00 0.0000000000000000e+00  5.0460964605023115e-03 2.4394137462184075e-03 0.0000000000000000e+00 2.4394137462184075e-03 2.1205256500556220e-03 0.0000000000000000e+00 0.0000000000000000e+00 0.0000000000000000e+00 0.0000000000000000e+00  4.0577912413484471e-03 -9.9722641108335001e-04 0.0000000000000000e+00 -9.9722641108335001e-04 2.3399185998827323e-03 0.0000000000000000e+00 0.0000000000000000e+00 0.0000000000000000e+00 0.0000000000000000e+00  1.9857377029666736e-03 -3.4022646033086192e-04 0.0000000000000000e+00 -3.4022646033086192e-04 1.1643409752915043e-03 0.0000000000000000e+00 0.0000000000000000e+00 0.0000000000000000e+00 0.0000000000000000e+00  1.8937807555858925e-03 2.8734216505103794e-04 0.0000000000000000e+00 2.8734216505103794e-04 1.9050893366352284e-03 0.0000000000000000e+00 0.0000000000000000e+00 0.0000000000000000e+00 0.0000000000000000e+00  2.4454346365374276e-03 -8.5813654733831130e-05 0.0000000000000000e+00 -8.5813654733831130e-05 2.5564764383512440e-03 0.0000000000000000e+00 0.0000000000000000e+00 0.0000000000000000e+00 0.0000000000000000e+00  2.4163063390926997e-03 -4.1117850662774345e-05 0.0000000000000000e+00 -4.1117850662774345e-05 2.3227841245303305e-03 0.0000000000000000e+00 0.0000000000000000e+00 0.0000000000000000e+00 0.0000000000000000e+00  2.4829025267918024e-03 2.2092765039477499e-05 0.0000000000000000e+00 2.2092765039477499e-05 2.4634640572252777e-03 0.0000000000000000e+00 0.0000000000000000e+00 0.0000000000000000e+00 0.0000000000000000e+00  2.5393706296465584e-03 -1.9661442315477519e-05 0.0000000000000000e+00 -1.9661442315477519e-05 2.5096949708113304e-03 0.0000000000000000e+00 0.0000000000000000e+00 0.0000000000000000e+00 0.0000000000000000e+00  2.5309831488786422e-03 -3.3985249515302724e-06 0.0000000000000000e+00 -3.3985249515302724e-06 2.4938653773722537e-03 0.0000000000000000e+00 0.0000000000000000e+00 0.0000000000000000e+00 0.0000000000000000e+00  2.5333898200978170e-03 -2.1744671737557130e-06 0.0000000000000000e+00 -2.1744671737557130e-06 2.4872450188859847e-03 0.0000000000000000e+00 0.0000000000000000e+00 0.0000000000000000e+00 0.0000000000000000e+00  2.5287224078258262e-03 2.0217532252306792e-06 0.0000000000000000e+00 2.0217532252306792e-06 2.4725967215304223e-03 0.0000000000000000e+00 0.0000000000000000e+00 0.0000000000000000e+00 0.0000000000000000e+00  2.5275466333207187e-03 3.2414780393457117e-06 0.0000000000000000e+00 3.2414780393457117e-06 2.4626541622716331e-03 0.0000000000000000e+00 0.0000000000000000e+00 0.0000000000000000e+00 0.0000000000000000e+00  2.5265847071910502e-03 2.3488525591663281e-06 0.0000000000000000e+00 2.3488525591663281e-06 2.4547530622879856e-03 0.0000000000000000e+00 0.0000000000000000e+00 0.0000000000000000e+00 0.0000000000000000e+00  2.5261442919557254e-03 2.1769220396861977e-07 0.0000000000000000e+00 2.1769220396861977e-07 2.4508290701242474e-03 0.0000000000000000e+00 0.0000000000000000e+00 0.0000000000000000e+00 0.0000000000000000e+00  2.5257883071705227e-03 -2.3644539569966755e-06 0.0000000000000000e+00 -2.3644539569966755e-06 2.4509316252637604e-03 0.0000000000000000e+00 0.0000000000000000e+00 0.0000000000000000e+00 0.0000000000000000e+00  2.5255939313368926e-03 -4.3757967044724136e-06 0.0000000000000000e+00 -4.3757967044724136e-06 2.4549263893516456e-03 0.0000000000000000e+00 0.0000000000000000e+00 0.0000000000000000e+00 0.0000000000000000e+00  2.5260745960040492e-03 -5.2031757552261415e-06 0.0000000000000000e+00 -5.2031757552261415e-06 2.4624226920012182e-03 0.0000000000000000e+00 0.0000000000000000e+00 0.0000000000000000e+00 0.0000000000000000e+00  2.5267748816605331e-03 -4.1833865148934966e-06 0.0000000000000000e+00 -4.1833865148934966e-06 2.4716237236651053e-03 0.0000000000000000e+00 0.0000000000000000e+00 0.0000000000000000e+00 0.0000000000000000e+00  2.5294995412073916e-03 -1.2502666915924681e-06 0.0000000000000000e+00 -1.2502666915924681e-06 2.4839512455351290e-03 0.0000000000000000e+00 0.0000000000000000e+00 0.0000000000000000e+00 0.0000000000000000e+00  2.5206344761295805e-03 -2.3602557137172894e-06 0.0000000000000000e+00 -2.3602557137172894e-06 2.4857031913924021e-03 0.0000000000000000e+00 0.0000000000000000e+00 0.0000000000000000e+00 0.0000000000000000e+00  2.4971072048573894e-03 9.1336683227209330e-06 0.0000000000000000e+00 9.1336683227209330e-06 2.4706975931993026e-03 0.0000000000000000e+00 0.0000000000000000e+00 0.0000000000000000e+00 0.0000000000000000e+00  2.3282125860309669e-03 -4.4576526384610325e-06 0.0000000000000000e+00 -4.4576526384610248e-06 2.2685460048548524e-03 0.0000000000000000e+00 0.0000000000000000e+00 0.0000000000000000e+00 0.0000000000000000e+00  2.3054838775086644e-03 6.1463979230259289e-05 0.0000000000000000e+00 6.1463979230259302e-05 2.2847251493881824e-03 0.0000000000000000e+00 0.0000000000000000e+00 0.0000000000000000e+00 0.0000000000000000e+00  2.0977379481704689e-03 5.2094797079527158e-05 0.0000000000000000e+00 5.2094797079527158e-05 2.1121870221126699e-03 0.0000000000000000e+00 0.0000000000000000e+00 0.0000000000000000e+00 0.0000000000000000e+00  1.7364819047997508e-03 -1.6608794131410157e-04 0.0000000000000000e+00 -1.6608794131410155e-04 1.8411652949348928e-03 0.0000000000000000e+00 0.0000000000000000e+00 0.0000000000000000e+00 0.0000000000000000e+00  1.8466779602172656e-03 2.9491753806705912e-04 0.0000000000000000e+00 2.9491753806705912e-04 9.5986855274232067e-04 0.0000000000000000e+00 0.0000000000000000e+00 0.0000000000000000e+00 0.0000000000000000e+00  4.3873430798257174e-03 1.1180799178916996e-03 0.0000000000000000e+00 1.1180799178916996e-03 2.9921068200885674e-03 0.0000000000000000e+00 0.0000000000000000e+00 0.0000000000000000e+00 0.0000000000000000e+00  5.5533009812423310e-03 -2.5684240406083619e-03 0.0000000000000000e+00 -2.5684240406083619e-03 2.3629051557752189e-03 0.0000000000000000e+00 0.0000000000000000e+00 0.0000000000000000e+00 0.0000000000000000e+00  6.2864000423879128e-03 -5.6306078379656944e-03 0.0000000000000000e+00 -5.6306078379656944e-03 -7.7301916774030963e-03 0.0000000000000000e+00 0.0000000000000000e+00 0.0000000000000000e+00 0.0000000000000000e+00  2.4826179638102422e-02 5.5314921821882765e-03 0.0000000000000000e+00 5.5314921821882782e-03 -1.9041254686163120e-02 0.0000000000000000e+00 0.0000000000000000e+00 0.0000000000000000e+00 0.0000000000000000e+00  7.8785280796000126e-02 1.9029658674447735e-02 0.0000000000000000e+00 1.9029658674447735e-02 -5.7981165581775049e-03 0.0000000000000000e+00 0.0000000000000000e+00 0.0000000000000000e+00 0.0000000000000000e+00  1.4993211115940439e-01 1.4287049496910086e-02 0.0000000000000000e+00 1.4287049496910086e-02 3.4374563229764753e-02 0.0000000000000000e+00 0.0000000000000000e+00 0.0000000000000000e+00 0.0000000000000000e+00  2.0041253179019217e-01 3.4486164070703026e-03 0.0000000000000000e+00 3.4486164070703026e-03 8.4198122518630777e-02 0.0000000000000000e+00 0.0000000000000000e+00 0.0000000000000000e+00 0.0000000000000000e+00  2.2067071252417439e-01 -4.1950811413401573e-03 0.0000000000000000e+00 -4.1950811413401573e-03 1.3153715548095857e-01 0.0000000000000000e+00 0.0000000000000000e+00 0.0000000000000000e+00 0.0000000000000000e+00  2.1885191172153801e-01 -6.8953892752323907e-03 0.0000000000000000e+00 -6.8953892752323907e-03 1.6993188866915729e-01 0.0000000000000000e+00 0.0000000000000000e+00 0.0000000000000000e+00 0.0000000000000000e+00  2.0901189021158090e-01 -4.1003713248957668e-03 0.0000000000000000e+00 -4.1003713248957668e-03 1.9531658948487937e-01 0.0000000000000000e+00 0.0000000000000000e+00 0.0000000000000000e+00 0.0000000000000000e+00  2.0480909330581518e-01 2.1193267460681109e-03 0.0000000000000000e+00 2.1193267460681109e-03 2.0338736950268188e-01 0.0000000000000000e+00 0.0000000000000000e+00 0.0000000000000000e+00 0.0000000000000000e+00  2.1123214652992678e-01 7.7502977257083508e-03 0.0000000000000000e+00 7.7502977257083508e-03 1.9214749592376221e-01 0.0000000000000000e+00 0.0000000000000000e+00 0.0000000000000000e+00 0.0000000000000000e+00  2.2123773802913144e-01 9.2955287972590773e-03 0.0000000000000000e+00 9.2955287972590773e-03 1.6409564582432612e-01 0.0000000000000000e+00 0.0000000000000000e+00 0.0000000000000000e+00 0.0000000000000000e+00  2.2081251095523460e-01 5.6247968502303545e-03 0.0000000000000000e+00 5.6247968502303545e-03 1.2421701801750674e-01 0.0000000000000000e+00 0.0000000000000000e+00 0.0000000000000000e+00 0.0000000000000000e+00  1.9693126958807816e-01 -3.1014749984805997e-03 0.0000000000000000e+00 -3.1014749984805997e-03 7.7345862777056865e-02 0.0000000000000000e+00 0.0000000000000000e+00 0.0000000000000000e+00 0.0000000000000000e+00  1.4295132493417609e-01 -1.4265558711460534e-02 0.0000000000000000e+00 -1.4265558711460534e-02 2.9805784051714340e-02 0.0000000000000000e+00 0.0000000000000000e+00 0.0000000000000000e+00 0.0000000000000000e+00  7.2919773086889642e-02 -1.6158850945997422e-02 0.0000000000000000e+00 -1.6158850945997422e-02 -5.2829311250948748e-03 0.0000000000000000e+00 0.0000000000000000e+00 0.0000000000000000e+00 0.0000000000000000e+00  2.4746073089008870e-02 -2.0152177055373704e-03 0.0000000000000000e+00 -2.0152177055373704e-03 -1.2985915710077657e-02 0.0000000000000000e+00 0.0000000000000000e+00 0.0000000000000000e+00 0.0000000000000000e+00  1.0326539269380004e-02 6.0937680654149619e-03 0.0000000000000000e+00 6.0937680654149619e-03 -1.1209503563691767e-03 0.0000000000000000e+00 0.0000000000000000e+00 0.0000000000000000e+00 0.0000000000000000e+00  1.0120298057128538e-02 1.8346354715188394e-03 0.0000000000000000e+00 1.8346354715188394e-03 7.3704225669574477e-03 0.0000000000000000e+00 0.0000000000000000e+00 0.0000000000000000e+00 0.0000000000000000e+00  8.3989920194560957e-03 -8.0872821372890088e-04 0.0000000000000000e+00 -8.0872821372890088e-04 6.4048295165479493e-03 0.0000000000000000e+00 0.0000000000000000e+00 0.0000000000000000e+00 0.0000000000000000e+00  6.6261655025314408e-03 6.6152707073259168e-05 0.0000000000000000e+00 6.6152707073259168e-05 5.9454519513969543e-03 0.0000000000000000e+00 0.0000000000000000e+00 0.0000000000000000e+00 0.0000000000000000e+00  6.8190570257642656e-03 4.1052900165967487e-04 0.0000000000000000e+00 4.1052900165967487e-04 6.7083990363007006e-03 0.0000000000000000e+00 0.0000000000000000e+00 0.0000000000000000e+00 0.0000000000000000e+00  7.3439741535236188e-03 -5.4315110914285437e-05 0.0000000000000000e+00 -5.4315110914285451e-05 7.4267198034155728e-03 0.0000000000000000e+00 0.0000000000000000e+00 0.0000000000000000e+00 0.0000000000000000e+00  7.3106568911531699e-03 5.5346471393405303e-05 0.0000000000000000e+00 5.5346471393405316e-05 7.2522976114511636e-03 0.0000000000000000e+00 0.0000000000000000e+00 0.0000000000000000e+00 0.0000000000000000e+00  7.4030918988980711e-03 5.7753031986528553e-05 0.0000000000000000e+00 5.7753031986528553e-05 7.4085687759265087e-03 0.0000000000000000e+00 0.0000000000000000e+00 0.0000000000000000e+00 0.0000000000000000e+00  7.4521813986265775e-03 1.1496529980182974e-05 0.0000000000000000e+00 1.1496529980182976e-05 7.4706077488330656e-03 0.0000000000000000e+00 0.0000000000000000e+00 0.0000000000000000e+00 0.0000000000000000e+00  7.4639812383370634e-03 1.3892574179484371e-05 0.0000000000000000e+00 1.3892574179484371e-05 7.4981991618510305e-03 0.0000000000000000e+00 0.0000000000000000e+00 0.0000000000000000e+00 0.0000000000000000e+00  7.4795081055514072e-03 4.7273829773879667e-06 0.0000000000000000e+00 4.7273829773879667e-06 7.5186154809700747e-03 0.0000000000000000e+00 0.0000000000000000e+00 0.0000000000000000e+00 0.0000000000000000e+00  7.4856162827374711e-03 4.2903892277297507e-06 0.0000000000000000e+00 4.2903892277297507e-06 7.5280818000893401e-03 0.0000000000000000e+00 0.0000000000000000e+00 0.0000000000000000e+00 0.0000000000000000e+00  7.4925922154022309e-03 2.4062803601877140e-06 0.0000000000000000e+00 2.4062803601877140e-06 7.5367519204773276e-03 0.0000000000000000e+00 0.0000000000000000e+00 0.0000000000000000e+00 0.0000000000000000e+00  7.4974458391063176e-03 1.7846661519991543e-06 0.0000000000000000e+00 1.7846661519991543e-06 7.5421025446441780e-03 0.0000000000000000e+00 0.0000000000000000e+00 0.0000000000000000e+00 0.0000000000000000e+00  7.5015464036835193e-03 1.7746327890326338e-06 0.0000000000000000e+00 1.7746327890326338e-06 7.5455894806903479e-03 0.0000000000000000e+00 0.0000000000000000e+00 0.0000000000000000e+00 0.0000000000000000e+00  7.5048584703008665e-03 2.6060998686373782e-06 0.0000000000000000e+00 2.6060998686373782e-06 7.5467832556508178e-03 0.0000000000000000e+00 0.0000000000000000e+00 0.0000000000000000e+00 0.0000000000000000e+00  7.5078006425426348e-03 4.1213654566436875e-06 0.0000000000000000e+00 4.1213654566436875e-06 7.5456711163048428e-03 0.0000000000000000e+00 0.0000000000000000e+00 0.0000000000000000e+00 0.0000000000000000e+00  7.5106165106495924e-03 6.0988704415756580e-06 0.0000000000000000e+00 6.0988704415756580e-06 7.5420409189302607e-03 0.0000000000000000e+00 0.0000000000000000e+00 0.0000000000000000e+00 0.0000000000000000e+00  7.5136008174059498e-03 8.1491228796305577e-06 0.0000000000000000e+00 8.1491228796305577e-06 7.5356273233581099e-03 0.0000000000000000e+00 0.0000000000000000e+00 0.0000000000000000e+00 0.0000000000000000e+00  7.5171387294134858e-03 9.7546366290377526e-06 0.0000000000000000e+00 9.7546366290377526e-06 7.5258818212800846e-03 0.0000000000000000e+00 0.0000000000000000e+00 0.0000000000000000e+00 0.0000000000000000e+00  7.5748676612557193e-03 -6.6702995481961499e-06 0.0000000000000000e+00 -6.6702995481961499e-06 7.5832375761283573e-03 0.0000000000000000e+00 0.0000000000000000e+00 0.0000000000000000e+00 0.0000000000000000e+00  7.5713337516183895e-03 -5.6156425521764152e-06 0.0000000000000000e+00 -5.6156425521764152e-06 7.5926308941692434e-03 0.0000000000000000e+00 0.0000000000000000e+00 0.0000000000000000e+00 0.0000000000000000e+00  7.5680370620663266e-03 -3.6379829977280885e-06 0.0000000000000000e+00 -3.6379829977280885e-06 7.5991197594626383e-03 0.0000000000000000e+00 0.0000000000000000e+00 0.0000000000000000e+00 0.0000000000000000e+00  7.5645922817987044e-03 -1.5120129632165342e-06 0.0000000000000000e+00 -1.5120129632165342e-06 7.6030725730043486e-03 0.0000000000000000e+00 0.0000000000000000e+00 0.0000000000000000e+00 0.0000000000000000e+00  7.5607077287468891e-03 3.2124664601541352e-07 0.0000000000000000e+00 3.2124664601541352e-07 7.6045635255025373e-03 0.0000000000000000e+00 0.0000000000000000e+00 0.0000000000000000e+00 0.0000000000000000e+00  7.5560609275384261e-03 1.6135589736621320e-06 0.0000000000000000e+00 1.6135589736621320e-06 7.6035872810196253e-03 0.0000000000000000e+00 0.0000000000000000e+00 0.0000000000000000e+00 0.0000000000000000e+00  7.5503169738828802e-03 2.2378026098441073e-06 0.0000000000000000e+00 2.2378026098441073e-06 7.6001649258355354e-03 0.0000000000000000e+00 0.0000000000000000e+00 0.0000000000000000e+00 0.0000000000000000e+00  7.5429650057609911e-03 2.0388487974505768e-06 0.0000000000000000e+00 2.0388487974505768e-06 7.5941732864571437e-03 0.0000000000000000e+00 0.0000000000000000e+00 0.0000000000000000e+00 0.0000000000000000e+00  7.5337280183930900e-03 1.2246456014193207e-06 0.0000000000000000e+00 1.2246456014193207e-06 7.5856975628815363e-03 0.0000000000000000e+00 0.0000000000000000e+00 0.0000000000000000e+00 0.0000000000000000e+00  7.5213802691659684e-03 -9.1061260658766236e-07 0.0000000000000000e+00 -9.1061260658766236e-07 7.5736836917665827e-03 0.0000000000000000e+00 0.0000000000000000e+00 0.0000000000000000e+00 0.0000000000000000e+00  7.5057447126795247e-03 -1.9926195149165380e-06 0.0000000000000000e+00 -1.9926195149165380e-06 7.5573908144304404e-03 0.0000000000000000e+00 0.0000000000000000e+00 0.0000000000000000e+00 0.0000000000000000e+00  7.4790331803957100e-03 -1.3723178544913175e-05 0.0000000000000000e+00 -1.3723178544913175e-05 7.5302008323875442e-03 0.0000000000000000e+00 0.0000000000000000e+00 0.0000000000000000e+00 0.0000000000000000e+00  7.4177512944551549e-03 -1.6355975633740082e-05 0.0000000000000000e+00 -1.6355975633740082e-05 7.4407137117921199e-03 0.0000000000000000e+00 0.0000000000000000e+00 0.0000000000000000e+00 0.0000000000000000e+00  7.2946937097326872e-03 -3.5100986609167207e-05 0.0000000000000000e+00 -3.5100986609167207e-05 7.3497284077972602e-03 0.0000000000000000e+00 0.0000000000000000e+00 0.0000000000000000e+00 0.0000000000000000e+00  7.1609128620473235e-03 -1.0496128335678674e-04 0.0000000000000000e+00 -1.0496128335678674e-04 7.1965735327690896e-03 0.0000000000000000e+00 0.0000000000000000e+00 0.0000000000000000e+00 0.0000000000000000e+00  6.8926924448870358e-03 2.0670528772835979e-05 0.0000000000000000e+00 2.0670528772835979e-05 6.8490714869799242e-03 0.0000000000000000e+00 0.0000000000000000e+00 0.0000000000000000e+00 0.0000000000000000e+00  6.8864048753335795e-03 -1.3535654485123479e-04 0.0000000000000000e+00 -1.3535654485123479e-04 6.7852862915602427e-03 0.0000000000000000e+00 0.0000000000000000e+00 0.0000000000000000e+00 0.0000000000000000e+00  6.7376582395719765e-03 -1.7706183355617882e-05 0.0000000000000000e+00 -1.7706183355617855e-05 6.8502421036265703e-03 0.0000000000000000e+00 0.0000000000000000e+00 0.0000000000000000e+00 0.0000000000000000e+00  6.3435585634794133e-03 -4.9357881173368943e-04 0.0000000000000000e+00 -4.9357881173368943e-04 5.7242836508466606e-03 0.0000000000000000e+00 0.0000000000000000e+00 0.0000000000000000e+00 0.0000000000000000e+00  7.2298028192948243e-03 1.8794463999372127e-04 0.0000000000000000e+00 1.8794463999372127e-04 6.2468897400670019e-03 0.0000000000000000e+00 0.0000000000000000e+00 0.0000000000000000e+00 0.0000000000000000e+00  8.8070006417326745e-03 8.0228986118540057e-06 0.0000000000000000e+00 8.0228986118540057e-06 6.8015117891611415e-03 0.0000000000000000e+00 0.0000000000000000e+00 0.0000000000000000e+00 0.0000000000000000e+00  9.7424463425292932e-03 -1.7017032313611914e-03 0.0000000000000000e+00 -1.7017032313611914e-03 5.6326309737471545e-03 0.0000000000000000e+00 0.0000000000000000e+00 0.0000000000000000e+00 0.0000000000000000e+00  1.0525660917894052e-02 -2.1123231200484739e-03 0.0000000000000000e+00 -2.1123231200484739e-03 3.1261070563090728e-03 0.0000000000000000e+00 0.0000000000000000e+00 0.0000000000000000e+00 0.0000000000000000e+00  1.1340997659139778e-02 -1.4997065375876638e-03 0.0000000000000000e+00 -1.4997065375876638e-03 6.8118008761391383e-04 0.0000000000000000e+00 0.0000000000000000e+00 0.0000000000000000e+00 0.0000000000000000e+00  1.1823692276538563e-02 -1.1665978254580618e-03 0.0000000000000000e+00 -1.1665978254580618e-03 -1.1985147930577849e-03 0.0000000000000000e+00 0.0000000000000000e+00 0.0000000000000000e+00 0.0000000000000000e+00  1.2388549779275185e-02 -8.6771082060303523e-04 0.0000000000000000e+00 -8.6771082060303523e-04 -2.9493313505887090e-03 0.0000000000000000e+00 0.0000000000000000e+00 0.0000000000000000e+00 0.0000000000000000e+00  1.3281674348652350e-02 -7.8651891945655565e-04 0.0000000000000000e+00 -7.8651891945655565e-04 -3.8516206592387747e-03 0.0000000000000000e+00 0.0000000000000000e+00 0.0000000000000000e+00 0.0000000000000000e+00  1.3624058839125876e-02 -9.6584603069043589e-04 0.0000000000000000e+00 -9.6584603069043589e-04 -4.2669588564084576e-03 0.0000000000000000e+00 0.0000000000000000e+00 0.0000000000000000e+00 0.0000000000000000e+00  1.2945691615662135e-02 -1.0244286631907876e-03 0.0000000000000000e+00 -1.0244286631907876e-03 -4.3288790261608546e-03 0.0000000000000000e+00 0.0000000000000000e+00 0.0000000000000000e+00 0.0000000000000000e+00  1.1940431379332112e-02 -4.9130531782614012e-04 0.0000000000000000e+00 -4.9130531782614012e-04 -3.1741458036502928e-03 0.0000000000000000e+00 0.0000000000000000e+00 0.0000000000000000e+00 0.0000000000000000e+00  1.0365772050847728e-02 -2.5734146071607793e-04 0.0000000000000000e+00 -2.5734146071607793e-04 -2.4946177301046930e-03 0.0000000000000000e+00 0.0000000000000000e+00 0.0000000000000000e+00 0.0000000000000000e+00  8.7473963542574439e-03 1.1048732300140428e-04 0.0000000000000000e+00 1.1048732300140428e-04 -1.7666047963763884e-03 0.0000000000000000e+00 0.0000000000000000e+00 0.0000000000000000e+00 0.0000000000000000e+00  7.0165607316167462e-03 1.0376271155839230e-03 0.0000000000000000e+00 1.0376271155839230e-03 -6.5652248874859334e-04 0.0000000000000000e+00 0.0000000000000000e+00 0.0000000000000000e+00 0.0000000000000000e+00  5.6118117882876604e-03 9.7246035779982088e-04 0.0000000000000000e+00 9.7246035779982088e-04 1.2629874702017611e-03 0.0000000000000000e+00 0.0000000000000000e+00 0.0000000000000000e+00 0.0000000000000000e+00  4.5812664421047578e-03 -1.1534085897789947e-04 0.0000000000000000e+00 -1.1534085897789947e-04 2.8576598359334147e-03 0.0000000000000000e+00 0.0000000000000000e+00 0.0000000000000000e+00 0.0000000000000000e+00  2.6908538941027935e-03 -6.3553536152341006e-04 0.0000000000000000e+00 -6.3553536152341006e-04 1.4989169029194940e-03 0.0000000000000000e+00 0.0000000000000000e+00 0.0000000000000000e+00 0.0000000000000000e+00  1.9952025162431682e-03 -1.4070617822318685e-04 0.0000000000000000e+00 -1.4070617822318685e-04 1.6289403808391794e-03 0.0000000000000000e+00 0.0000000000000000e+00 0.0000000000000000e+00 0.0000000000000000e+00  2.1152564758935392e-03 6.4542904606416677e-05 0.0000000000000000e+00 6.4542904606416677e-05 2.1547654248307399e-03 0.0000000000000000e+00 0.0000000000000000e+00 0.0000000000000000e+00 0.0000000000000000e+00  2.2820295346477216e-03 -3.0070579988029796e-05 0.0000000000000000e+00 -3.0070579988029796e-05 2.2746164835091925e-03 0.0000000000000000e+00 0.0000000000000000e+00 0.0000000000000000e+00 0.0000000000000000e+00  2.3816678592524050e-03 -6.5699243867250093e-05 0.0000000000000000e+00 -6.5699243867250093e-05 2.2946216786088962e-03 0.0000000000000000e+00 0.0000000000000000e+00 0.0000000000000000e+00 0.0000000000000000e+00  2.5094767542007432e-03 2.7601241299950035e-05 0.0000000000000000e+00 2.7601241299950035e-05 2.5113095413052304e-03 0.0000000000000000e+00 0.0000000000000000e+00 0.0000000000000000e+00 0.0000000000000000e+00  2.5641982095842386e-03 -5.8923310159625656e-06 0.0000000000000000e+00 -5.8923310159625656e-06 2.4951059669727342e-03 0.0000000000000000e+00 0.0000000000000000e+00 0.0000000000000000e+00 0.0000000000000000e+00  2.5561559717191202e-03 -7.3559821503693718e-06 0.0000000000000000e+00 -7.3559821503693718e-06 2.4952078497298405e-03 0.0000000000000000e+00 0.0000000000000000e+00 0.0000000000000000e+00 0.0000000000000000e+00  2.5499879366696278e-03 3.3317867688951936e-07 0.0000000000000000e+00 3.3317867688951936e-07 2.5023591623016235e-03 0.0000000000000000e+00 0.0000000000000000e+00 0.0000000000000000e+00 0.0000000000000000e+00  2.5451588091955388e-03 6.5769131676244878e-07 0.0000000000000000e+00 6.5769131676244878e-07 2.4941535388607284e-03 0.0000000000000000e+00 0.0000000000000000e+00 0.0000000000000000e+00 0.0000000000000000e+00  2.5362503219915266e-03 4.4837603782417494e-06 0.0000000000000000e+00 4.4837603782417494e-06 2.4817530140598810e-03 0.0000000000000000e+00 0.0000000000000000e+00 0.0000000000000000e+00 0.0000000000000000e+00  2.5308545727322227e-03 5.5610101713346656e-06 0.0000000000000000e+00 5.5610101713346656e-06 2.4718038596708816e-03 0.0000000000000000e+00 0.0000000000000000e+00 0.0000000000000000e+00 0.0000000000000000e+00  2.5268716507544069e-03 5.2914793668854899e-06 0.0000000000000000e+00 5.2914793668854899e-06 2.4629403792328416e-03 0.0000000000000000e+00 0.0000000000000000e+00 0.0000000000000000e+00 0.0000000000000000e+00  2.5245851129827961e-03 3.5394594125069779e-06 0.0000000000000000e+00 3.5394594125069779e-06 2.4567686305319541e-03 0.0000000000000000e+00 0.0000000000000000e+00 0.0000000000000000e+00 0.0000000000000000e+00  2.5232953863073434e-03 8.4076324974418922e-07 0.0000000000000000e+00 8.4076324974418922e-07 2.4535378512823931e-03 0.0000000000000000e+00 0.0000000000000000e+00 0.0000000000000000e+00 0.0000000000000000e+00  2.5228221481349553e-03 -2.1580985971646209e-06 0.0000000000000000e+00 -2.1580985971646209e-06 2.4536009943750166e-03 0.0000000000000000e+00 0.0000000000000000e+00 0.0000000000000000e+00 0.0000000000000000e+00  2.5231799420173109e-03 -4.8285476565459099e-06 0.0000000000000000e+00 -4.8285476565459099e-06 2.4568500142946302e-03 0.0000000000000000e+00 0.0000000000000000e+00 0.0000000000000000e+00 0.0000000000000000e+00  2.5245512965270645e-03 -6.5831523130445396e-06 0.0000000000000000e+00 -6.5831523130445396e-06 2.4627845759818733e-03 0.0000000000000000e+00 0.0000000000000000e+00 0.0000000000000000e+00 0.0000000000000000e+00  2.5274827024034802e-03 -6.9459736315537010e-06 0.0000000000000000e+00 -6.9459736315537010e-06 2.4709911252064156e-03 0.0000000000000000e+00 0.0000000000000000e+00 0.0000000000000000e+00 0.0000000000000000e+00  2.5316472253452721e-03 -6.0417647679442953e-06 0.0000000000000000e+00 -6.0417647679442953e-06 2.4797891984780621e-03 0.0000000000000000e+00 0.0000000000000000e+00 0.0000000000000000e+00 0.0000000000000000e+00  2.5379307932129574e-03 -2.2301939503007358e-06 0.0000000000000000e+00 -2.2301939503007358e-06 2.4891399446900701e-03 0.0000000000000000e+00 0.0000000000000000e+00 0.0000000000000000e+00 0.0000000000000000e+00  2.5346630546004122e-03 -7.7468130326574813e-06 0.0000000000000000e+00 -7.7468130326574813e-06 2.4914702164587107e-03 0.0000000000000000e+00 0.0000000000000000e+00 0.0000000000000000e+00 0.0000000000000000e+00  2.4992040805393934e-03 -1.0014797008135166e-06 0.0000000000000000e+00 -1.0014797008135166e-06 2.4372713087834224e-03 0.0000000000000000e+00 0.0000000000000000e+00 0.0000000000000000e+00 0.0000000000000000e+00  2.3673184506523455e-03 -4.7811768006798462e-06 0.0000000000000000e+00 -4.7811768006798462e-06 2.3514218135109030e-03 0.0000000000000000e+00 0.0000000000000000e+00 0.0000000000000000e+00 0.0000000000000000e+00  2.2948138707806777e-03 -1.7268470632688987e-05 0.0000000000000000e+00 -1.7268470632688987e-05 2.2923689770115402e-03 0.0000000000000000e+00 0.0000000000000000e+00 0.0000000000000000e+00 0.0000000000000000e+00  2.0422271652573527e-03 6.5719820333187879e-05 0.0000000000000000e+00 6.5719820333187879e-05 1.9224480670600318e-03 0.0000000000000000e+00 0.0000000000000000e+00 0.0000000000000000e+00 0.0000000000000000e+00  2.0746458089403483e-03 3.9238908191631680e-05 0.0000000000000000e+00 3.9238908191631687e-05 2.1416331451397713e-03 0.0000000000000000e+00 0.0000000000000000e+00 0.0000000000000000e+00 0.0000000000000000e+00  1.8631408245596258e-03 7.2616859589932610e-05 0.0000000000000000e+00 7.2616859589932610e-05 1.9243726110434495e-03 0.0000000000000000e+00 0.0000000000000000e+00 0.0000000000000000e+00 0.0000000000000000e+00  1.6563265605268429e-03 -3.8047017632387300e-05 0.0000000000000000e+00 -3.8047017632387300e-05 1.1754943464397192e-03 0.0000000000000000e+00 0.0000000000000000e+00 0.0000000000000000e+00 0.0000000000000000e+00  3.0600499414364687e-03 5.8928963967939843e-04 0.0000000000000000e+00 5.8928963967939854e-04 2.3385609893423077e-03 0.0000000000000000e+00 0.0000000000000000e+00 0.0000000000000000e+00 0.0000000000000000e+00  4.5770956107719814e-03 3.2690158142449378e-04 0.0000000000000000e+00 3.2690158142449378e-04 2.6269359376736739e-03 0.0000000000000000e+00 0.0000000000000000e+00 0.0000000000000000e+00 0.0000000000000000e+00  6.0064358877184370e-03 -1.1624437636175639e-03 0.0000000000000000e+00 -1.1624437636175641e-03 1.6402730334216797e-03 0.0000000000000000e+00 0.0000000000000000e+00 0.0000000000000000e+00 0.0000000000000000e+00  7.3036859818932810e-03 -1.1710858005909730e-03 0.0000000000000000e+00 -1.1710858005909730e-03 -3.2730727305173740e-04 0.0000000000000000e+00 0.0000000000000000e+00 0.0000000000000000e+00 0.0000000000000000e+00  8.7269691146799160e-03 -3.2819371846973326e-04 0.0000000000000000e+00 -3.2819371846973326e-04 -1.8260208826746088e-03 0.0000000000000000e+00 0.0000000000000000e+00 0.0000000000000000e+00 0.0000000000000000e+00  1.0116299305513060e-02 1.9385209243484773e-04 0.0000000000000000e+00 1.9385209243484773e-04 -2.7042370027257987e-03 0.0000000000000000e+00 0.0000000000000000e+00 0.0000000000000000e+00 0.0000000000000000e+00  1.1311204623677974e-02 7.6632285734148356e-04 0.0000000000000000e+00 7.6632285734148356e-04 -4.0186829745812065e-03 0.0000000000000000e+00 0.0000000000000000e+00 0.0000000000000000e+00 0.0000000000000000e+00  1.2727337557571002e-02 1.1209666654816810e-03 0.0000000000000000e+00 1.1209666654816810e-03 -4.5062680677637442e-03 0.0000000000000000e+00 0.0000000000000000e+00 0.0000000000000000e+00 0.0000000000000000e+00  1.3710692577646809e-02 9.7140707724608895e-04 0.0000000000000000e+00 9.7140707724608895e-04 -4.2004443163530386e-03 0.0000000000000000e+00 0.0000000000000000e+00 0.0000000000000000e+00 0.0000000000000000e+00  1.3589604302442413e-02 8.2329479036260362e-04 0.0000000000000000e+00 8.2329479036260362e-04 -3.5935885795644342e-03 0.0000000000000000e+00 0.0000000000000000e+00 0.0000000000000000e+00 0.0000000000000000e+00  1.2962208576953170e-02 1.0295778100093533e-03 0.0000000000000000e+00 1.0295778100093533e-03 -2.2745197449230386e-03 0.0000000000000000e+00 0.0000000000000000e+00 0.0000000000000000e+00 0.0000000000000000e+00  1.2443026530669450e-02 1.0878620236488129e-03 0.0000000000000000e+00 1.0878620236488129e-03 -6.0546505608956140e-04 0.0000000000000000e+00 0.0000000000000000e+00 0.0000000000000000e+00 0.0000000000000000e+00  1.1664906816705721e-02 1.3133435033126941e-03 0.0000000000000000e+00 1.3133435033126941e-03 1.1309528003993453e-03 0.0000000000000000e+00 0.0000000000000000e+00 0.0000000000000000e+00 0.0000000000000000e+00  1.0482987608447934e-02 1.9867231651243102e-03 0.0000000000000000e+00 1.9867231651243102e-03 3.1538929086739956e-03 0.0000000000000000e+00 0.0000000000000000e+00 0.0000000000000000e+00 0.0000000000000000e+00  9.6416961649692656e-03 1.5015501376621962e-03 0.0000000000000000e+00 1.5015501376621962e-03 5.5940255877176487e-03 0.0000000000000000e+00 0.0000000000000000e+00 0.0000000000000000e+00 0.0000000000000000e+00  8.7763672801075988e-03 6.5386836259353703e-05 0.0000000000000000e+00 6.5386836259353703e-05 7.0615876646524601e-03 0.0000000000000000e+00 0.0000000000000000e+00 0.0000000000000000e+00 0.0000000000000000e+00  6.8788458441685942e-03 -6.0161911541869176e-05 0.0000000000000000e+00 -6.0161911541869176e-05 5.5570627428551253e-03 0.0000000000000000e+00 0.0000000000000000e+00 0.0000000000000000e+00 0.0000000000000000e+00  6.3946856291072886e-03 8.6554747835176446e-05 0.0000000000000000e+00 8.6554747835176446e-05 6.1289701120121522e-03 0.0000000000000000e+00 0.0000000000000000e+00 0.0000000000000000e+00 0.0000000000000000e+00  6.6577582838907700e-03 2.8608245488727309e-04 0.0000000000000000e+00 2.8608245488727309e-04 6.5838918995945140e-03 0.0000000000000000e+00 0.0000000000000000e+00 0.0000000000000000e+00 0.0000000000000000e+00  6.9544130476766382e-03 -1.3975653204136523e-05 0.0000000000000000e+00 -1.3975653204136523e-05 7.0234961087011155e-03 0.0000000000000000e+00 0.0000000000000000e+00 0.0000000000000000e+00 0.0000000000000000e+00  7.0975656443303756e-03 6.3329013027520783e-05 0.0000000000000000e+00 6.3329013027520783e-05 7.0157701806824579e-03 0.0000000000000000e+00 0.0000000000000000e+00 0.0000000000000000e+00 0.0000000000000000e+00  7.2997757125765851e-03 3.8530809280897726e-05 0.0000000000000000e+00 3.8530809280897726e-05 7.3855249325462790e-03 0.0000000000000000e+00 0.0000000000000000e+00 0.0000000000000000e+00 0.0000000000000000e+00  7.3861761595190034e-03 1.1997144319476375e-05 0.0000000000000000e+00 1.1997144319476375e-05 7.4240025091712710e-03 0.0000000000000000e+00 0.0000000000000000e+00 0.0000000000000000e+00 0.0000000000000000e+00  7.4143957529012689e-03 1.3363971700390887e-05 0.0000000000000000e+00 1.3363971700390888e-05 7.4488477639995188e-03 0.0000000000000000e+00 0.0000000000000000e+00 0.0000000000000000e+00 0.0000000000000000e+00  7.4418115788331754e-03 6.3149244427878980e-06 0.0000000000000000e+00 6.3149244427878972e-06 7.4858186530877349e-03 0.0000000000000000e+00 0.0000000000000000e+00 0.0000000000000000e+00 0.0000000000000000e+00  7.4605727746271892e-03 -1.6017913046691142e-06 0.0000000000000000e+00 -1.6017913046691142e-06 7.5056308896857844e-03 0.0000000000000000e+00 0.0000000000000000e+00 0.0000000000000000e+00 0.0000000000000000e+00  7.4718699306423999e-03 -2.8431954246592026e-06 0.0000000000000000e+00 -2.8431954246592026e-06 7.5191109770995608e-03 0.0000000000000000e+00 0.0000000000000000e+00 0.0000000000000000e+00 0.0000000000000000e+00  7.4818466039596075e-03 -3.9939877611348512e-06 0.0000000000000000e+00 -3.9939877611348512e-06 7.5296944903172234e-03 0.0000000000000000e+00 0.0000000000000000e+00 0.0000000000000000e+00 0.0000000000000000e+00  7.4894914273162336e-03 -3.8335285888638692e-06 0.0000000000000000e+00 -3.8335285888638692e-06 7.5369432870483885e-03 0.0000000000000000e+00 0.0000000000000000e+00 0.0000000000000000e+00 0.0000000000000000e+00  7.4958296802967823e-03 -3.3403528528926091e-06 0.0000000000000000e+00 -3.3403528528926091e-06 7.5419783983373227e-03 0.0000000000000000e+00 0.0000000000000000e+00 0.0000000000000000e+00 0.0000000000000000e+00  7.5008342858526441e-03 -2.3099495455983781e-06 0.0000000000000000e+00 -2.3099495455983781e-06 7.5447271791473178e-03 0.0000000000000000e+00 0.0000000000000000e+00 0.0000000000000000e+00 0.0000000000000000e+00  7.5049104640109382e-03 -8.1659913326733098e-07 0.0000000000000000e+00 -8.1659913326733098e-07 7.5453380452960668e-03 0.0000000000000000e+00 0.0000000000000000e+00 0.0000000000000000e+00 0.0000000000000000e+00  7.5083436994085500e-03 1.0792857257856641e-06 0.0000000000000000e+00 1.0792857257856641e-06 7.5437566673680779e-03 0.0000000000000000e+00 0.0000000000000000e+00 0.0000000000000000e+00 0.0000000000000000e+00  7.5114273732191034e-03 3.1708492110892384e-06 0.0000000000000000e+00 3.1708492110892384e-06 7.5399668569838445e-03 0.0000000000000000e+00 0.0000000000000000e+00 0.0000000000000000e+00 0.0000000000000000e+00  7.5144188837907109e-03 5.0472768036446554e-06 0.0000000000000000e+00 5.0472768036446554e-06 7.5338996997729975e-03 0.0000000000000000e+00 0.0000000000000000e+00 0.0000000000000000e+00 0.0000000000000000e+00  7.5176449908928187e-03 5.9743781120276685e-06 0.0000000000000000e+00 5.9743781120276685e-06 7.5252527746573041e-03 0.0000000000000000e+00 0.0000000000000000e+00 0.0000000000000000e+00 0.0000000000000000e+00  7.5772169225093982e-03 -3.2409040223698156e-06 0.0000000000000000e+00 -3.2409040223698156e-06 7.5834203741457712e-03 0.0000000000000000e+00 0.0000000000000000e+00 0.0000000000000000e+00 0.0000000000000000e+00  7.5743183908281485e-03 -2.4897367931603671e-06 0.0000000000000000e+00 -2.4897367931603671e-06 7.5909874005964575e-03 0.0000000000000000e+00 0.0000000000000000e+00 0.0000000000000000e+00 0.0000000000000000e+00  7.5713308216461220e-03 -3.9176633166083446e-07 0.0000000000000000e+00 -3.9176633166083446e-07 7.5968513036411096e-03 0.0000000000000000e+00 0.0000000000000000e+00 0.0000000000000000e+00 0.0000000000000000e+00  7.5680190732147030e-03 2.1250913439335436e-06 0.0000000000000000e+00 2.1250913439335436e-06 7.6007784894312966e-03 0.0000000000000000e+00 0.0000000000000000e+00 0.0000000000000000e+00 0.0000000000000000e+00  7.5640762769289159e-03 4.6618894333294089e-06 0.0000000000000000e+00 4.6618894333294089e-06 7.6025315937498722e-03 0.0000000000000000e+00 0.0000000000000000e+00 0.0000000000000000e+00 0.0000000000000000e+00  7.5591169213329685e-03 7.0433227159637603e-06 0.0000000000000000e+00 7.0433227159637603e-06 7.6019802717424362e-03 0.0000000000000000e+00 0.0000000000000000e+00 0.0000000000000000e+00 0.0000000000000000e+00  7.5526902168111757e-03 9.1685452953276256e-06 0.0000000000000000e+00 9.1685452953276256e-06 7.5990479389826020e-03 0.0000000000000000e+00 0.0000000000000000e+00 0.0000000000000000e+00 0.0000000000000000e+00  7.5443431336912900e-03 1.1010222618750030e-05 0.0000000000000000e+00 1.1010222618750030e-05 7.5936650444981216e-03 0.0000000000000000e+00 0.0000000000000000e+00 0.0000000000000000e+00 0.0000000000000000e+00  7.5335504426717256e-03 1.2506255114729755e-05 0.0000000000000000e+00 1.2506255114729755e-05 7.5855620182003246e-03 0.0000000000000000e+00 0.0000000000000000e+00 0.0000000000000000e+00 0.0000000000000000e+00  7.5199127424175572e-03 1.3863544088759231e-05 0.0000000000000000e+00 1.3863544088759231e-05 7.5744394717384440e-03 0.0000000000000000e+00 0.0000000000000000e+00 0.0000000000000000e+00 0.0000000000000000e+00  7.5027126163096265e-03 1.4287344843175473e-05 0.0000000000000000e+00 1.4287344843175473e-05 7.5589296383434300e-03 0.0000000000000000e+00 0.0000000000000000e+00 0.0000000000000000e+00 0.0000000000000000e+00  7.4799354995896813e-03 1.4002074683655530e-05 0.0000000000000000e+00 1.4002074683655530e-05 7.5383525640665859e-03 0.0000000000000000e+00 0.0000000000000000e+00 0.0000000000000000e+00 0.0000000000000000e+00  7.4454568946440477e-03 5.7563874810409103e-06 0.0000000000000000e+00 5.7563874810409103e-06 7.5007992855638033e-03 0.0000000000000000e+00 0.0000000000000000e+00 0.0000000000000000e+00 0.0000000000000000e+00  7.3723535672413232e-03 8.2633837082749199e-06 0.0000000000000000e+00 8.2633837082749199e-06 7.4237978054062957e-03 0.0000000000000000e+00 0.0000000000000000e+00 0.0000000000000000e+00 0.0000000000000000e+00  7.3044245143981459e-03 -3.6522632153251110e-06 0.0000000000000000e+00 -3.6522632153251110e-06 7.3758202864135664e-03 0.0000000000000000e+00 0.0000000000000000e+00 0.0000000000000000e+00 0.0000000000000000e+00  7.0293501401195377e-03 -2.2074602532321772e-05 0.0000000000000000e+00 -2.2074602532321772e-05 7.0360872622055636e-03 0.0000000000000000e+00 0.0000000000000000e+00 0.0000000000000000e+00 0.0000000000000000e+00  7.0319456564999702e-03 -3.9845692198359424e-05 0.0000000000000000e+00 -3.9845692198359417e-05 7.1431274432062616e-03 0.0000000000000000e+00 0.0000000000000000e+00 0.0000000000000000e+00 0.0000000000000000e+00  6.6320687996677891e-03 9.1303071193115561e-05 0.0000000000000000e+00 9.1303071193115561e-05 6.6122191349845989e-03 0.0000000000000000e+00 0.0000000000000000e+00 0.0000000000000000e+00 0.0000000000000000e+00  6.6001946011329232e-03 -1.9072216205304060e-04 0.0000000000000000e+00 -1.9072216205304060e-04 6.3331069602368872e-03 0.0000000000000000e+00 0.0000000000000000e+00 0.0000000000000000e+00 0.0000000000000000e+00  6.9181257854990805e-03 -4.7970502044541024e-06 0.0000000000000000e+00 -4.7970502044541024e-06 7.0903106568760959e-03 0.0000000000000000e+00 0.0000000000000000e+00 0.0000000000000000e+00 0.0000000000000000e+00  6.2212353070580130e-03 5.2980343086804871e-06 0.0000000000000000e+00 5.2980343086804922e-06 6.1209424471902378e-03 0.0000000000000000e+00 0.0000000000000000e+00 0.0000000000000000e+00 0.0000000000000000e+00  5.6612033576039422e-03 -2.1365227383267715e-04 0.0000000000000000e+00 -2.1365227383267715e-04 5.3429539102094288e-03 0.0000000000000000e+00 0.0000000000000000e+00 0.0000000000000000e+00 0.0000000000000000e+00  5.4720536424097783e-03 -3.6182579655849313e-04 0.0000000000000000e+00 -3.6182579655849313e-04 5.1833569691482001e-03 0.0000000000000000e+00 0.0000000000000000e+00 0.0000000000000000e+00 0.0000000000000000e+00  5.6870911067219603e-03 -4.4828086880464423e-04 0.0000000000000000e+00 -4.4828086880464423e-04 5.1140355756233435e-03 0.0000000000000000e+00 0.0000000000000000e+00 0.0000000000000000e+00 0.0000000000000000e+00  6.3580547310945913e-03 -2.1134576202431080e-04 0.0000000000000000e+00 -2.1134576202431080e-04 5.7032144039681956e-03 0.0000000000000000e+00 0.0000000000000000e+00 0.0000000000000000e+00 0.0000000000000000e+00  6.3446424136839761e-03 -3.0147167666541049e-04 0.0000000000000000e+00 -3.0147167666541049e-04 5.2556237054119130e-03 0.0000000000000000e+00 0.0000000000000000e+00 0.0000000000000000e+00 0.0000000000000000e+00  6.0307454594729984e-03 -4.4303892979428029e-04 0.0000000000000000e+00 -4.4303892979428029e-04 4.6815402529821635e-03 0.0000000000000000e+00 0.0000000000000000e+00 0.0000000000000000e+00 0.0000000000000000e+00  5.5477227817183998e-03 -4.8693490820788846e-04 0.0000000000000000e+00 -4.8693490820788846e-04 4.1016311970749810e-03 0.0000000000000000e+00 0.0000000000000000e+00 0.0000000000000000e+00 0.0000000000000000e+00  4.9288750330200642e-03 -5.1893683552251815e-04 0.0000000000000000e+00 -5.1893683552251815e-04 3.7159996417912410e-03 0.0000000000000000e+00 0.0000000000000000e+00 0.0000000000000000e+00 0.0000000000000000e+00  4.1429470655800242e-03 -4.1506752184394119e-04 0.0000000000000000e+00 -4.1506752184394119e-04 3.4582263049218014e-03 0.0000000000000000e+00 0.0000000000000000e+00 0.0000000000000000e+00 0.0000000000000000e+00  3.2253996474446837e-03 -2.0618606851188634e-04 0.0000000000000000e+00 -2.0618606851188634e-04 2.5672615789023188e-03 0.0000000000000000e+00 0.0000000000000000e+00 0.0000000000000000e+00 0.0000000000000000e+00  2.5518549988824395e-03 -1.9023145099456709e-04 0.0000000000000000e+00 -1.9023145099456709e-04 2.1180649194340799e-03 0.0000000000000000e+00 0.0000000000000000e+00 0.0000000000000000e+00 0.0000000000000000e+00  2.2524848121379484e-03 -2.5621395400997479e-04 0.0000000000000000e+00 -2.5621395400997479e-04 1.9033377032372171e-03 0.0000000000000000e+00 0.0000000000000000e+00 0.0000000000000000e+00 0.0000000000000000e+00  2.3358334747790145e-03 -1.9311812187568816e-04 0.0000000000000000e+00 -1.9311812187568816e-04 2.0598739076731413e-03 0.0000000000000000e+00 0.0000000000000000e+00 0.0000000000000000e+00 0.0000000000000000e+00  2.6460941657420584e-03 -8.7491941930278153e-05 0.0000000000000000e+00 -8.7491941930278153e-05 2.7219739914921804e-03 0.0000000000000000e+00 0.0000000000000000e+00 0.0000000000000000e+00 0.0000000000000000e+00  2.3920157840029367e-03 -4.4545565224668971e-05 0.0000000000000000e+00 -4.4545565224668971e-05 2.2543314695766255e-03 0.0000000000000000e+00 0.0000000000000000e+00 0.0000000000000000e+00 0.0000000000000000e+00  2.3745642926975875e-03 1.8968611153383172e-05 0.0000000000000000e+00 1.8968611153383172e-05 2.3182693357471670e-03 0.0000000000000000e+00 0.0000000000000000e+00 0.0000000000000000e+00 0.0000000000000000e+00  2.4506195977201627e-03 -4.7798191824997332e-05 0.0000000000000000e+00 -4.7798191824997332e-05 2.4262432752258003e-03 0.0000000000000000e+00 0.0000000000000000e+00 0.0000000000000000e+00 0.0000000000000000e+00  2.5063954797169630e-03 5.5770294839510679e-05 0.0000000000000000e+00 5.5770294839510679e-05 2.4219168926169002e-03 0.0000000000000000e+00 0.0000000000000000e+00 0.0000000000000000e+00 0.0000000000000000e+00  2.5839041873143764e-03 1.4702675126356689e-05 0.0000000000000000e+00 1.4702675126356689e-05 2.4934474970474949e-03 0.0000000000000000e+00 0.0000000000000000e+00 0.0000000000000000e+00 0.0000000000000000e+00  2.6126752768270631e-03 1.6006185074880215e-05 0.0000000000000000e+00 1.6006185074880215e-05 2.5594225062758884e-03 0.0000000000000000e+00 0.0000000000000000e+00 0.0000000000000000e+00 0.0000000000000000e+00  2.5948594254109275e-03 1.7876374175516864e-05 0.0000000000000000e+00 1.7876374175516864e-05 2.5215117011087845e-03 0.0000000000000000e+00 0.0000000000000000e+00 0.0000000000000000e+00 0.0000000000000000e+00  2.5772475645497428e-03 1.3822099299335103e-05 0.0000000000000000e+00 1.3822099299335103e-05 2.5112038019288550e-03 0.0000000000000000e+00 0.0000000000000000e+00 0.0000000000000000e+00 0.0000000000000000e+00  2.5598549535138107e-03 1.2432786054636690e-05 0.0000000000000000e+00 1.2432786054636690e-05 2.5020826142980184e-03 0.0000000000000000e+00 0.0000000000000000e+00 0.0000000000000000e+00 0.0000000000000000e+00  2.5451364554991622e-03 1.3101129404754248e-05 0.0000000000000000e+00 1.3101129404754248e-05 2.4914812419963269e-03 0.0000000000000000e+00 0.0000000000000000e+00 0.0000000000000000e+00 0.0000000000000000e+00  2.5343379958922578e-03 1.2583486243030674e-05 0.0000000000000000e+00 1.2583486243030674e-05 2.4813907602337670e-03 0.0000000000000000e+00 0.0000000000000000e+00 0.0000000000000000e+00 0.0000000000000000e+00  2.5262726013171827e-03 1.1360974251298389e-05 0.0000000000000000e+00 1.1360974251298389e-05 2.4722897132311407e-03 0.0000000000000000e+00 0.0000000000000000e+00 0.0000000000000000e+00 0.0000000000000000e+00  2.5209000158098213e-03 8.9666971105570986e-06 0.0000000000000000e+00 8.9666971105570986e-06 2.4649631253091629e-03 0.0000000000000000e+00 0.0000000000000000e+00 0.0000000000000000e+00 0.0000000000000000e+00  2.5174730141709588e-03 5.7054166642761793e-06 0.0000000000000000e+00 5.7054166642761793e-06 2.4597056756426750e-03 0.0000000000000000e+00 0.0000000000000000e+00 0.0000000000000000e+00 0.0000000000000000e+00  2.5156219458986155e-03 1.8646067138434371e-06 0.0000000000000000e+00 1.8646067138434371e-06 2.4570081082409185e-03 0.0000000000000000e+00 0.0000000000000000e+00 0.0000000000000000e+00 0.0000000000000000e+00  2.5150904676861665e-03 -2.1634185228503008e-06 0.0000000000000000e+00 -2.1634185228503008e-06 2.4570503100101266e-03 0.0000000000000000e+00 0.0000000000000000e+00 0.0000000000000000e+00 0.0000000000000000e+00  2.5158614804766874e-03 -5.9692967075057149e-06 0.0000000000000000e+00 -5.9692967075057149e-06 2.4597549743013668e-03 0.0000000000000000e+00 0.0000000000000000e+00 0.0000000000000000e+00 0.0000000000000000e+00  2.5181406923807628e-03 -9.1772126601124527e-06 0.0000000000000000e+00 -9.1772126601124527e-06 2.4647902852375316e-03 0.0000000000000000e+00 0.0000000000000000e+00 0.0000000000000000e+00 0.0000000000000000e+00  2.5222626545609471e-03 -1.1508502792406517e-05 0.0000000000000000e+00 -1.1508502792406517e-05 2.4715249965221587e-03 0.0000000000000000e+00 0.0000000000000000e+00 0.0000000000000000e+00 0.0000000000000000e+00  2.5288150167928221e-03 -1.2629668094369616e-05 0.0000000000000000e+00 -1.2629668094369616e-05 2.4795456246464644e-03 0.0000000000000000e+00 0.0000000000000000e+00 0.0000000000000000e+00 0.0000000000000000e+00  2.5379239360932616e-03 -1.3240680215861966e-05 0.0000000000000000e+00 -1.3240680215861966e-05 2.4873976732831303e-03 0.0000000000000000e+00 0.0000000000000000e+00 0.0000000000000000e+00 0.0000000000000000e+00  2.5492675680488588e-03 -1.1774541722783032e-05 0.0000000000000000e+00 -1.1774541722783032e-05 2.4954948368487318e-03 0.0000000000000000e+00 0.0000000000000000e+00 0.0000000000000000e+00 0.0000000000000000e+00  2.5579861026713666e-03 -2.0421693372107109e-05 0.0000000000000000e+00 -2.0421693372107109e-05 2.4939757307354607e-03 0.0000000000000000e+00 0.0000000000000000e+00 0.0000000000000000e+00 0.0000000000000000e+00  2.5359422470005834e-03 -7.9045925810636009e-06 0.0000000000000000e+00 -7.9045925810636009e-06 2.4467534433189370e-03 0.0000000000000000e+00 0.0000000000000000e+00 0.0000000000000000e+00 0.0000000000000000e+00  2.5359858410551367e-03 2.9675766815655044e-06 0.0000000000000000e+00 2.9675766815655044e-06 2.4678624901997097e-03 0.0000000000000000e+00 0.0000000000000000e+00 0.0000000000000000e+00 0.0000000000000000e+00  2.2936940150164228e-03 -6.0244358975146315e-05 0.0000000000000000e+00 -6.0244358975146315e-05 2.1184725471220050e-03 0.0000000000000000e+00 0.0000000000000000e+00 0.0000000000000000e+00 0.0000000000000000e+00  2.4393203552099544e-03 4.0413141798613427e-05 0.0000000000000000e+00 4.0413141798613427e-05 2.4536831406597277e-03 0.0000000000000000e+00 0.0000000000000000e+00 0.0000000000000000e+00 0.0000000000000000e+00  2.1307986724821166e-03 4.9672863375542583e-05 0.0000000000000000e+00 4.9672863375542583e-05 1.9226630134279415e-03 0.0000000000000000e+00 0.0000000000000000e+00 0.0000000000000000e+00 0.0000000000000000e+00  2.1919867187491452e-03 3.1288570864528076e-05 0.0000000000000000e+00 3.1288570864528076e-05 1.9042711866522986e-03 0.0000000000000000e+00 0.0000000000000000e+00 0.0000000000000000e+00 0.0000000000000000e+00  2.6652324665707213e-03 1.1488007070984724e-04 0.0000000000000000e+00 1.1488007070984724e-04 2.7690578807051157e-03 0.0000000000000000e+00 0.0000000000000000e+00 0.0000000000000000e+00 0.0000000000000000e+00  2.1453340457466522e-03 1.2477139629906334e-04 0.0000000000000000e+00 1.2477139629906336e-04 1.9642508554681896e-03 0.0000000000000000e+00 0.0000000000000000e+00 0.0000000000000000e+00 0.0000000000000000e+00  1.9976434808580100e-03 1.5240387559014421e-04 0.0000000000000000e+00 1.5240387559014424e-04 1.7587145391666163e-03 0.0000000000000000e+00 0.0000000000000000e+00 0.0000000000000000e+00 0.0000000000000000e+00  2.2997236962110693e-03 1.4920087140591441e-04 0.0000000000000000e+00 1.4920087140591441e-04 2.0475793301403910e-03 0.0000000000000000e+00 0.0000000000000000e+00 0.0000000000000000e+00 0.0000000000000000e+00  2.9092354514961556e-03 1.4722748080537470e-04 0.0000000000000000e+00 1.4722748080537470e-04 2.4782498116530712e-03 0.0000000000000000e+00 0.0000000000000000e+00 0.0000000000000000e+00 0.0000000000000000e+00  3.9372272344080431e-03 2.2672063950761030e-04 0.0000000000000000e+00 2.2672063950761030e-04 3.4564038437362530e-03 0.0000000000000000e+00 0.0000000000000000e+00 0.0000000000000000e+00 0.0000000000000000e+00  4.5234477852338292e-03 4.7466068322564149e-04 0.0000000000000000e+00 4.7466068322564149e-04 3.6202026644932390e-03 0.0000000000000000e+00 0.0000000000000000e+00 0.0000000000000000e+00 0.0000000000000000e+00  5.1874966284879013e-03 4.3669965697474709e-04 0.0000000000000000e+00 4.3669965697474709e-04 3.8964998808060734e-03 0.0000000000000000e+00 0.0000000000000000e+00 0.0000000000000000e+00 0.0000000000000000e+00  5.6925118195391092e-03 4.2525377433852543e-04 0.0000000000000000e+00 4.2525377433852543e-04 4.2459612895864316e-03 0.0000000000000000e+00 0.0000000000000000e+00 0.0000000000000000e+00 0.0000000000000000e+00  6.0976908897129260e-03 3.7228551055616546e-04 0.0000000000000000e+00 3.7228551055616546e-04 4.8018887804011055e-03 0.0000000000000000e+00 0.0000000000000000e+00 0.0000000000000000e+00 0.0000000000000000e+00  6.2044306743786410e-03 2.3051880442279761e-04 0.0000000000000000e+00 2.3051880442279761e-04 5.2800475584154878e-03 0.0000000000000000e+00 0.0000000000000000e+00 0.0000000000000000e+00 0.0000000000000000e+00  5.6290596168880437e-03 4.3103748002677327e-04 0.0000000000000000e+00 4.3103748002677327e-04 4.7692479486831198e-03 0.0000000000000000e+00 0.0000000000000000e+00 0.0000000000000000e+00 0.0000000000000000e+00  5.2731558399659092e-03 4.2366722569223711e-04 0.0000000000000000e+00 4.2366722569223711e-04 4.8639721322064691e-03 0.0000000000000000e+00 0.0000000000000000e+00 0.0000000000000000e+00 0.0000000000000000e+00  5.4808556257208664e-03 2.0207233022143556e-04 0.0000000000000000e+00 2.0207233022143556e-04 5.2259516711246085e-03 0.0000000000000000e+00 0.0000000000000000e+00 0.0000000000000000e+00 0.0000000000000000e+00  5.9784873191166370e-03 4.0845260590712257e-05 0.0000000000000000e+00 4.0845260590712257e-05 5.7448109583928698e-03 0.0000000000000000e+00 0.0000000000000000e+00 0.0000000000000000e+00 0.0000000000000000e+00  6.6358082371549519e-03 4.2853894359633672e-05 0.0000000000000000e+00 4.2853894359633672e-05 6.8244678355206595e-03 0.0000000000000000e+00 0.0000000000000000e+00 0.0000000000000000e+00 0.0000000000000000e+00  6.4627216968709076e-03 1.3862807736707248e-04 0.0000000000000000e+00 1.3862807736707248e-04 6.2919461493128768e-03 0.0000000000000000e+00 0.0000000000000000e+00 0.0000000000000000e+00 0.0000000000000000e+00  6.7154614526090351e-03 -4.5345918990032951e-05 0.0000000000000000e+00 -4.5345918990032951e-05 6.7942874130104119e-03 0.0000000000000000e+00 0.0000000000000000e+00 0.0000000000000000e+00 0.0000000000000000e+00  6.9188622140396224e-03 5.2941484356595793e-05 0.0000000000000000e+00 5.2941484356595793e-05 6.9104426838892691e-03 0.0000000000000000e+00 0.0000000000000000e+00 0.0000000000000000e+00 0.0000000000000000e+00  7.1278041671287021e-03 -1.7229071813275911e-05 0.0000000000000000e+00 -1.7229071813275911e-05 7.1873527407004265e-03 0.0000000000000000e+00 0.0000000000000000e+00 0.0000000000000000e+00 0.0000000000000000e+00  7.2527637170877570e-03 1.8629405709743898e-05 0.0000000000000000e+00 1.8629405709743898e-05 7.2806384122809887e-03 0.0000000000000000e+00 0.0000000000000000e+00 0.0000000000000000e+00 0.0000000000000000e+00  7.3455155387738376e-03 -8.1566672769166468e-06 0.0000000000000000e+00 -8.1566672769166468e-06 7.4107153917447122e-03 0.0000000000000000e+00 0.0000000000000000e+00 0.0000000000000000e+00 0.0000000000000000e+00  7.3856565495568427e-03 -1.2757784802969429e-05 0.0000000000000000e+00 -1.2757784802969429e-05 7.4448965196212595e-03 0.0000000000000000e+00 0.0000000000000000e+00 0.0000000000000000e+00 0.0000000000000000e+00  7.4172460727473730e-03 -1.2881832965467608e-05 0.0000000000000000e+00 -1.2881832965467608e-05 7.4713431317299595e-03 0.0000000000000000e+00 0.0000000000000000e+00 0.0000000000000000e+00 0.0000000000000000e+00  7.4409601030374821e-03 -1.3991497451197854e-05 0.0000000000000000e+00 -1.3991497451197854e-05 7.4916446437196717e-03 0.0000000000000000e+00 0.0000000000000000e+00 0.0000000000000000e+00 0.0000000000000000e+00  7.4588351681182091e-03 -1.4657784164255408e-05 0.0000000000000000e+00 -1.4657784164255408e-05 7.5073506787603607e-03 0.0000000000000000e+00 0.0000000000000000e+00 0.0000000000000000e+00 0.0000000000000000e+00  7.4726563833304822e-03 -1.4437505646719251e-05 0.0000000000000000e+00 -1.4437505646719251e-05 7.5195154683157465e-03 0.0000000000000000e+00 0.0000000000000000e+00 0.0000000000000000e+00 0.0000000000000000e+00  7.4833873205812614e-03 -1.3015653924156091e-05 0.0000000000000000e+00 -1.3015653924156091e-05 7.5289168649911933e-03 0.0000000000000000e+00 0.0000000000000000e+00 0.0000000000000000e+00 0.0000000000000000e+00  7.4920512368956312e-03 -1.1255529802829056e-05 0.0000000000000000e+00 -1.1255529802829056e-05 7.5358862985685010e-03 0.0000000000000000e+00 0.0000000000000000e+00 0.0000000000000000e+00 0.0000000000000000e+00  7.4988606746856186e-03 -9.1880555707005536e-06 0.0000000000000000e+00 -9.1880555707005536e-06 7.5405009719806517e-03 0.0000000000000000e+00 0.0000000000000000e+00 0.0000000000000000e+00 0.0000000000000000e+00  7.5042040661729408e-03 -6.9531502313037318e-06 0.0000000000000000e+00 -6.9531502313037318e-06 7.5429474730531994e-03 0.0000000000000000e+00 0.0000000000000000e+00 0.0000000000000000e+00 0.0000000000000000e+00  7.5083928727557436e-03 -4.5721866339253904e-06 0.0000000000000000e+00 -4.5721866339253904e-06 7.5432639958465143e-03 0.0000000000000000e+00 0.0000000000000000e+00 0.0000000000000000e+00 0.0000000000000000e+00  7.5117812511922054e-03 -2.1154027368568991e-06 0.0000000000000000e+00 -2.1154027368568991e-06 7.5415116157628425e-03 0.0000000000000000e+00 0.0000000000000000e+00 0.0000000000000000e+00 0.0000000000000000e+00  7.5146838056486340e-03 2.6920955536113185e-07 0.0000000000000000e+00 2.6920955536113185e-07 7.5378081004485956e-03 0.0000000000000000e+00 0.0000000000000000e+00 0.0000000000000000e+00 0.0000000000000000e+00  7.5173498337062963e-03 2.2155023589773427e-06 0.0000000000000000e+00 2.2155023589773427e-06 7.5323874502017532e-03 0.0000000000000000e+00 0.0000000000000000e+00 0.0000000000000000e+00 0.0000000000000000e+00  7.5199573620757321e-03 2.8689175644474849e-06 0.0000000000000000e+00 2.8689175644474849e-06 7.5255054120040733e-03 0.0000000000000000e+00 0.0000000000000000e+00 0.0000000000000000e+00 0.0000000000000000e+00  7.5809469043992906e-03 -9.1863380401140318e-07 0.0000000000000000e+00 -9.1863380401140318e-07 7.5839913657111784e-03 0.0000000000000000e+00 0.0000000000000000e+00 0.0000000000000000e+00 0.0000000000000000e+00  7.5791507997209047e-03 -2.3785017878658715e-08 0.0000000000000000e+00 -2.3785017878658715e-08 7.5892903966079664e-03 0.0000000000000000e+00 0.0000000000000000e+00 0.0000000000000000e+00 0.0000000000000000e+00  7.5771780045798456e-03 2.2886672818918266e-06 0.0000000000000000e+00 2.2886672818918266e-06 7.5942865220581662e-03 0.0000000000000000e+00 0.0000000000000000e+00 0.0000000000000000e+00 0.0000000000000000e+00  7.5748593764671784e-03 5.2908207539671376e-06 0.0000000000000000e+00 5.2908207539671376e-06 7.5978711735347993e-03 0.0000000000000000e+00 0.0000000000000000e+00 0.0000000000000000e+00 0.0000000000000000e+00  7.5717796572975123e-03 8.7264659385548668e-06 0.0000000000000000e+00 8.7264659385548668e-06 7.5994926677720055e-03 0.0000000000000000e+00 0.0000000000000000e+00 0.0000000000000000e+00 0.0000000000000000e+00  7.5674484221599251e-03 1.2468933576674180e-05 0.0000000000000000e+00 1.2468933576674180e-05 7.5989188143698160e-03 0.0000000000000000e+00 0.0000000000000000e+00 0.0000000000000000e+00 0.0000000000000000e+00  7.5613860807131590e-03 1.6435277890090514e-05 0.0000000000000000e+00 1.6435277890090514e-05 7.5960376938818859e-03 0.0000000000000000e+00 0.0000000000000000e+00 0.0000000000000000e+00 0.0000000000000000e+00  7.5531259606380690e-03 2.0571891314606841e-05 0.0000000000000000e+00 2.0571891314606841e-05 7.5907121242432454e-03 0.0000000000000000e+00 0.0000000000000000e+00 0.0000000000000000e+00 0.0000000000000000e+00  7.5422227648953427e-03 2.4881108952364133e-05 0.0000000000000000e+00 2.4881108952364133e-05 7.5827143267353566e-03 0.0000000000000000e+00 0.0000000000000000e+00 0.0000000000000000e+00 0.0000000000000000e+00  7.5282081357486786e-03 2.9306038779026879e-05 0.0000000000000000e+00 2.9306038779026879e-05 7.5715966532637199e-03 0.0000000000000000e+00 0.0000000000000000e+00 0.0000000000000000e+00 0.0000000000000000e+00  7.5105442283738772e-03 3.3830058157105799e-05 0.0000000000000000e+00 3.3830058157105799e-05 7.5568353578739688e-03 0.0000000000000000e+00 0.0000000000000000e+00 0.0000000000000000e+00 0.0000000000000000e+00  7.4881974617132347e-03 3.8037118375433508e-05 0.0000000000000000e+00 3.8037118375433508e-05 7.5375079680308306e-03 0.0000000000000000e+00 0.0000000000000000e+00 0.0000000000000000e+00 0.0000000000000000e+00  7.4593081684111717e-03 4.0035987319650399e-05 0.0000000000000000e+00 4.0035987319650399e-05 7.5122964384256525e-03 0.0000000000000000e+00 0.0000000000000000e+00 0.0000000000000000e+00 0.0000000000000000e+00  7.4154698539848239e-03 4.7099212926430649e-05 0.0000000000000000e+00 4.7099212926430649e-05 7.4698106464644943e-03 0.0000000000000000e+00 0.0000000000000000e+00 0.0000000000000000e+00 0.0000000000000000e+00  7.3454797796834899e-03 4.4022625817461912e-05 0.0000000000000000e+00 4.4022625817461912e-05 7.4214335773895553e-03 0.0000000000000000e+00 0.0000000000000000e+00 0.0000000000000000e+00 0.0000000000000000e+00  7.2032963214516028e-03 4.8769165066389261e-05 0.0000000000000000e+00 4.8769165066389261e-05 7.2362697638106406e-03 0.0000000000000000e+00 0.0000000000000000e+00 0.0000000000000000e+00 0.0000000000000000e+00  7.1458861379018216e-03 7.5436264895200353e-05 0.0000000000000000e+00 7.5436264895200353e-05 7.2781602683156636e-03 0.0000000000000000e+00 0.0000000000000000e+00 0.0000000000000000e+00 0.0000000000000000e+00  6.8146464301573088e-03 8.2280077095832436e-05 0.0000000000000000e+00 8.2280077095832436e-05 6.8108661039592393e-03 0.0000000000000000e+00 0.0000000000000000e+00 0.0000000000000000e+00 0.0000000000000000e+00  6.7209609416440316e-03 3.2280294767958857e-05 0.0000000000000000e+00 3.2280294767958857e-05 6.7622281329553805e-03 0.0000000000000000e+00 0.0000000000000000e+00 0.0000000000000000e+00 0.0000000000000000e+00  6.6823317814720265e-03 1.5514758419758322e-04 0.0000000000000000e+00 1.5514758419758322e-04 6.9576642331793878e-03 0.0000000000000000e+00 0.0000000000000000e+00 0.0000000000000000e+00 0.0000000000000000e+00  6.1719079759175125e-03 7.9994908684126201e-05 0.0000000000000000e+00 7.9994908684126201e-05 6.1016681332685847e-03 0.0000000000000000e+00 0.0000000000000000e+00 0.0000000000000000e+00 0.0000000000000000e+00  5.8215803695941667e-03 3.3498657101122182e-05 0.0000000000000000e+00 3.3498657101122182e-05 5.6387648995583888e-03 0.0000000000000000e+00 0.0000000000000000e+00 0.0000000000000000e+00 0.0000000000000000e+00  5.7078125860279090e-03 -9.2840960605892244e-06 0.0000000000000000e+00 -9.2840960605892244e-06 5.6533316244515705e-03 0.0000000000000000e+00 0.0000000000000000e+00 0.0000000000000000e+00 0.0000000000000000e+00  5.7622128641925249e-03 3.1747411856186884e-05 0.0000000000000000e+00 3.1747411856186884e-05 5.8313556029723429e-03 0.0000000000000000e+00 0.0000000000000000e+00 0.0000000000000000e+00 0.0000000000000000e+00  5.8329197035303796e-03 1.0167024610956297e-04 0.0000000000000000e+00 1.0167024610956297e-04 6.0662099351330373e-03 0.0000000000000000e+00 0.0000000000000000e+00 0.0000000000000000e+00 0.0000000000000000e+00  5.3774614556384680e-03 2.9792224539106613e-05 0.0000000000000000e+00 2.9792224539106613e-05 5.4175323033757907e-03 0.0000000000000000e+00 0.0000000000000000e+00 0.0000000000000000e+00 0.0000000000000000e+00  4.8749311894846249e-03 -4.0704227973314538e-05 0.0000000000000000e+00 -4.0704227973314538e-05 4.8407870001456778e-03 0.0000000000000000e+00 0.0000000000000000e+00 0.0000000000000000e+00 0.0000000000000000e+00  4.4528914043215880e-03 -5.4369888002442636e-05 0.0000000000000000e+00 -5.4369888002442636e-05 4.4075295424837579e-03 0.0000000000000000e+00 0.0000000000000000e+00 0.0000000000000000e+00 0.0000000000000000e+00  4.1731499999164466e-03 -4.6617345033662887e-05 0.0000000000000000e+00 -4.6617345033662887e-05 4.1241734599285580e-03 0.0000000000000000e+00 0.0000000000000000e+00 0.0000000000000000e+00 0.0000000000000000e+00  3.9897084508563286e-03 -8.8969179607259344e-05 0.0000000000000000e+00 -8.8969179607259344e-05 3.9956955301553515e-03 0.0000000000000000e+00 0.0000000000000000e+00 0.0000000000000000e+00 0.0000000000000000e+00  3.5416244928668421e-03 3.4946153612059452e-06 0.0000000000000000e+00 3.4946153612059452e-06 3.4193270201327394e-03 0.0000000000000000e+00 0.0000000000000000e+00 0.0000000000000000e+00 0.0000000000000000e+00  2.9791775433490931e-03 -3.8559638178573241e-05 0.0000000000000000e+00 -3.8559638178573241e-05 2.8195751913311696e-03 0.0000000000000000e+00 0.0000000000000000e+00 0.0000000000000000e+00 0.0000000000000000e+00  2.6213427562204912e-03 4.4156937216020132e-05 0.0000000000000000e+00 4.4156937216020132e-05 2.5241584684133319e-03 0.0000000000000000e+00 0.0000000000000000e+00 0.0000000000000000e+00 0.0000000000000000e+00  2.5880696164176792e-03 1.1458958895756396e-04 0.0000000000000000e+00 1.1458958895756396e-04 2.5157302950671195e-03 0.0000000000000000e+00 0.0000000000000000e+00 0.0000000000000000e+00 0.0000000000000000e+00  2.8001531563400547e-03 8.7082987831702658e-05 0.0000000000000000e+00 8.7082987831702658e-05 2.9099484664774269e-03 0.0000000000000000e+00 0.0000000000000000e+00 0.0000000000000000e+00 0.0000000000000000e+00  2.6290978367425528e-03 2.2863102718520424e-05 0.0000000000000000e+00 2.2863102718520424e-05 2.4841625992935009e-03 0.0000000000000000e+00 0.0000000000000000e+00 0.0000000000000000e+00 0.0000000000000000e+00  2.6194786854536944e-03 1.3514040853951093e-04 0.0000000000000000e+00 1.3514040853951093e-04 2.5162421723256842e-03 0.0000000000000000e+00 0.0000000000000000e+00 0.0000000000000000e+00 0.0000000000000000e+00  2.6877339545776186e-03 4.7597775157449403e-05 0.0000000000000000e+00 4.7597775157449403e-05 2.5939403178235725e-03 0.0000000000000000e+00 0.0000000000000000e+00 0.0000000000000000e+00 0.0000000000000000e+00  2.6851408415763008e-03 6.5006691292607909e-05 0.0000000000000000e+00 6.5006691292607909e-05 2.5893000587499499e-03 0.0000000000000000e+00 0.0000000000000000e+00 0.0000000000000000e+00 0.0000000000000000e+00  2.6482414042542407e-03 5.9938663661830035e-05 0.0000000000000000e+00 5.9938663661830035e-05 2.5583188044393042e-03 0.0000000000000000e+00 0.0000000000000000e+00 0.0000000000000000e+00 0.0000000000000000e+00  2.6257542887905029e-03 4.5609979726690465e-05 0.0000000000000000e+00 4.5609979726690465e-05 2.5687331342787558e-03 0.0000000000000000e+00 0.0000000000000000e+00 0.0000000000000000e+00 0.0000000000000000e+00  2.5989113988725723e-03 4.2258765178069453e-05 0.0000000000000000e+00 4.2258765178069453e-05 2.5389531221094324e-03 0.0000000000000000e+00 0.0000000000000000e+00 0.0000000000000000e+00 0.0000000000000000e+00  2.5738405856409914e-03 3.6681826512791052e-05 0.0000000000000000e+00 3.6681826512791052e-05 2.5187099445881603e-03 0.0000000000000000e+00 0.0000000000000000e+00 0.0000000000000000e+00 0.0000000000000000e+00  2.5530094424708097e-03 3.1142857541756796e-05 0.0000000000000000e+00 3.1142857541756796e-05 2.5048829606380803e-03 0.0000000000000000e+00 0.0000000000000000e+00 0.0000000000000000e+00 0.0000000000000000e+00  2.5365543731973388e-03 2.6802311150286484e-05 0.0000000000000000e+00 2.6802311150286484e-05 2.4934657406344572e-03 0.0000000000000000e+00 0.0000000000000000e+00 0.0000000000000000e+00 0.0000000000000000e+00  2.5240805087765042e-03 2.2812916782344086e-05 0.0000000000000000e+00 2.2812916782344086e-05 2.4837513955152726e-03 0.0000000000000000e+00 0.0000000000000000e+00 0.0000000000000000e+00 0.0000000000000000e+00  2.5150812340576302e-03 1.8456454387589388e-05 0.0000000000000000e+00 1.8456454387589388e-05 2.4755148598317807e-03 0.0000000000000000e+00 0.0000000000000000e+00 0.0000000000000000e+00 0.0000000000000000e+00  2.5088031775675475e-03 1.3695835826460317e-05 0.0000000000000000e+00 1.3695835826460317e-05 2.4688625815668954e-03 0.0000000000000000e+00 0.0000000000000000e+00 0.0000000000000000e+00 0.0000000000000000e+00  2.5047670527046095e-03 8.5320473511167264e-06 0.0000000000000000e+00 8.5320473511167264e-06 2.4641700990959436e-03 0.0000000000000000e+00 0.0000000000000000e+00 0.0000000000000000e+00 0.0000000000000000e+00  2.5026028118312446e-03 3.1096402019298447e-06 0.0000000000000000e+00 3.1096402019298447e-06 2.4617450240597932e-03 0.0000000000000000e+00 0.0000000000000000e+00 0.0000000000000000e+00 0.0000000000000000e+00  2.5021236270096623e-03 -2.3746161127839621e-06 0.0000000000000000e+00 -2.3746161127839621e-06 2.4617543924283394e-03 0.0000000000000000e+00 0.0000000000000000e+00 0.0000000000000000e+00 0.0000000000000000e+00  2.5032905989372987e-03 -7.7038117963268300e-06 0.0000000000000000e+00 -7.7038117963268300e-06 2.4641278278903760e-03 0.0000000000000000e+00 0.0000000000000000e+00 0.0000000000000000e+00 0.0000000000000000e+00  2.5062157291490289e-03 -1.2691844844601132e-05 0.0000000000000000e+00 -1.2691844844601132e-05 2.4685572944654665e-03 0.0000000000000000e+00 0.0000000000000000e+00 0.0000000000000000e+00 0.0000000000000000e+00  2.5111853882523833e-03 -1.7207044794648083e-05 0.0000000000000000e+00 -1.7207044794648083e-05 2.4745926177197884e-03 0.0000000000000000e+00 0.0000000000000000e+00 0.0000000000000000e+00 0.0000000000000000e+00  2.5186494934265348e-03 -2.1268565162399854e-05 0.0000000000000000e+00 -2.1268565162399854e-05 2.4816538594790373e-03 0.0000000000000000e+00 0.0000000000000000e+00 0.0000000000000000e+00 0.0000000000000000e+00  2.5293016884649568e-03 -2.4890004118743490e-05 0.0000000000000000e+00 -2.4890004118743490e-05 2.4894987126767940e-03 0.0000000000000000e+00 0.0000000000000000e+00 0.0000000000000000e+00 0.0000000000000000e+00  2.5436070984328112e-03 -2.8600750059869060e-05 0.0000000000000000e+00 -2.8600750059869060e-05 2.4976582867374379e-03 0.0000000000000000e+00 0.0000000000000000e+00 0.0000000000000000e+00 0.0000000000000000e+00  2.5623357580271617e-03 -3.4383063073965307e-05 0.0000000000000000e+00 -3.4383063073965307e-05 2.5070905116091882e-03 0.0000000000000000e+00 0.0000000000000000e+00 0.0000000000000000e+00 0.0000000000000000e+00  2.5816826583327660e-03 -3.5038799665662490e-05 0.0000000000000000e+00 -3.5038799665662490e-05 2.5073671912414072e-03 0.0000000000000000e+00 0.0000000000000000e+00 0.0000000000000000e+00 0.0000000000000000e+00  2.5910968712296581e-03 -4.7178717005471795e-05 0.0000000000000000e+00 -4.7178717005471795e-05 2.5176668337762204e-03 0.0000000000000000e+00 0.0000000000000000e+00 0.0000000000000000e+00 0.0000000000000000e+00  2.5499373769707072e-03 -6.3422146790823139e-05 0.0000000000000000e+00 -6.3422146790823139e-05 2.3870311470227919e-03 0.0000000000000000e+00 0.0000000000000000e+00 0.0000000000000000e+00 0.0000000000000000e+00  2.6167924348121886e-03 -6.8832052351955783e-06 0.0000000000000000e+00 -6.8832052351955783e-06 2.5743579344638216e-03 0.0000000000000000e+00 0.0000000000000000e+00 0.0000000000000000e+00 0.0000000000000000e+00  2.3925740536956371e-03 -1.2460320882087440e-04 0.0000000000000000e+00 -1.2460320882087440e-04 2.1617341979783592e-03 0.0000000000000000e+00 0.0000000000000000e+00 0.0000000000000000e+00 0.0000000000000000e+00  2.5291254984959833e-03 -4.1821404450918745e-05 0.0000000000000000e+00 -4.1821404450918745e-05 2.3956535983326887e-03 0.0000000000000000e+00 0.0000000000000000e+00 0.0000000000000000e+00 0.0000000000000000e+00  2.6381654683558815e-03 3.2401378928929762e-05 0.0000000000000000e+00 3.2401378928929762e-05 2.6611482258003015e-03 0.0000000000000000e+00 0.0000000000000000e+00 0.0000000000000000e+00 0.0000000000000000e+00  2.3932234817345840e-03 -1.5494092541168495e-04 0.0000000000000000e+00 -1.5494092541168495e-04 2.1134185737550397e-03 0.0000000000000000e+00 0.0000000000000000e+00 0.0000000000000000e+00 0.0000000000000000e+00  2.4175550128140407e-03 -1.0349262563425158e-04 0.0000000000000000e+00 -1.0349262563425158e-04 2.1434076293870849e-03 0.0000000000000000e+00 0.0000000000000000e+00 0.0000000000000000e+00 0.0000000000000000e+00  2.7698031533615382e-03 -6.7348804390098766e-05 0.0000000000000000e+00 -6.7348804390098766e-05 2.5626912133647345e-03 0.0000000000000000e+00 0.0000000000000000e+00 0.0000000000000000e+00 0.0000000000000000e+00  3.3696383539864893e-03 1.6354769804655140e-05 0.0000000000000000e+00 1.6354769804655140e-05 3.2892896571951745e-03 0.0000000000000000e+00 0.0000000000000000e+00 0.0000000000000000e+00 0.0000000000000000e+00  3.7962398577327397e-03 9.1731249734666479e-05 0.0000000000000000e+00 9.1731249734666479e-05 3.7993326718119900e-03 0.0000000000000000e+00 0.0000000000000000e+00 0.0000000000000000e+00 0.0000000000000000e+00  3.9240865910174349e-03 2.2911875520121748e-05 0.0000000000000000e+00 2.2911875520121748e-05 3.8749599056108011e-03 0.0000000000000000e+00 0.0000000000000000e+00 0.0000000000000000e+00 0.0000000000000000e+00  4.1602594317252609e-03 2.1336544101332105e-05 0.0000000000000000e+00 2.1336544101332105e-05 4.1049960997098164e-03 0.0000000000000000e+00 0.0000000000000000e+00 0.0000000000000000e+00 0.0000000000000000e+00  4.5628791528770788e-03 1.2361650012092717e-05 0.0000000000000000e+00 1.2361650012092717e-05 4.5048874859677183e-03 0.0000000000000000e+00 0.0000000000000000e+00 0.0000000000000000e+00 0.0000000000000000e+00  5.0640209454726730e-03 -4.9735219759773800e-06 0.0000000000000000e+00 -4.9735219759773800e-06 5.0464380883009545e-03 0.0000000000000000e+00 0.0000000000000000e+00 0.0000000000000000e+00 0.0000000000000000e+00  5.5347535305196264e-03 -8.2795585816565907e-05 0.0000000000000000e+00 -8.2795585816565907e-05 5.7337216129420511e-03 0.0000000000000000e+00 0.0000000000000000e+00 0.0000000000000000e+00 0.0000000000000000e+00  5.5551296225171748e-03 3.3552606205227177e-05 0.0000000000000000e+00 3.3552606205227177e-05 5.5803953313070505e-03 0.0000000000000000e+00 0.0000000000000000e+00 0.0000000000000000e+00 0.0000000000000000e+00  5.5161792400339913e-03 -3.0125633075079044e-05 0.0000000000000000e+00 -3.0125633075079044e-05 5.4743784020450789e-03 0.0000000000000000e+00 0.0000000000000000e+00 0.0000000000000000e+00 0.0000000000000000e+00  5.6973674144447850e-03 -6.6661475736974287e-05 0.0000000000000000e+00 -6.6661475736974287e-05 5.6178316775542594e-03 0.0000000000000000e+00 0.0000000000000000e+00 0.0000000000000000e+00 0.0000000000000000e+00  6.1452082308103059e-03 -7.9371333892130710e-05 0.0000000000000000e+00 -7.9371333892130710e-05 6.1424410099335481e-03 0.0000000000000000e+00 0.0000000000000000e+00 0.0000000000000000e+00 0.0000000000000000e+00  6.6768345037417701e-03 -6.4676411266260443e-05 0.0000000000000000e+00 -6.4676411266260443e-05 6.9183344840048335e-03 0.0000000000000000e+00 0.0000000000000000e+00 0.0000000000000000e+00 0.0000000000000000e+00  6.7158623944211116e-03 -6.5917417758688780e-05 0.0000000000000000e+00 -6.5917417758688780e-05 6.6789898361306705e-03 0.0000000000000000e+00 0.0000000000000000e+00 0.0000000000000000e+00 0.0000000000000000e+00  6.9580359054836789e-03 -6.9976534959445999e-05 0.0000000000000000e+00 -6.9976534959445999e-05 7.0401407451669536e-03 0.0000000000000000e+00 0.0000000000000000e+00 0.0000000000000000e+00 0.0000000000000000e+00  7.1244846768551391e-03 -2.6296368543038976e-05 0.0000000000000000e+00 -2.6296368543038976e-05 7.1699339690258724e-03 0.0000000000000000e+00 0.0000000000000000e+00 0.0000000000000000e+00 0.0000000000000000e+00  7.2473674138213541e-03 -5.7585519981018257e-05 0.0000000000000000e+00 -5.7585519981018257e-05 7.3006652691950625e-03 0.0000000000000000e+00 0.0000000000000000e+00 0.0000000000000000e+00 0.0000000000000000e+00  7.3051129316270089e-03 -4.2091696269547281e-05 0.0000000000000000e+00 -4.2091696269547281e-05 7.3578870653443129e-03 0.0000000000000000e+00 0.0000000000000000e+00 0.0000000000000000e+00 0.0000000000000000e+00  7.3613459235489787e-03 -4.4192313851924450e-05 0.0000000000000000e+00 -4.4192313851924450e-05 7.4202078095893772e-03 0.0000000000000000e+00 0.0000000000000000e+00 0.0000000000000000e+00 0.0000000000000000e+00  7.3979336330039554e-03 -4.3354309156882805e-05 0.0000000000000000e+00 -4.3354309156882805e-05 7.4504215948162558e-03 0.0000000000000000e+00 0.0000000000000000e+00 0.0000000000000000e+00 0.0000000000000000e+00  7.4258266194931859e-03 -3.7946707512757262e-05 0.0000000000000000e+00 -3.7946707512757262e-05 7.4732419026517531e-03 0.0000000000000000e+00 0.0000000000000000e+00 0.0000000000000000e+00 0.0000000000000000e+00  7.4486104388519587e-03 -3.3993754100993880e-05 0.0000000000000000e+00 -3.3993754100993880e-05 7.4914492110928618e-03 0.0000000000000000e+00 0.0000000000000000e+00 0.0000000000000000e+00 0.0000000000000000e+00  7.4665911167070380e-03 -3.0409509134933780e-05 0.0000000000000000e+00 -3.0409509134933780e-05 7.5056099238660755e-03 0.0000000000000000e+00 0.0000000000000000e+00 0.0000000000000000e+00 0.0000000000000000e+00  7.4806905759528747e-03 -2.6651248266641196e-05 0.0000000000000000e+00 -2.6651248266641196e-05 7.5171028022187831e-03 0.0000000000000000e+00 0.0000000000000000e+00 0.0000000000000000e+00 0.0000000000000000e+00  7.4917912647125160e-03 -2.2809198364376989e-05 0.0000000000000000e+00 -2.2809198364376989e-05 7.5261931778333666e-03 0.0000000000000000e+00 0.0000000000000000e+00 0.0000000000000000e+00 0.0000000000000000e+00  7.5004373119368188e-03 -1.8915623426471848e-05 0.0000000000000000e+00 -1.8915623426471848e-05 7.5329785690766062e-03 0.0000000000000000e+00 0.0000000000000000e+00 0.0000000000000000e+00 0.0000000000000000e+00  7.5070653489049000e-03 -1.5108805973094523e-05 0.0000000000000000e+00 -1.5108805973094523e-05 7.5375600285231357e-03 0.0000000000000000e+00 0.0000000000000000e+00 0.0000000000000000e+00 0.0000000000000000e+00  7.5119915890188267e-03 -1.1443631409615245e-05 0.0000000000000000e+00 -1.1443631409615245e-05 7.5400068577904577e-03 0.0000000000000000e+00 0.0000000000000000e+00 0.0000000000000000e+00 0.0000000000000000e+00  7.5155558958659267e-03 -7.9904550734261804e-06 0.0000000000000000e+00 -7.9904550734261804e-06 7.5403885220857820e-03 0.0000000000000000e+00 0.0000000000000000e+00 0.0000000000000000e+00 0.0000000000000000e+00  7.5181266032667993e-03 -4.8303920357442145e-06 0.0000000000000000e+00 -4.8303920357442145e-06 7.5387924031785009e-03 0.0000000000000000e+00 0.0000000000000000e+00 0.0000000000000000e+00 0.0000000000000000e+00  7.5201031357339104e-03 -2.0824081918309909e-06 0.0000000000000000e+00 -2.0824081918309909e-06 7.5354378100662119e-03 0.0000000000000000e+00 0.0000000000000000e+00 0.0000000000000000e+00 0.0000000000000000e+00  7.5218268033615471e-03 1.4477175552313007e-08 0.0000000000000000e+00 1.4477175552313007e-08 7.5308507452615707e-03 0.0000000000000000e+00 0.0000000000000000e+00 0.0000000000000000e+00 0.0000000000000000e+00  7.5234160059115540e-03 7.9708708539303590e-07 0.0000000000000000e+00 7.9708708539303590e-07 7.5260753539858833e-03 0.0000000000000000e+00 0.0000000000000000e+00 0.0000000000000000e+00 0.0000000000000000e+00  7.5842680466903555e-03 9.0634821107412925e-10 0.0000000000000000e+00 9.0634821107412925e-10 7.5842215722735059e-03 0.0000000000000000e+00 0.0000000000000000e+00 0.0000000000000000e+00 0.0000000000000000e+00  7.5845098578773045e-03 9.2426579349799999e-07 0.0000000000000000e+00 9.2426579349799999e-07 7.5875429895983200e-03 0.0000000000000000e+00 0.0000000000000000e+00 0.0000000000000000e+00 0.0000000000000000e+00  7.5850786503708287e-03 3.2765481419946500e-06 0.0000000000000000e+00 3.2765481419946500e-06 7.5914149066317405e-03 0.0000000000000000e+00 0.0000000000000000e+00 0.0000000000000000e+00 0.0000000000000000e+00  7.5852058011994959e-03 6.8824485184359547e-06 0.0000000000000000e+00 6.8824485184359547e-06 7.5941919326601029e-03 0.0000000000000000e+00 0.0000000000000000e+00 0.0000000000000000e+00 0.0000000000000000e+00  7.5841981141366198e-03 1.1492735755380567e-05 0.0000000000000000e+00 1.1492735755380567e-05 7.5951906586674564e-03 0.0000000000000000e+00 0.0000000000000000e+00 0.0000000000000000e+00 0.0000000000000000e+00  7.5815539028230728e-03 1.6892247849223136e-05 0.0000000000000000e+00 1.6892247849223136e-05 7.5941288820019501e-03 0.0000000000000000e+00 0.0000000000000000e+00 0.0000000000000000e+00 0.0000000000000000e+00  7.5768914947815834e-03 2.2942271478393305e-05 0.0000000000000000e+00 2.2942271478393305e-05 7.5908403911660828e-03 0.0000000000000000e+00 0.0000000000000000e+00 0.0000000000000000e+00 0.0000000000000000e+00  7.5698629437466261e-03 2.9580759342302593e-05 0.0000000000000000e+00 2.9580759342302593e-05 7.5851446013049245e-03 0.0000000000000000e+00 0.0000000000000000e+00 0.0000000000000000e+00 0.0000000000000000e+00  7.5600982379269840e-03 3.6795859877008507e-05 0.0000000000000000e+00 3.6795859877008507e-05 7.5767633581247211e-03 0.0000000000000000e+00 0.0000000000000000e+00 0.0000000000000000e+00 0.0000000000000000e+00  7.5471812033387764e-03 4.4610221018505148e-05 0.0000000000000000e+00 4.4610221018505148e-05 7.5653033908450575e-03 0.0000000000000000e+00 0.0000000000000000e+00 0.0000000000000000e+00 0.0000000000000000e+00  7.5306008398396572e-03 5.3019518395019587e-05 0.0000000000000000e+00 5.3019518395019587e-05 7.5502611796236449e-03 0.0000000000000000e+00 0.0000000000000000e+00 0.0000000000000000e+00 0.0000000000000000e+00  7.5097419373119298e-03 6.2036580912597499e-05 0.0000000000000000e+00 6.2036580912597499e-05 7.5309949244906187e-03 0.0000000000000000e+00 0.0000000000000000e+00 0.0000000000000000e+00 0.0000000000000000e+00  7.4835443286967156e-03 7.1683610268493479e-05 0.0000000000000000e+00 7.1683610268493479e-05 7.5071488995134411e-03 0.0000000000000000e+00 0.0000000000000000e+00 0.0000000000000000e+00 0.0000000000000000e+00  7.4505944687888338e-03 8.2049202992841815e-05 0.0000000000000000e+00 8.2049202992841815e-05 7.4744982426267646e-03 0.0000000000000000e+00 0.0000000000000000e+00 0.0000000000000000e+00 0.0000000000000000e+00  7.4059174474301361e-03 9.0407849713423081e-05 0.0000000000000000e+00 9.0407849713423081e-05 7.4323526022715821e-03 0.0000000000000000e+00 0.0000000000000000e+00 0.0000000000000000e+00 0.0000000000000000e+00  7.3414894457769176e-03 1.0776643952252972e-04 0.0000000000000000e+00 1.0776643952252972e-04 7.3503711522248244e-03 0.0000000000000000e+00 0.0000000000000000e+00 0.0000000000000000e+00 0.0000000000000000e+00  7.2445415890541581e-03 1.4290309443489697e-04 0.0000000000000000e+00 1.4290309443489697e-04 7.2896398036454129e-03 0.0000000000000000e+00 0.0000000000000000e+00 0.0000000000000000e+00 0.0000000000000000e+00  7.0876909454767869e-03 1.4192319214217794e-04 0.0000000000000000e+00 1.4192319214217794e-04 7.0054398428469515e-03 0.0000000000000000e+00 0.0000000000000000e+00 0.0000000000000000e+00 0.0000000000000000e+00  7.0344684255975159e-03 1.6362719394895969e-04 0.0000000000000000e+00 1.6362719394895969e-04 7.0572847831889274e-03 0.0000000000000000e+00 0.0000000000000000e+00 0.0000000000000000e+00 0.0000000000000000e+00  6.7972827271487127e-03 2.6656183167460723e-04 0.0000000000000000e+00 2.6656183167460723e-04 6.8605209863650393e-03 0.0000000000000000e+00 0.0000000000000000e+00 0.0000000000000000e+00 0.0000000000000000e+00  6.4929091038923702e-03 2.3518560429358214e-04 0.0000000000000000e+00 2.3518560429358214e-04 6.3117170856751116e-03 0.0000000000000000e+00 0.0000000000000000e+00 0.0000000000000000e+00 0.0000000000000000e+00  6.2934490123471333e-03 2.6509711979931771e-04 0.0000000000000000e+00 2.6509711979931771e-04 6.0664848152274286e-03 0.0000000000000000e+00 0.0000000000000000e+00 0.0000000000000000e+00 0.0000000000000000e+00  6.1920536899637531e-03 2.6126575320146089e-04 0.0000000000000000e+00 2.6126575320146089e-04 6.0359180400019283e-03 0.0000000000000000e+00 0.0000000000000000e+00 0.0000000000000000e+00 0.0000000000000000e+00  6.1624559948313049e-03 2.7010559134500435e-04 0.0000000000000000e+00 2.7010559134500435e-04 6.2011068860747792e-03 0.0000000000000000e+00 0.0000000000000000e+00 0.0000000000000000e+00 0.0000000000000000e+00  5.8707913633538264e-03 3.6888919345213318e-04 0.0000000000000000e+00 3.6888919345213318e-04 5.9564082817041286e-03 0.0000000000000000e+00 0.0000000000000000e+00 0.0000000000000000e+00 0.0000000000000000e+00  5.4637834436134626e-03 3.4641058981892229e-04 0.0000000000000000e+00 3.4641058981892229e-04 5.4176899661447569e-03 0.0000000000000000e+00 0.0000000000000000e+00 0.0000000000000000e+00 0.0000000000000000e+00  5.0644068651497015e-03 3.6431150321918299e-04 0.0000000000000000e+00 3.6431150321918299e-04 4.9533833860982519e-03 0.0000000000000000e+00 0.0000000000000000e+00 0.0000000000000000e+00 0.0000000000000000e+00  4.6857537249087962e-03 3.7619214885703804e-04 0.0000000000000000e+00 3.7619214885703804e-04 4.5674630495001036e-03 0.0000000000000000e+00 0.0000000000000000e+00 0.0000000000000000e+00 0.0000000000000000e+00  4.3635013425537958e-03 3.6857958176041231e-04 0.0000000000000000e+00 3.6857958176041231e-04 4.2549438099160203e-03 0.0000000000000000e+00 0.0000000000000000e+00 0.0000000000000000e+00 0.0000000000000000e+00  4.1120062980211421e-03 3.1665687371786071e-04 0.0000000000000000e+00 3.1665687371786071e-04 4.0734075293604169e-03 0.0000000000000000e+00 0.0000000000000000e+00 0.0000000000000000e+00 0.0000000000000000e+00  3.7997783403891294e-03 3.0459760803585857e-04 0.0000000000000000e+00 3.0459760803585857e-04 3.7154928657076357e-03 0.0000000000000000e+00 0.0000000000000000e+00 0.0000000000000000e+00 0.0000000000000000e+00  3.3357959433037987e-03 2.7790913320034492e-04 0.0000000000000000e+00 2.7790913320034492e-04 3.1243431465659815e-03 0.0000000000000000e+00 0.0000000000000000e+00 0.0000000000000000e+00 0.0000000000000000e+00  3.0313101247778488e-03 2.7823073948591757e-04 0.0000000000000000e+00 2.7823073948591757e-04 2.8238558490748049e-03 0.0000000000000000e+00 0.0000000000000000e+00 0.0000000000000000e+00 0.0000000000000000e+00  2.9504204210621366e-03 2.5891536632114483e-04 0.0000000000000000e+00 2.5891536632114483e-04 2.7703803140548965e-03 0.0000000000000000e+00 0.0000000000000000e+00 0.0000000000000000e+00 0.0000000000000000e+00  2.9810153637157186e-03 1.9570276563334144e-04 0.0000000000000000e+00 1.9570276563334144e-04 2.9841227065604335e-03 0.0000000000000000e+00 0.0000000000000000e+00 0.0000000000000000e+00 0.0000000000000000e+00  2.8736944575597822e-03 1.7078256759730679e-04 0.0000000000000000e+00 1.7078256759730679e-04 2.7033904179157536e-03 0.0000000000000000e+00 0.0000000000000000e+00 0.0000000000000000e+00 0.0000000000000000e+00  2.8094062877251371e-03 1.6190281066794573e-04 0.0000000000000000e+00 1.6190281066794573e-04 2.7093735238340019e-03 0.0000000000000000e+00 0.0000000000000000e+00 0.0000000000000000e+00 0.0000000000000000e+00  2.7423477111622090e-03 1.3906117581084725e-04 0.0000000000000000e+00 1.3906117581084725e-04 2.6642335970978332e-03 0.0000000000000000e+00 0.0000000000000000e+00 0.0000000000000000e+00 0.0000000000000000e+00  2.6916765776420363e-03 1.0885471559335657e-04 0.0000000000000000e+00 1.0885471559335657e-04 2.6478838419787920e-03 0.0000000000000000e+00 0.0000000000000000e+00 0.0000000000000000e+00 0.0000000000000000e+00  2.6446146331898703e-03 9.7820437867841657e-05 0.0000000000000000e+00 9.7820437867841657e-05 2.5998163580267276e-03 0.0000000000000000e+00 0.0000000000000000e+00 0.0000000000000000e+00 0.0000000000000000e+00  2.6068298896317196e-03 8.1839373429461466e-05 0.0000000000000000e+00 8.1839373429461466e-05 2.5773567250262194e-03 0.0000000000000000e+00 0.0000000000000000e+00 0.0000000000000000e+00 0.0000000000000000e+00  2.5764056025850586e-03 7.0165038810025902e-05 0.0000000000000000e+00 7.0165038810025902e-05 2.5505198095976938e-03 0.0000000000000000e+00 0.0000000000000000e+00 0.0000000000000000e+00 0.0000000000000000e+00  2.5519906331162834e-03 5.9301035965560771e-05 0.0000000000000000e+00 5.9301035965560771e-05 2.5282413013760748e-03 0.0000000000000000e+00 0.0000000000000000e+00 0.0000000000000000e+00 0.0000000000000000e+00  2.5324491390511746e-03 4.9477239136891828e-05 0.0000000000000000e+00 4.9477239136891828e-05 2.5118954233694529e-03 0.0000000000000000e+00 0.0000000000000000e+00 0.0000000000000000e+00 0.0000000000000000e+00  2.5172558388648976e-03 4.0940730166022714e-05 0.0000000000000000e+00 4.0940730166022714e-05 2.4995110025073735e-03 0.0000000000000000e+00 0.0000000000000000e+00 0.0000000000000000e+00 0.0000000000000000e+00  2.5056242379421887e-03 3.3286159398703864e-05 0.0000000000000000e+00 3.3286159398703864e-05 2.4895512039406461e-03 0.0000000000000000e+00 0.0000000000000000e+00 0.0000000000000000e+00 0.0000000000000000e+00  2.4968155360394892e-03 2.6061652658289290e-05 0.0000000000000000e+00 2.6061652658289290e-05 2.4813785356874963e-03 0.0000000000000000e+00 0.0000000000000000e+00 0.0000000000000000e+00 0.0000000000000000e+00  2.4903796638419237e-03 1.8914831820605033e-05 0.0000000000000000e+00 1.8914831820605033e-05 2.4749494294978641e-03 0.0000000000000000e+00 0.0000000000000000e+00 0.0000000000000000e+00 0.0000000000000000e+00  2.4860794834588905e-03 1.1694773185274776e-05 0.0000000000000000e+00 1.1694773185274776e-05 2.4704597008871343e-03 0.0000000000000000e+00 0.0000000000000000e+00 0.0000000000000000e+00 0.0000000000000000e+00  2.4838173875015327e-03 4.3990265024981913e-06 0.0000000000000000e+00 4.3990265024981913e-06 2.4681309249665381e-03 0.0000000000000000e+00 0.0000000000000000e+00 0.0000000000000000e+00 0.0000000000000000e+00  2.4835361528230508e-03 -2.8698911230804240e-06 0.0000000000000000e+00 -2.8698911230804240e-06 2.4680697977999921e-03 0.0000000000000000e+00 0.0000000000000000e+00 0.0000000000000000e+00 0.0000000000000000e+00  2.4851805518656209e-03 -9.9778650175944421e-06 0.0000000000000000e+00 -9.9778650175944421e-06 2.4702117581892834e-03 0.0000000000000000e+00 0.0000000000000000e+00 0.0000000000000000e+00 0.0000000000000000e+00  2.4886952881622878e-03 -1.6832119296830648e-05 0.0000000000000000e+00 -1.6832119296830648e-05 2.4743193087837629e-03 0.0000000000000000e+00 0.0000000000000000e+00 0.0000000000000000e+00 0.0000000000000000e+00  2.4940666228363945e-03 -2.3457784180697441e-05 0.0000000000000000e+00 -2.3457784180697441e-05 2.4800284104229495e-03 0.0000000000000000e+00 0.0000000000000000e+00 0.0000000000000000e+00 0.0000000000000000e+00  2.5014166991424412e-03 -3.0042458272538652e-05 0.0000000000000000e+00 -3.0042458272538652e-05 2.4869910868041121e-03 0.0000000000000000e+00 0.0000000000000000e+00 0.0000000000000000e+00 0.0000000000000000e+00  2.5110991664077675e-03 -3.7017768937055117e-05 0.0000000000000000e+00 -3.7017768937055117e-05 2.4950194101273958e-03 0.0000000000000000e+00 0.0000000000000000e+00 0.0000000000000000e+00 0.0000000000000000e+00  2.5239680928646350e-03 -4.4977716195730041e-05 0.0000000000000000e+00 -4.4977716195730041e-05 2.5042863759127299e-03 0.0000000000000000e+00 0.0000000000000000e+00 0.0000000000000000e+00 0.0000000000000000e+00  2.5410811121803658e-03 -5.4677163947406132e-05 0.0000000000000000e+00 -5.4677163947406132e-05 2.5166009905144967e-03 0.0000000000000000e+00 0.0000000000000000e+00 0.0000000000000000e+00 0.0000000000000000e+00  2.5641813997376228e-03 -6.7562505808279255e-05 0.0000000000000000e+00 -6.7562505808279255e-05 2.5302754206171819e-03 0.0000000000000000e+00 0.0000000000000000e+00 0.0000000000000000e+00 0.0000000000000000e+00  2.5925360678680405e-03 -8.4925441252104290e-05 0.0000000000000000e+00 -8.4925441252104290e-05 2.5474053003147505e-03 0.0000000000000000e+00 0.0000000000000000e+00 0.0000000000000000e+00 0.0000000000000000e+00  2.6291230598862454e-03 -9.9521221641328105e-05 0.0000000000000000e+00 -9.9521221641328105e-05 2.5474884776613446e-03 0.0000000000000000e+00 0.0000000000000000e+00 0.0000000000000000e+00 0.0000000000000000e+00  2.6566453098600812e-03 -1.0241721646127873e-04 0.0000000000000000e+00 -1.0241721646127873e-04 2.6006275575663042e-03 0.0000000000000000e+00 0.0000000000000000e+00 0.0000000000000000e+00 0.0000000000000000e+00  2.6602370150870000e-03 -1.7930298507826023e-04 0.0000000000000000e+00 -1.7930298507826023e-04 2.4431205723855808e-03 0.0000000000000000e+00 0.0000000000000000e+00 0.0000000000000000e+00 0.0000000000000000e+00  2.8181734946086906e-03 -1.2974514332016776e-04 0.0000000000000000e+00 -1.2974514332016776e-04 2.7384165807955926e-03 0.0000000000000000e+00 0.0000000000000000e+00 0.0000000000000000e+00 0.0000000000000000e+00  2.7835482874372830e-03 -1.2782700942088899e-04 0.0000000000000000e+00 -1.2782700942088899e-04 2.6550454677893931e-03 0.0000000000000000e+00 0.0000000000000000e+00 0.0000000000000000e+00 0.0000000000000000e+00  2.7414907557572698e-03 -2.7096539196893232e-04 0.0000000000000000e+00 -2.7096539196893232e-04 2.3778884754899862e-03 0.0000000000000000e+00 0.0000000000000000e+00 0.0000000000000000e+00 0.0000000000000000e+00  2.8811204253154188e-03 -2.9698137628961219e-04 0.0000000000000000e+00 -2.9698137628961219e-04 2.5787922172020410e-03 0.0000000000000000e+00 0.0000000000000000e+00 0.0000000000000000e+00 0.0000000000000000e+00  3.2380607615332684e-03 -2.7530299306442074e-04 0.0000000000000000e+00 -2.7530299306442074e-04 3.0295117345417138e-03 0.0000000000000000e+00 0.0000000000000000e+00 0.0000000000000000e+00 0.0000000000000000e+00  3.6974938569242300e-03 -2.0530554249045856e-04 0.0000000000000000e+00 -2.0530554249045856e-04 3.6527574337386448e-03 0.0000000000000000e+00 0.0000000000000000e+00 0.0000000000000000e+00 0.0000000000000000e+00  3.9210028359390071e-03 -2.7835326257922281e-04 0.0000000000000000e+00 -2.7835326257922281e-04 3.8069763687428432e-03 0.0000000000000000e+00 0.0000000000000000e+00 0.0000000000000000e+00 0.0000000000000000e+00  4.1103133849537312e-03 -3.6112053991925550e-04 0.0000000000000000e+00 -3.6112053991925550e-04 3.9121711053367756e-03 0.0000000000000000e+00 0.0000000000000000e+00 0.0000000000000000e+00 0.0000000000000000e+00  4.3966354582871230e-03 -3.7692210293656332e-04 0.0000000000000000e+00 -3.7692210293656332e-04 4.2135609448191915e-03 0.0000000000000000e+00 0.0000000000000000e+00 0.0000000000000000e+00 0.0000000000000000e+00  4.7734111849336482e-03 -3.7733044638855215e-04 0.0000000000000000e+00 -3.7733044638855215e-04 4.6350992594963204e-03 0.0000000000000000e+00 0.0000000000000000e+00 0.0000000000000000e+00 0.0000000000000000e+00  5.2159626897344859e-03 -3.6408283168960483e-04 0.0000000000000000e+00 -3.6408283168960483e-04 5.1673982356087262e-03 0.0000000000000000e+00 0.0000000000000000e+00 0.0000000000000000e+00 0.0000000000000000e+00  5.6643740908117590e-03 -3.3245863595397540e-04 0.0000000000000000e+00 -3.3245863595397540e-04 5.7850637656265353e-03 0.0000000000000000e+00 0.0000000000000000e+00 0.0000000000000000e+00 0.0000000000000000e+00  5.9123237439689608e-03 -2.5025602549381493e-04 0.0000000000000000e+00 -2.5025602549381493e-04 5.8628248569226596e-03 0.0000000000000000e+00 0.0000000000000000e+00 0.0000000000000000e+00 0.0000000000000000e+00  6.0094287214085534e-03 -2.9164898715907268e-04 0.0000000000000000e+00 -2.9164898715907268e-04 5.7821669701975014e-03 0.0000000000000000e+00 0.0000000000000000e+00 0.0000000000000000e+00 0.0000000000000000e+00  6.1941148899977505e-03 -3.0172201374123654e-04 0.0000000000000000e+00 -3.0172201374123654e-04 5.9910887049192353e-03 0.0000000000000000e+00 0.0000000000000000e+00 0.0000000000000000e+00 0.0000000000000000e+00  6.5096778077954887e-03 -2.4467588549574967e-04 0.0000000000000000e+00 -2.4467588549574967e-04 6.4570561332935551e-03 0.0000000000000000e+00 0.0000000000000000e+00 0.0000000000000000e+00 0.0000000000000000e+00  6.8267905291794391e-03 -1.8870962048155452e-04 0.0000000000000000e+00 -1.8870962048155452e-04 6.9338928280172074e-03 0.0000000000000000e+00 0.0000000000000000e+00 0.0000000000000000e+00 0.0000000000000000e+00  6.9831640363741468e-03 -1.7876844953741916e-04 0.0000000000000000e+00 -1.7876844953741916e-04 6.9366309078884546e-03 0.0000000000000000e+00 0.0000000000000000e+00 0.0000000000000000e+00 0.0000000000000000e+00  7.1322698518728380e-03 -1.4311463915142369e-04 0.0000000000000000e+00 -1.4311463915142369e-04 7.1575134588029209e-03 0.0000000000000000e+00 0.0000000000000000e+00 0.0000000000000000e+00 0.0000000000000000e+00  7.2235094545661177e-03 -1.1543954016957071e-04 0.0000000000000000e+00 -1.1543954016957071e-04 7.2479805224696346e-03 0.0000000000000000e+00 0.0000000000000000e+00 0.0000000000000000e+00 0.0000000000000000e+00  7.2979025808563632e-03 -1.1098128306600187e-04 0.0000000000000000e+00 -1.1098128306600187e-04 7.3255479099805535e-03 0.0000000000000000e+00 0.0000000000000000e+00 0.0000000000000000e+00 0.0000000000000000e+00  7.3481490807539322e-03 -9.3964764698645047e-05 0.0000000000000000e+00 -9.3964764698645047e-05 7.3747277860342466e-03 0.0000000000000000e+00 0.0000000000000000e+00 0.0000000000000000e+00 0.0000000000000000e+00  7.3898434454646002e-03 -8.1602736767691028e-05 0.0000000000000000e+00 -8.1602736767691028e-05 7.4162111115697333e-03 0.0000000000000000e+00 0.0000000000000000e+00 0.0000000000000000e+00 0.0000000000000000e+00  7.4217124795521562e-03 -7.1754430530853784e-05 0.0000000000000000e+00 -7.1754430530853784e-05 7.4447144310959053e-03 0.0000000000000000e+00 0.0000000000000000e+00 0.0000000000000000e+00 0.0000000000000000e+00  7.4470283628117941e-03 -6.2038021876917776e-05 0.0000000000000000e+00 -6.2038021876917776e-05 7.4676039519595300e-03 0.0000000000000000e+00 0.0000000000000000e+00 0.0000000000000000e+00 0.0000000000000000e+00  7.4674850054204170e-03 -5.3398328087339088e-05 0.0000000000000000e+00 -5.3398328087339088e-05 7.4857084364944558e-03 0.0000000000000000e+00 0.0000000000000000e+00 0.0000000000000000e+00 0.0000000000000000e+00  7.4839106965300236e-03 -4.5744422645250497e-05 0.0000000000000000e+00 -4.5744422645250497e-05 7.5001558342245268e-03 0.0000000000000000e+00 0.0000000000000000e+00 0.0000000000000000e+00 0.0000000000000000e+00  7.4969648374138701e-03 -3.8766158671571909e-05 0.0000000000000000e+00 -3.8766158671571909e-05 7.5118199012921090e-03 0.0000000000000000e+00 0.0000000000000000e+00 0.0000000000000000e+00 0.0000000000000000e+00  7.5072191208437620e-03 -3.2251974807702007e-05 0.0000000000000000e+00 -3.2251974807702007e-05 7.5210819608069850e-03 0.0000000000000000e+00 0.0000000000000000e+00 0.0000000000000000e+00 0.0000000000000000e+00  7.5150713481675095e-03 -2.6125602249823431e-05 0.0000000000000000e+00 -2.6125602249823431e-05 7.5280812483295807e-03 0.0000000000000000e+00 0.0000000000000000e+00 0.0000000000000000e+00 0.0000000000000000e+00  7.5207868124295627e-03 -2.0372984275588670e-05 0.0000000000000000e+00 -2.0372984275588670e-05 7.5329189616617021e-03 0.0000000000000000e+00 0.0000000000000000e+00 0.0000000000000000e+00 0.0000000000000000e+00  7.5245900288000303e-03 -1.5044731127380670e-05 0.0000000000000000e+00 -1.5044731127380670e-05 7.5356933813017007e-03 0.0000000000000000e+00 0.0000000000000000e+00 0.0000000000000000e+00 0.0000000000000000e+00  7.5267109525380925e-03 -1.0239732098984784e-05 0.0000000000000000e+00 -1.0239732098984784e-05 7.5364989075800111e-03 0.0000000000000000e+00 0.0000000000000000e+00 0.0000000000000000e+00 0.0000000000000000e+00  7.5274442769277371e-03 -6.1167379944527033e-06 0.0000000000000000e+00 -6.1167379944527033e-06 7.5354641174272619e-03 0.0000000000000000e+00 0.0000000000000000e+00 0.0000000000000000e+00 0.0000000000000000e+00  7.5272180259898566e-03 -2.8922524433465311e-06 0.0000000000000000e+00 -2.8922524433465311e-06 7.5328490764732057e-03 0.0000000000000000e+00 0.0000000000000000e+00 0.0000000000000000e+00 0.0000000000000000e+00  7.5266445449099209e-03 -8.0111448495587400e-07 0.0000000000000000e+00 -8.0111448495587400e-07 7.5292935990187420e-03 0.0000000000000000e+00 0.0000000000000000e+00 0.0000000000000000e+00 0.0000000000000000e+00  7.5263993111034143e-03 -6.1257842310599306e-10 0.0000000000000000e+00 -6.1257842310599306e-10 7.5263111212786112e-03 0.0000000000000000e+00 0.0000000000000000e+00 0.0000000000000000e+00 0.0000000000000000e+00  </DataArray> 
</PointData> 
</Piece>
</UnstructuredGrid>
</VTKFile>