<?xml version="1.0"?>
<VTKFile type="UnstructuredGrid"  version="0.1"  >
<UnstructuredGrid>
<Piece  NumberOfPoints="3071" NumberOfCells="5984">
<Points>
<DataArray  type="Float64"  NumberOfComponents="3"  format="ascii">0 0 0  5 0 0  10 0 0  15 0 0  20 0 0  25 0 0  30 0 0  35 0 0  40 0 0  45 0 0  50 0 0  55 0 0  60 0 0  65 0 0  70 0 0  75 0 0  80 0 0  85 0 0  90 0 0  95 0 0  100 0 0  105 0 0  110 0 0  115 0 0  120 0 0  125 0 0  130 0 0  135 0 0  140 0 0  145 0 0  150 0 0  155 0 0  160 0 0  165 0 0  170 0 0  0 5 0  5 5 0  10 5 0  15 5 0  20 5 0  25 5 0  30 5 0  35 5 0  40 5 0  45 5 0  50 5 0  55 5 0  60 5 0  65 5 0  70 5 0  75 5 0  80 5 0  85 5 0  90 5 0  95 5 0  100 5 0  105 5 0  110 5 0  115 5 0  120 5 0  125 5 0  130 5 0  135 5 0  140 5 0  145 5 0  150 5 0  155 5 0  160 5 0  165 5 0  170 5 0  0 10 0  5 10 0  10 10 0  15 10 0  20 10 0  25 10 0  30 10 0  35 10 0  40 10 0  45 10 0  50 10 0  55 10 0  60 10 0  65 10 0  70 10 0  75 10 0  80 10 0  85 10 0  90 10 0  95 10 0  100 10 0  105 10 0  110 10 0  115 10 0  120 10 0  125 10 0  130 10 0  135 10 0  140 10 0  145 10 0  150 10 0  155 10 0  160 10 0  165 10 0  170 10 0  0 15 0  5 15 0  10 15 0  15 15 0  20 15 0  25 15 0  30 15 0  35 15 0  40 15 0  45 15 0  50 15 0  55 15 0  60 15 0  65 15 0  70 15 0  75 15 0  80 15 0  85 15 0  90 15 0  95 15 0  100 15 0  105 15 0  110 15 0  115 15 0  120 15 0  125 15 0  130 15 0  135 15 0  140 15 0  145 15 0  150 15 0  155 15 0  160 15 0  165 15 0  170 15 0  0 20 0  5 20 0  10 20 0  15 20 0  20 20 0  25 20 0  30 20 0  35 20 0  40 20 0  45 20 0  50 20 0  55 20 0  60 20 0  65 20 0  70 20 0  75 20 0  80 20 0  85 20 0  90 20 0  95 20 0  100 20 0  105 20 0  110 20 0  115 20 0  120 20 0  125 20 0  130 20 0  135 20 0  140 20 0  145 20 0  150 20 0  155 20 0  160 20 0  165 20 0  170 20 0  0 25 0  5 25 0  10 25 0  15 25 0  20 25 0  25 25 0  30 25 0  35 25 0  40 25 0  45 25 0  50 25 0  55 25 0  60 25 0  65 25 0  70 25 0  75 25 0  80 25 0  85 25 0  90 25 0  95 25 0  100 25 0  105 25 0  110 25 0  115 25 0  120 25 0  125 25 0  130 25 0  135 25 0  140 25 0  145 25 0  150 25 0  155 25 0  160 25 0  165 25 0  170 25 0  0 30 0  5 30 0  10 30 0  15 30 0  20 30 0  25 30 0  30 30 0  35 30 0  40 30 0  45 30 0  50 30 0  55 30 0  60 30 0  65 30 0  70 30 0  75 30 0  80 30 0  85 30 0  90 30 0  95 30 0  100 30 0  105 30 0  110 30 0  115 30 0  120 30 0  125 30 0  130 30 0  135 30 0  140 30 0  145 30 0  150 30 0  155 30 0  160 30 0  165 30 0  170 30 0  0 35 0  5 35 0  10 35 0  15 35 0  20 35 0  25 35 0  30 35 0  35 35 0  40 35 0  45 35 0  50 35 0  55 35 0  60 35 0  65 35 0  70 35 0  75 35 0  80 35 0  85 35 0  90 35 0  95 35 0  100 35 0  105 35 0  110 35 0  115 35 0  120 35 0  125 35 0  130 35 0  135 35 0  140 35 0  145 35 0  150 35 0  155 35 0  160 35 0  165 35 0  170 35 0  0 40 0  5 40 0  10 40 0  15 40 0  20 40 0  25 40 0  30 40 0  35 40 0  40 40 0  45 40 0  50 40 0  55 40 0  60 40 0  65 40 0  70 40 0  75 40 0  80 40 0  85 40 0  90 40 0  95 40 0  100 40 0  105 40 0  110 40 0  115 40 0  120 40 0  125 40 0  130 40 0  135 40 0  140 40 0  145 40 0  150 40 0  155 40 0  160 40 0  165 40 0  170 40 0  0 45 0  5 45 0  10 45 0  15 45 0  20 45 0  25 45 0  30 45 0  35 45 0  40 45 0  45 45 0  50 45 0  55 45 0  60 45 0  65 45 0  70 45 0  75 45 0  80 45 0  85 45 0  90 45 0  95 45 0  100 45 0  105 45 0  110 45 0  115 45 0  120 45 0  125 45 0  130 45 0  135 45 0  140 45 0  145 45 0  150 45 0  155 45 0  160 45 0  165 45 0  170 45 0  0 50 0  5 50 0  10 50 0  15 50 0  20 50 0  25 50 0  30 50 0  35 50 0  40 50 0  45 50 0  50 50 0  55 50 0  60 50 0  65 50 0  70 50 0  75 50 0  80 50 0  85 50 0  90 50 0  95 50 0  100 50 0  105 50 0  110 50 0  115 50 0  120 50 0  125 50 0  130 50 0  135 50 0  140 50 0  145 50 0  150 50 0  155 50 0  160 50 0  165 50 0  170 50 0  0 55 0  5 55 0  10 55 0  15 55 0  20 55 0  25 55 0  30 55 0  35 55 0  40 55 0  45 55 0  50 55 0  55 55 0  60 55 0  65 55 0  70 55 0  75 55 0  80 55 0  85 55 0  90 55 0  95 55 0  100 55 0  105 55 0  110 55 0  115 55 0  120 55 0  125 55 0  130 55 0  135 55 0  140 55 0  145 55 0  150 55 0  155 55 0  160 55 0  165 55 0  170 55 0  0 60 0  5 60 0  10 60 0  15 60 0  20 60 0  25 60 0  30 60 0  35 60 0  40 60 0  45 60 0  50 60 0  55 60 0  60 60 0  65 60 0  70 60 0  75 60 0  80 60 0  85 60 0  90 60 0  95 60 0  100 60 0  105 60 0  110 60 0  115 60 0  120 60 0  125 60 0  130 60 0  135 60 0  140 60 0  145 60 0  150 60 0  155 60 0  160 60 0  165 60 0  170 60 0  0 65 0  5 65 0  10 65 0  15 65 0  20 65 0  25 65 0  30 65 0  35 65 0  40 65 0  45 65 0  50 65 0  55 65 0  60 65 0  65 65 0  70 65 0  75 65 0  80 65 0  85 65 0  90 65 0  95 65 0  100 65 0  105 65 0  110 65 0  115 65 0  120 65 0  125 65 0  130 65 0  135 65 0  140 65 0  145 65 0  150 65 0  155 65 0  160 65 0  165 65 0  170 65 0  0 70 0  5 70 0  10 70 0  15 70 0  20 70 0  25 70 0  30 70 0  35 70 0  40 70 0  45 70 0  50 70 0  55 70 0  60 70 0  65 70 0  70 70 0  75 70 0  80 70 0  85 70 0  90 70 0  95 70 0  100 70 0  105 70 0  110 70 0  115 70 0  120 70 0  125 70 0  130 70 0  135 70 0  140 70 0  145 70 0  150 70 0  155 70 0  160 70 0  165 70 0  170 70 0  0 75 0  5 75 0  10 75 0  15 75 0  20 75 0  25 75 0  30 75 0  35 75 0  40 75 0  45 75 0  50 75 0  55 75 0  60 75 0  65 75 0  70 75 0  75 75 0  80 75 0  85 75 0  90 75 0  95 75 0  100 75 0  105 75 0  110 75 0  115 75 0  120 75 0  125 75 0  130 75 0  135 75 0  140 75 0  145 75 0  150 75 0  155 75 0  160 75 0  165 75 0  170 75 0  0 80 0  5 80 0  10 80 0  15 80 0  20 80 0  25 80 0  30 80 0  35 80 0  40 80 0  45 80 0  50 80 0  55 80 0  60 80 0  65 80 0  70 80 0  75 80 0  80 80 0  85 80 0  90 80 0  95 80 0  100 80 0  105 80 0  110 80 0  115 80 0  120 80 0  125 80 0  130 80 0  135 80 0  140 80 0  145 80 0  150 80 0  155 80 0  160 80 0  165 80 0  170 80 0  0 85 0  5 85 0  10 85 0  15 85 0  20 85 0  25 85 0  30 85 0  35 85 0  40 85 0  45 85 0  50 85 0  55 85 0  60 85 0  65 85 0  70 85 0  75 85 0  80 85 0  85 85 0  90 85 0  95 85 0  100 85 0  105 85 0  110 85 0  115 85 0  120 85 0  125 85 0  130 85 0  135 85 0  140 85 0  145 85 0  150 85 0  155 85 0  160 85 0  165 85 0  170 85 0  0 90 0  5 90 0  10 90 0  15 90 0  20 90 0  25 90 0  30 90 0  35 90 0  40 90 0  45 90 0  50 90 0  55 90 0  60 90 0  65 90 0  70 90 0  75 90 0  80 90 0  85 90 0  90 90 0  95 90 0  100 90 0  105 90 0  110 90 0  115 90 0  120 90 0  125 90 0  130 90 0  135 90 0  140 90 0  145 90 0  150 90 0  155 90 0  160 90 0  165 90 0  170 90 0  0 95 0  5 95 0  10 95 0  15 95 0  20 95 0  25 95 0  30 95 0  35 95 0  40 95 0  45 95 0  50 95 0  55 95 0  60 95 0  65 95 0  70 95 0  75 95 0  80 95 0  85 95 0  90 95 0  95 95 0  100 95 0  105 95 0  110 95 0  115 95 0  120 95 0  125 95 0  130 95 0  135 95 0  140 95 0  145 95 0  150 95 0  155 95 0  160 95 0  165 95 0  170 95 0  0 100 0  5 100 0  10 100 0  15 100 0  20 100 0  25 100 0  30 100 0  35 100 0  40 100 0  45 100 0  50 100 0  55 100 0  60 100 0  65 100 0  70 100 0  75 100 0  80 100 0  85 100 0  90 100 0  95 100 0  100 100 0  105 100 0  110 100 0  115 100 0  120 100 0  125 100 0  130 100 0  135 100 0  140 100 0  145 100 0  150 100 0  155 100 0  160 100 0  165 100 0  170 100 0  0 105 0  5 105 0  10 105 0  15 105 0  20 105 0  25 105 0  30 105 0  35 105 0  40 105 0  45 105 0  50 105 0  55 105 0  60 105 0  65 105 0  70 105 0  75 105 0  80 105 0  85 105 0  90 105 0  95 105 0  100 105 0  105 105 0  110 105 0  115 105 0  120 105 0  125 105 0  130 105 0  135 105 0  140 105 0  145 105 0  150 105 0  155 105 0  160 105 0  165 105 0  170 105 0  0 110 0  5 110 0  10 110 0  15 110 0  20 110 0  25 110 0  30 110 0  35 110 0  40 110 0  45 110 0  50 110 0  55 110 0  60 110 0  65 110 0  70 110 0  75 110 0  80 110 0  85 110 0  90 110 0  95 110 0  100 110 0  105 110 0  110 110 0  115 110 0  120 110 0  125 110 0  130 110 0  135 110 0  140 110 0  145 110 0  150 110 0  155 110 0  160 110 0  165 110 0  170 110 0  0 115 0  5 115 0  10 115 0  15 115 0  20 115 0  25 115 0  30 115 0  35 115 0  40 115 0  45 115 0  50 115 0  55 115 0  60 115 0  65 115 0  70 115 0  75 115 0  80 115 0  85 115 0  90 115 0  95 115 0  100 115 0  105 115 0  110 115 0  115 115 0  120 115 0  125 115 0  130 115 0  135 115 0  140 115 0  145 115 0  150 115 0  155 115 0  160 115 0  165 115 0  170 115 0  0 120 0  5 120 0  10 120 0  15 120 0  20 120 0  25 120 0  30 120 0  35 120 0  40 120 0  45 120 0  50 120 0  55 120 0  60 120 0  65 120 0  70 120 0  75 120 0  80 120 0  85 120 0  90 120 0  95 120 0  100 120 0  105 120 0  110 120 0  115 120 0  120 120 0  125 120 0  130 120 0  135 120 0  140 120 0  145 120 0  150 120 0  155 120 0  160 120 0  165 120 0  170 120 0  0 125 0  5 125 0  10 125 0  15 125 0  20 125 0  25 125 0  30 125 0  35 125 0  40 125 0  45 125 0  50 125 0  55 125 0  60 125 0  65 125 0  70 125 0  75 125 0  80 125 0  85 125 0  90 125 0  95 125 0  100 125 0  105 125 0  110 125 0  115 125 0  120 125 0  125 125 0  130 125 0  135 125 0  140 125 0  145 125 0  150 125 0  155 125 0  160 125 0  165 125 0  170 125 0  0 130 0  5 130 0  10 130 0  15 130 0  20 130 0  25 130 0  30 130 0  35 130 0  40 130 0  45 130 0  50 130 0  55 130 0  60 130 0  65 130 0  70 130 0  75 130 0  80 130 0  85 130 0  90 130 0  95 130 0  100 130 0  105 130 0  110 130 0  115 130 0  120 130 0  125 130 0  130 130 0  135 130 0  140 130 0  145 130 0  150 130 0  155 130 0  160 130 0  165 130 0  170 130 0  0 135 0  5 135 0  10 135 0  15 135 0  20 135 0  25 135 0  30 135 0  35 135 0  40 135 0  45 135 0  50 135 0  55 135 0  60 135 0  65 135 0  70 135 0  75 135 0  80 135 0  85 135 0  90 135 0  95 135 0  100 135 0  105 135 0  110 135 0  115 135 0  120 135 0  125 135 0  130 135 0  135 135 0  140 135 0  145 135 0  150 135 0  155 135 0  160 135 0  165 135 0  170 135 0  0 140 0  5 140 0  10 140 0  15 140 0  20 140 0  25 140 0  30 140 0  35 140 0  40 140 0  45 140 0  50 140 0  55 140 0  60 140 0  65 140 0  70 140 0  75 140 0  80 140 0  85 140 0  90 140 0  95 140 0  100 140 0  105 140 0  110 140 0  115 140 0  120 140 0  125 140 0  130 140 0  135 140 0  140 140 0  145 140 0  150 140 0  155 140 0  160 140 0  165 140 0  170 140 0  0 145 0  5 145 0  10 145 0  15 145 0  20 145 0  25 145 0  30 145 0  35 145 0  40 145 0  45 145 0  50 145 0  55 145 0  60 145 0  65 145 0  70 145 0  75 145 0  80 145 0  85 145 0  90 145 0  95 145 0  100 145 0  105 145 0  110 145 0  115 145 0  120 145 0  125 145 0  130 145 0  135 145 0  140 145 0  145 145 0  150 145 0  155 145 0  160 145 0  165 145 0  170 145 0  0 150 0  5 150 0  10 150 0  15 150 0  20 150 0  25 150 0  30 150 0  35 150 0  40 150 0  45 150 0  50 150 0  55 150 0  60 150 0  65 150 0  70 150 0  75 150 0  80 150 0  85 150 0  90 150 0  95 150 0  100 150 0  105 150 0  110 150 0  115 150 0  120 150 0  125 150 0  130 150 0  135 150 0  140 150 0  145 150 0  150 150 0  155 150 0  160 150 0  165 150 0  170 150 0  0 155 0  5 155 0  10 155 0  15 155 0  20 155 0  25 155 0  30 155 0  35 155 0  40 155 0  45 155 0  50 155 0  55 155 0  60 155 0  65 155 0  70 155 0  75 155 0  80 155 0  85 155 0  90 155 0  95 155 0  100 155 0  105 155 0  110 155 0  115 155 0  120 155 0  125 155 0  130 155 0  135 155 0  140 155 0  145 155 0  150 155 0  155 155 0  160 155 0  165 155 0  170 155 0  0 160 0  5 160 0  10 160 0  15 160 0  20 160 0  25 160 0  30 160 0  35 160 0  40 160 0  45 160 0  50 160 0  55 160 0  60 160 0  65 160 0  70 160 0  75 160 0  80 160 0  85 160 0  90 160 0  95 160 0  100 160 0  105 160 0  110 160 0  115 160 0  120 160 0  125 160 0  130 160 0  135 160 0  140 160 0  145 160 0  150 160 0  155 160 0  160 160 0  165 160 0  170 160 0  0 165 0  5 165 0  10 165 0  15 165 0  20 165 0  25 165 0  30 165 0  35 165 0  40 165 0  45 165 0  50 165 0  55 165 0  60 165 0  65 165 0  70 165 0  75 165 0  80 165 0  85 165 0  90 165 0  95 165 0  100 165 0  105 165 0  110 165 0  115 165 0  120 165 0  125 165 0  130 165 0  135 165 0  140 165 0  145 165 0  150 165 0  155 165 0  160 165 0  165 165 0  170 165 0  0 170 0  5 170 0  10 170 0  15 170 0  20 170 0  25 170 0  30 170 0  35 170 0  40 170 0  45 170 0  50 170 0  55 170 0  60 170 0  65 170 0  70 170 0  75 170 0  80 170 0  85 170 0  90 170 0  95 170 0  100 170 0  105 170 0  110 170 0  115 170 0  120 170 0  125 170 0  130 170 0  135 170 0  140 170 0  145 170 0  150 170 0  155 170 0  160 170 0  165 170 0  170 170 0  0 175 0  5 175 0  10 175 0  15 175 0  20 175 0  25 175 0  30 175 0  35 175 0  40 175 0  45 175 0  50 175 0  55 175 0  60 175 0  65 175 0  70 175 0  75 175 0  80 175 0  85 175 0  90 175 0  95 175 0  100 175 0  105 175 0  110 175 0  115 175 0  120 175 0  125 175 0  130 175 0  135 175 0  140 175 0  145 175 0  150 175 0  155 175 0  160 175 0  165 175 0  170 175 0  0 180 0  5 180 0  10 180 0  15 180 0  20 180 0  25 180 0  30 180 0  35 180 0  40 180 0  45 180 0  50 180 0  55 180 0  60 180 0  65 180 0  70 180 0  75 180 0  80 180 0  85 180 0  90 180 0  95 180 0  100 180 0  105 180 0  110 180 0  115 180 0  120 180 0  125 180 0  130 180 0  135 180 0  140 180 0  145 180 0  150 180 0  155 180 0  160 180 0  165 180 0  170 180 0  0 185 0  5 185 0  10 185 0  15 185 0  20 185 0  25 185 0  30 185 0  35 185 0  40 185 0  45 185 0  50 185 0  55 185 0  60 185 0  65 185 0  70 185 0  75 185 0  80 185 0  85 185 0  90 185 0  95 185 0  100 185 0  105 185 0  110 185 0  115 185 0  120 185 0  125 185 0  130 185 0  135 185 0  140 185 0  145 185 0  150 185 0  155 185 0  160 185 0  165 185 0  170 185 0  0 190 0  5 190 0  10 190 0  15 190 0  20 190 0  25 190 0  30 190 0  35 190 0  40 190 0  45 190 0  50 190 0  55 190 0  60 190 0  65 190 0  70 190 0  75 190 0  80 190 0  85 190 0  90 190 0  95 190 0  100 190 0  105 190 0  110 190 0  115 190 0  120 190 0  125 190 0  130 190 0  135 190 0  140 190 0  145 190 0  150 190 0  155 190 0  160 190 0  165 190 0  170 190 0  0 195 0  5 195 0  10 195 0  15 195 0  20 195 0  25 195 0  30 195 0  35 195 0  40 195 0  45 195 0  50 195 0  55 195 0  60 195 0  65 195 0  70 195 0  75 195 0  80 195 0  85 195 0  90 195 0  95 195 0  100 195 0  105 195 0  110 195 0  115 195 0  120 195 0  125 195 0  130 195 0  135 195 0  140 195 0  145 195 0  150 195 0  155 195 0  160 195 0  165 195 0  170 195 0  0 200 0  5 200 0  10 200 0  15 200 0  20 200 0  25 200 0  30 200 0  35 200 0  40 200 0  45 200 0  50 200 0  55 200 0  60 200 0  65 200 0  70 200 0  75 200 0  80 200 0  85 200 0  90 200 0  95 200 0  100 200 0  105 200 0  110 200 0  115 200 0  120 200 0  125 200 0  130 200 0  135 200 0  140 200 0  145 200 0  150 200 0  155 200 0  160 200 0  165 200 0  170 200 0  0 205 0  5 205 0  10 205 0  15 205 0  20 205 0  25 205 0  30 205 0  35 205 0  40 205 0  45 205 0  50 205 0  55 205 0  60 205 0  65 205 0  70 205 0  75 205 0  80 205 0  85 205 0  90 205 0  95 205 0  100 205 0  105 205 0  110 205 0  115 205 0  120 205 0  125 205 0  130 205 0  135 205 0  140 205 0  145 205 0  150 205 0  155 205 0  160 205 0  165 205 0  170 205 0  0 210 0  5 210 0  10 210 0  15 210 0  20 210 0  25 210 0  30 210 0  35 210 0  40 210 0  45 210 0  50 210 0  55 210 0  60 210 0  65 210 0  70 210 0  75 210 0  80 210 0  85 210 0  90 210 0  95 210 0  100 210 0  105 210 0  110 210 0  115 210 0  120 210 0  125 210 0  130 210 0  135 210 0  140 210 0  145 210 0  150 210 0  155 210 0  160 210 0  165 210 0  170 210 0  0 215 0  5 215 0  10 215 0  15 215 0  20 215 0  25 215 0  30 215 0  35 215 0  40 215 0  45 215 0  50 215 0  55 215 0  60 215 0  65 215 0  70 215 0  75 215 0  80 215 0  85 215 0  90 215 0  95 215 0  100 215 0  105 215 0  110 215 0  115 215 0  120 215 0  125 215 0  130 215 0  135 215 0  140 215 0  145 215 0  150 215 0  155 215 0  160 215 0  165 215 0  170 215 0  0 220 0  5 220 0  10 220 0  15 220 0  20 220 0  25 220 0  30 220 0  35 220 0  40 220 0  45 220 0  50 220 0  55 220 0  60 220 0  65 220 0  70 220 0  75 220 0  80 220 0  85 220 0  90 220 0  95 220 0  100 220 0  105 220 0  110 220 0  115 220 0  120 220 0  125 220 0  130 220 0  135 220 0  140 220 0  145 220 0  150 220 0  155 220 0  160 220 0  165 220 0  170 220 0  2.5 2.5 0  7.5 2.5 0  12.5 2.5 0  17.5 2.5 0  22.5 2.5 0  27.5 2.5 0  32.5 2.5 0  37.5 2.5 0  42.5 2.5 0  47.5 2.5 0  52.5 2.5 0  57.5 2.5 0  62.5 2.5 0  67.5 2.5 0  72.5 2.5 0  77.5 2.5 0  82.5 2.5 0  87.5 2.5 0  92.5 2.5 0  97.5 2.5 0  102.5 2.5 0  107.5 2.5 0  112.5 2.5 0  117.5 2.5 0  122.5 2.5 0  127.5 2.5 0  132.5 2.5 0  137.5 2.5 0  142.5 2.5 0  147.5 2.5 0  152.5 2.5 0  157.5 2.5 0  162.5 2.5 0  167.5 2.5 0  2.5 7.5 0  7.5 7.5 0  12.5 7.5 0  17.5 7.5 0  22.5 7.5 0  27.5 7.5 0  32.5 7.5 0  37.5 7.5 0  42.5 7.5 0  47.5 7.5 0  52.5 7.5 0  57.5 7.5 0  62.5 7.5 0  67.5 7.5 0  72.5 7.5 0  77.5 7.5 0  82.5 7.5 0  87.5 7.5 0  92.5 7.5 0  97.5 7.5 0  102.5 7.5 0  107.5 7.5 0  112.5 7.5 0  117.5 7.5 0  122.5 7.5 0  127.5 7.5 0  132.5 7.5 0  137.5 7.5 0  142.5 7.5 0  147.5 7.5 0  152.5 7.5 0  157.5 7.5 0  162.5 7.5 0  167.5 7.5 0  2.5 12.5 0  7.5 12.5 0  12.5 12.5 0  17.5 12.5 0  22.5 12.5 0  27.5 12.5 0  32.5 12.5 0  37.5 12.5 0  42.5 12.5 0  47.5 12.5 0  52.5 12.5 0  57.5 12.5 0  62.5 12.5 0  67.5 12.5 0  72.5 12.5 0  77.5 12.5 0  82.5 12.5 0  87.5 12.5 0  92.5 12.5 0  97.5 12.5 0  102.5 12.5 0  107.5 12.5 0  112.5 12.5 0  117.5 12.5 0  122.5 12.5 0  127.5 12.5 0  132.5 12.5 0  137.5 12.5 0  142.5 12.5 0  147.5 12.5 0  152.5 12.5 0  157.5 12.5 0  162.5 12.5 0  167.5 12.5 0  2.5 17.5 0  7.5 17.5 0  12.5 17.5 0  17.5 17.5 0  22.5 17.5 0  27.5 17.5 0  32.5 17.5 0  37.5 17.5 0  42.5 17.5 0  47.5 17.5 0  52.5 17.5 0  57.5 17.5 0  62.5 17.5 0  67.5 17.5 0  72.5 17.5 0  77.5 17.5 0  82.5 17.5 0  87.5 17.5 0  92.5 17.5 0  97.5 17.5 0  102.5 17.5 0  107.5 17.5 0  112.5 17.5 0  117.5 17.5 0  122.5 17.5 0  127.5 17.5 0  132.5 17.5 0  137.5 17.5 0  142.5 17.5 0  147.5 17.5 0  152.5 17.5 0  157.5 17.5 0  162.5 17.5 0  167.5 17.5 0  2.5 22.5 0  7.5 22.5 0  12.5 22.5 0  17.5 22.5 0  22.5 22.5 0  27.5 22.5 0  32.5 22.5 0  37.5 22.5 0  42.5 22.5 0  47.5 22.5 0  52.5 22.5 0  57.5 22.5 0  62.5 22.5 0  67.5 22.5 0  72.5 22.5 0  77.5 22.5 0  82.5 22.5 0  87.5 22.5 0  92.5 22.5 0  97.5 22.5 0  102.5 22.5 0  107.5 22.5 0  112.5 22.5 0  117.5 22.5 0  122.5 22.5 0  127.5 22.5 0  132.5 22.5 0  137.5 22.5 0  142.5 22.5 0  147.5 22.5 0  152.5 22.5 0  157.5 22.5 0  162.5 22.5 0  167.5 22.5 0  2.5 27.5 0  7.5 27.5 0  12.5 27.5 0  17.5 27.5 0  22.5 27.5 0  27.5 27.5 0  32.5 27.5 0  37.5 27.5 0  42.5 27.5 0  47.5 27.5 0  52.5 27.5 0  57.5 27.5 0  62.5 27.5 0  67.5 27.5 0  72.5 27.5 0  77.5 27.5 0  82.5 27.5 0  87.5 27.5 0  92.5 27.5 0  97.5 27.5 0  102.5 27.5 0  107.5 27.5 0  112.5 27.5 0  117.5 27.5 0  122.5 27.5 0  127.5 27.5 0  132.5 27.5 0  137.5 27.5 0  142.5 27.5 0  147.5 27.5 0  152.5 27.5 0  157.5 27.5 0  162.5 27.5 0  167.5 27.5 0  2.5 32.5 0  7.5 32.5 0  12.5 32.5 0  17.5 32.5 0  22.5 32.5 0  27.5 32.5 0  32.5 32.5 0  37.5 32.5 0  42.5 32.5 0  47.5 32.5 0  52.5 32.5 0  57.5 32.5 0  62.5 32.5 0  67.5 32.5 0  72.5 32.5 0  77.5 32.5 0  82.5 32.5 0  87.5 32.5 0  92.5 32.5 0  97.5 32.5 0  102.5 32.5 0  107.5 32.5 0  112.5 32.5 0  117.5 32.5 0  122.5 32.5 0  127.5 32.5 0  132.5 32.5 0  137.5 32.5 0  142.5 32.5 0  147.5 32.5 0  152.5 32.5 0  157.5 32.5 0  162.5 32.5 0  167.5 32.5 0  2.5 37.5 0  7.5 37.5 0  12.5 37.5 0  17.5 37.5 0  22.5 37.5 0  27.5 37.5 0  32.5 37.5 0  37.5 37.5 0  42.5 37.5 0  47.5 37.5 0  52.5 37.5 0  57.5 37.5 0  62.5 37.5 0  67.5 37.5 0  72.5 37.5 0  77.5 37.5 0  82.5 37.5 0  87.5 37.5 0  92.5 37.5 0  97.5 37.5 0  102.5 37.5 0  107.5 37.5 0  112.5 37.5 0  117.5 37.5 0  122.5 37.5 0  127.5 37.5 0  132.5 37.5 0  137.5 37.5 0  142.5 37.5 0  147.5 37.5 0  152.5 37.5 0  157.5 37.5 0  162.5 37.5 0  167.5 37.5 0  2.5 42.5 0  7.5 42.5 0  12.5 42.5 0  17.5 42.5 0  22.5 42.5 0  27.5 42.5 0  32.5 42.5 0  37.5 42.5 0  42.5 42.5 0  47.5 42.5 0  52.5 42.5 0  57.5 42.5 0  62.5 42.5 0  67.5 42.5 0  72.5 42.5 0  77.5 42.5 0  82.5 42.5 0  87.5 42.5 0  92.5 42.5 0  97.5 42.5 0  102.5 42.5 0  107.5 42.5 0  112.5 42.5 0  117.5 42.5 0  122.5 42.5 0  127.5 42.5 0  132.5 42.5 0  137.5 42.5 0  142.5 42.5 0  147.5 42.5 0  152.5 42.5 0  157.5 42.5 0  162.5 42.5 0  167.5 42.5 0  2.5 47.5 0  7.5 47.5 0  12.5 47.5 0  17.5 47.5 0  22.5 47.5 0  27.5 47.5 0  32.5 47.5 0  37.5 47.5 0  42.5 47.5 0  47.5 47.5 0  52.5 47.5 0  57.5 47.5 0  62.5 47.5 0  67.5 47.5 0  72.5 47.5 0  77.5 47.5 0  82.5 47.5 0  87.5 47.5 0  92.5 47.5 0  97.5 47.5 0  102.5 47.5 0  107.5 47.5 0  112.5 47.5 0  117.5 47.5 0  122.5 47.5 0  127.5 47.5 0  132.5 47.5 0  137.5 47.5 0  142.5 47.5 0  147.5 47.5 0  152.5 47.5 0  157.5 47.5 0  162.5 47.5 0  167.5 47.5 0  2.5 52.5 0  7.5 52.5 0  12.5 52.5 0  17.5 52.5 0  22.5 52.5 0  27.5 52.5 0  32.5 52.5 0  37.5 52.5 0  42.5 52.5 0  47.5 52.5 0  52.5 52.5 0  57.5 52.5 0  62.5 52.5 0  67.5 52.5 0  72.5 52.5 0  77.5 52.5 0  82.5 52.5 0  87.5 52.5 0  92.5 52.5 0  97.5 52.5 0  102.5 52.5 0  107.5 52.5 0  112.5 52.5 0  117.5 52.5 0  122.5 52.5 0  127.5 52.5 0  132.5 52.5 0  137.5 52.5 0  142.5 52.5 0  147.5 52.5 0  152.5 52.5 0  157.5 52.5 0  162.5 52.5 0  167.5 52.5 0  2.5 57.5 0  7.5 57.5 0  12.5 57.5 0  17.5 57.5 0  22.5 57.5 0  27.5 57.5 0  32.5 57.5 0  37.5 57.5 0  42.5 57.5 0  47.5 57.5 0  52.5 57.5 0  57.5 57.5 0  62.5 57.5 0  67.5 57.5 0  72.5 57.5 0  77.5 57.5 0  82.5 57.5 0  87.5 57.5 0  92.5 57.5 0  97.5 57.5 0  102.5 57.5 0  107.5 57.5 0  112.5 57.5 0  117.5 57.5 0  122.5 57.5 0  127.5 57.5 0  132.5 57.5 0  137.5 57.5 0  142.5 57.5 0  147.5 57.5 0  152.5 57.5 0  157.5 57.5 0  162.5 57.5 0  167.5 57.5 0  2.5 62.5 0  7.5 62.5 0  12.5 62.5 0  17.5 62.5 0  22.5 62.5 0  27.5 62.5 0  32.5 62.5 0  37.5 62.5 0  42.5 62.5 0  47.5 62.5 0  52.5 62.5 0  57.5 62.5 0  62.5 62.5 0  67.5 62.5 0  72.5 62.5 0  77.5 62.5 0  82.5 62.5 0  87.5 62.5 0  92.5 62.5 0  97.5 62.5 0  102.5 62.5 0  107.5 62.5 0  112.5 62.5 0  117.5 62.5 0  122.5 62.5 0  127.5 62.5 0  132.5 62.5 0  137.5 62.5 0  142.5 62.5 0  147.5 62.5 0  152.5 62.5 0  157.5 62.5 0  162.5 62.5 0  167.5 62.5 0  2.5 67.5 0  7.5 67.5 0  12.5 67.5 0  17.5 67.5 0  22.5 67.5 0  27.5 67.5 0  32.5 67.5 0  37.5 67.5 0  42.5 67.5 0  47.5 67.5 0  52.5 67.5 0  57.5 67.5 0  62.5 67.5 0  67.5 67.5 0  72.5 67.5 0  77.5 67.5 0  82.5 67.5 0  87.5 67.5 0  92.5 67.5 0  97.5 67.5 0  102.5 67.5 0  107.5 67.5 0  112.5 67.5 0  117.5 67.5 0  122.5 67.5 0  127.5 67.5 0  132.5 67.5 0  137.5 67.5 0  142.5 67.5 0  147.5 67.5 0  152.5 67.5 0  157.5 67.5 0  162.5 67.5 0  167.5 67.5 0  2.5 72.5 0  7.5 72.5 0  12.5 72.5 0  17.5 72.5 0  22.5 72.5 0  27.5 72.5 0  32.5 72.5 0  37.5 72.5 0  42.5 72.5 0  47.5 72.5 0  52.5 72.5 0  57.5 72.5 0  62.5 72.5 0  67.5 72.5 0  72.5 72.5 0  77.5 72.5 0  82.5 72.5 0  87.5 72.5 0  92.5 72.5 0  97.5 72.5 0  102.5 72.5 0  107.5 72.5 0  112.5 72.5 0  117.5 72.5 0  122.5 72.5 0  127.5 72.5 0  132.5 72.5 0  137.5 72.5 0  142.5 72.5 0  147.5 72.5 0  152.5 72.5 0  157.5 72.5 0  162.5 72.5 0  167.5 72.5 0  2.5 77.5 0  7.5 77.5 0  12.5 77.5 0  17.5 77.5 0  22.5 77.5 0  27.5 77.5 0  32.5 77.5 0  37.5 77.5 0  42.5 77.5 0  47.5 77.5 0  52.5 77.5 0  57.5 77.5 0  62.5 77.5 0  67.5 77.5 0  72.5 77.5 0  77.5 77.5 0  82.5 77.5 0  87.5 77.5 0  92.5 77.5 0  97.5 77.5 0  102.5 77.5 0  107.5 77.5 0  112.5 77.5 0  117.5 77.5 0  122.5 77.5 0  127.5 77.5 0  132.5 77.5 0  137.5 77.5 0  142.5 77.5 0  147.5 77.5 0  152.5 77.5 0  157.5 77.5 0  162.5 77.5 0  167.5 77.5 0  2.5 82.5 0  7.5 82.5 0  12.5 82.5 0  17.5 82.5 0  22.5 82.5 0  27.5 82.5 0  32.5 82.5 0  37.5 82.5 0  42.5 82.5 0  47.5 82.5 0  52.5 82.5 0  57.5 82.5 0  62.5 82.5 0  67.5 82.5 0  72.5 82.5 0  77.5 82.5 0  82.5 82.5 0  87.5 82.5 0  92.5 82.5 0  97.5 82.5 0  102.5 82.5 0  107.5 82.5 0  112.5 82.5 0  117.5 82.5 0  122.5 82.5 0  127.5 82.5 0  132.5 82.5 0  137.5 82.5 0  142.5 82.5 0  147.5 82.5 0  152.5 82.5 0  157.5 82.5 0  162.5 82.5 0  167.5 82.5 0  2.5 87.5 0  7.5 87.5 0  12.5 87.5 0  17.5 87.5 0  22.5 87.5 0  27.5 87.5 0  32.5 87.5 0  37.5 87.5 0  42.5 87.5 0  47.5 87.5 0  52.5 87.5 0  57.5 87.5 0  62.5 87.5 0  67.5 87.5 0  72.5 87.5 0  77.5 87.5 0  82.5 87.5 0  87.5 87.5 0  92.5 87.5 0  97.5 87.5 0  102.5 87.5 0  107.5 87.5 0  112.5 87.5 0  117.5 87.5 0  122.5 87.5 0  127.5 87.5 0  132.5 87.5 0  137.5 87.5 0  142.5 87.5 0  147.5 87.5 0  152.5 87.5 0  157.5 87.5 0  162.5 87.5 0  167.5 87.5 0  2.5 92.5 0  7.5 92.5 0  12.5 92.5 0  17.5 92.5 0  22.5 92.5 0  27.5 92.5 0  32.5 92.5 0  37.5 92.5 0  42.5 92.5 0  47.5 92.5 0  52.5 92.5 0  57.5 92.5 0  62.5 92.5 0  67.5 92.5 0  72.5 92.5 0  77.5 92.5 0  82.5 92.5 0  87.5 92.5 0  92.5 92.5 0  97.5 92.5 0  102.5 92.5 0  107.5 92.5 0  112.5 92.5 0  117.5 92.5 0  122.5 92.5 0  127.5 92.5 0  132.5 92.5 0  137.5 92.5 0  142.5 92.5 0  147.5 92.5 0  152.5 92.5 0  157.5 92.5 0  162.5 92.5 0  167.5 92.5 0  2.5 97.5 0  7.5 97.5 0  12.5 97.5 0  17.5 97.5 0  22.5 97.5 0  27.5 97.5 0  32.5 97.5 0  37.5 97.5 0  42.5 97.5 0  47.5 97.5 0  52.5 97.5 0  57.5 97.5 0  62.5 97.5 0  67.5 97.5 0  72.5 97.5 0  77.5 97.5 0  82.5 97.5 0  87.5 97.5 0  92.5 97.5 0  97.5 97.5 0  102.5 97.5 0  107.5 97.5 0  112.5 97.5 0  117.5 97.5 0  122.5 97.5 0  127.5 97.5 0  132.5 97.5 0  137.5 97.5 0  142.5 97.5 0  147.5 97.5 0  152.5 97.5 0  157.5 97.5 0  162.5 97.5 0  167.5 97.5 0  2.5 102.5 0  7.5 102.5 0  12.5 102.5 0  17.5 102.5 0  22.5 102.5 0  27.5 102.5 0  32.5 102.5 0  37.5 102.5 0  42.5 102.5 0  47.5 102.5 0  52.5 102.5 0  57.5 102.5 0  62.5 102.5 0  67.5 102.5 0  72.5 102.5 0  77.5 102.5 0  82.5 102.5 0  87.5 102.5 0  92.5 102.5 0  97.5 102.5 0  102.5 102.5 0  107.5 102.5 0  112.5 102.5 0  117.5 102.5 0  122.5 102.5 0  127.5 102.5 0  132.5 102.5 0  137.5 102.5 0  142.5 102.5 0  147.5 102.5 0  152.5 102.5 0  157.5 102.5 0  162.5 102.5 0  167.5 102.5 0  2.5 107.5 0  7.5 107.5 0  12.5 107.5 0  17.5 107.5 0  22.5 107.5 0  27.5 107.5 0  32.5 107.5 0  37.5 107.5 0  42.5 107.5 0  47.5 107.5 0  52.5 107.5 0  57.5 107.5 0  62.5 107.5 0  67.5 107.5 0  72.5 107.5 0  77.5 107.5 0  82.5 107.5 0  87.5 107.5 0  92.5 107.5 0  97.5 107.5 0  102.5 107.5 0  107.5 107.5 0  112.5 107.5 0  117.5 107.5 0  122.5 107.5 0  127.5 107.5 0  132.5 107.5 0  137.5 107.5 0  142.5 107.5 0  147.5 107.5 0  152.5 107.5 0  157.5 107.5 0  162.5 107.5 0  167.5 107.5 0  2.5 112.5 0  7.5 112.5 0  12.5 112.5 0  17.5 112.5 0  22.5 112.5 0  27.5 112.5 0  32.5 112.5 0  37.5 112.5 0  42.5 112.5 0  47.5 112.5 0  52.5 112.5 0  57.5 112.5 0  62.5 112.5 0  67.5 112.5 0  72.5 112.5 0  77.5 112.5 0  82.5 112.5 0  87.5 112.5 0  92.5 112.5 0  97.5 112.5 0  102.5 112.5 0  107.5 112.5 0  112.5 112.5 0  117.5 112.5 0  122.5 112.5 0  127.5 112.5 0  132.5 112.5 0  137.5 112.5 0  142.5 112.5 0  147.5 112.5 0  152.5 112.5 0  157.5 112.5 0  162.5 112.5 0  167.5 112.5 0  2.5 117.5 0  7.5 117.5 0  12.5 117.5 0  17.5 117.5 0  22.5 117.5 0  27.5 117.5 0  32.5 117.5 0  37.5 117.5 0  42.5 117.5 0  47.5 117.5 0  52.5 117.5 0  57.5 117.5 0  62.5 117.5 0  67.5 117.5 0  72.5 117.5 0  77.5 117.5 0  82.5 117.5 0  87.5 117.5 0  92.5 117.5 0  97.5 117.5 0  102.5 117.5 0  107.5 117.5 0  112.5 117.5 0  117.5 117.5 0  122.5 117.5 0  127.5 117.5 0  132.5 117.5 0  137.5 117.5 0  142.5 117.5 0  147.5 117.5 0  152.5 117.5 0  157.5 117.5 0  162.5 117.5 0  167.5 117.5 0  2.5 122.5 0  7.5 122.5 0  12.5 122.5 0  17.5 122.5 0  22.5 122.5 0  27.5 122.5 0  32.5 122.5 0  37.5 122.5 0  42.5 122.5 0  47.5 122.5 0  52.5 122.5 0  57.5 122.5 0  62.5 122.5 0  67.5 122.5 0  72.5 122.5 0  77.5 122.5 0  82.5 122.5 0  87.5 122.5 0  92.5 122.5 0  97.5 122.5 0  102.5 122.5 0  107.5 122.5 0  112.5 122.5 0  117.5 122.5 0  122.5 122.5 0  127.5 122.5 0  132.5 122.5 0  137.5 122.5 0  142.5 122.5 0  147.5 122.5 0  152.5 122.5 0  157.5 122.5 0  162.5 122.5 0  167.5 122.5 0  2.5 127.5 0  7.5 127.5 0  12.5 127.5 0  17.5 127.5 0  22.5 127.5 0  27.5 127.5 0  32.5 127.5 0  37.5 127.5 0  42.5 127.5 0  47.5 127.5 0  52.5 127.5 0  57.5 127.5 0  62.5 127.5 0  67.5 127.5 0  72.5 127.5 0  77.5 127.5 0  82.5 127.5 0  87.5 127.5 0  92.5 127.5 0  97.5 127.5 0  102.5 127.5 0  107.5 127.5 0  112.5 127.5 0  117.5 127.5 0  122.5 127.5 0  127.5 127.5 0  132.5 127.5 0  137.5 127.5 0  142.5 127.5 0  147.5 127.5 0  152.5 127.5 0  157.5 127.5 0  162.5 127.5 0  167.5 127.5 0  2.5 132.5 0  7.5 132.5 0  12.5 132.5 0  17.5 132.5 0  22.5 132.5 0  27.5 132.5 0  32.5 132.5 0  37.5 132.5 0  42.5 132.5 0  47.5 132.5 0  52.5 132.5 0  57.5 132.5 0  62.5 132.5 0  67.5 132.5 0  72.5 132.5 0  77.5 132.5 0  82.5 132.5 0  87.5 132.5 0  92.5 132.5 0  97.5 132.5 0  102.5 132.5 0  107.5 132.5 0  112.5 132.5 0  117.5 132.5 0  122.5 132.5 0  127.5 132.5 0  132.5 132.5 0  137.5 132.5 0  142.5 132.5 0  147.5 132.5 0  152.5 132.5 0  157.5 132.5 0  162.5 132.5 0  167.5 132.5 0  2.5 137.5 0  7.5 137.5 0  12.5 137.5 0  17.5 137.5 0  22.5 137.5 0  27.5 137.5 0  32.5 137.5 0  37.5 137.5 0  42.5 137.5 0  47.5 137.5 0  52.5 137.5 0  57.5 137.5 0  62.5 137.5 0  67.5 137.5 0  72.5 137.5 0  77.5 137.5 0  82.5 137.5 0  87.5 137.5 0  92.5 137.5 0  97.5 137.5 0  102.5 137.5 0  107.5 137.5 0  112.5 137.5 0  117.5 137.5 0  122.5 137.5 0  127.5 137.5 0  132.5 137.5 0  137.5 137.5 0  142.5 137.5 0  147.5 137.5 0  152.5 137.5 0  157.5 137.5 0  162.5 137.5 0  167.5 137.5 0  2.5 142.5 0  7.5 142.5 0  12.5 142.5 0  17.5 142.5 0  22.5 142.5 0  27.5 142.5 0  32.5 142.5 0  37.5 142.5 0  42.5 142.5 0  47.5 142.5 0  52.5 142.5 0  57.5 142.5 0  62.5 142.5 0  67.5 142.5 0  72.5 142.5 0  77.5 142.5 0  82.5 142.5 0  87.5 142.5 0  92.5 142.5 0  97.5 142.5 0  102.5 142.5 0  107.5 142.5 0  112.5 142.5 0  117.5 142.5 0  122.5 142.5 0  127.5 142.5 0  132.5 142.5 0  137.5 142.5 0  142.5 142.5 0  147.5 142.5 0  152.5 142.5 0  157.5 142.5 0  162.5 142.5 0  167.5 142.5 0  2.5 147.5 0  7.5 147.5 0  12.5 147.5 0  17.5 147.5 0  22.5 147.5 0  27.5 147.5 0  32.5 147.5 0  37.5 147.5 0  42.5 147.5 0  47.5 147.5 0  52.5 147.5 0  57.5 147.5 0  62.5 147.5 0  67.5 147.5 0  72.5 147.5 0  77.5 147.5 0  82.5 147.5 0  87.5 147.5 0  92.5 147.5 0  97.5 147.5 0  102.5 147.5 0  107.5 147.5 0  112.5 147.5 0  117.5 147.5 0  122.5 147.5 0  127.5 147.5 0  132.5 147.5 0  137.5 147.5 0  142.5 147.5 0  147.5 147.5 0  152.5 147.5 0  157.5 147.5 0  162.5 147.5 0  167.5 147.5 0  2.5 152.5 0  7.5 152.5 0  12.5 152.5 0  17.5 152.5 0  22.5 152.5 0  27.5 152.5 0  32.5 152.5 0  37.5 152.5 0  42.5 152.5 0  47.5 152.5 0  52.5 152.5 0  57.5 152.5 0  62.5 152.5 0  67.5 152.5 0  72.5 152.5 0  77.5 152.5 0  82.5 152.5 0  87.5 152.5 0  92.5 152.5 0  97.5 152.5 0  102.5 152.5 0  107.5 152.5 0  112.5 152.5 0  117.5 152.5 0  122.5 152.5 0  127.5 152.5 0  132.5 152.5 0  137.5 152.5 0  142.5 152.5 0  147.5 152.5 0  152.5 152.5 0  157.5 152.5 0  162.5 152.5 0  167.5 152.5 0  2.5 157.5 0  7.5 157.5 0  12.5 157.5 0  17.5 157.5 0  22.5 157.5 0  27.5 157.5 0  32.5 157.5 0  37.5 157.5 0  42.5 157.5 0  47.5 157.5 0  52.5 157.5 0  57.5 157.5 0  62.5 157.5 0  67.5 157.5 0  72.5 157.5 0  77.5 157.5 0  82.5 157.5 0  87.5 157.5 0  92.5 157.5 0  97.5 157.5 0  102.5 157.5 0  107.5 157.5 0  112.5 157.5 0  117.5 157.5 0  122.5 157.5 0  127.5 157.5 0  132.5 157.5 0  137.5 157.5 0  142.5 157.5 0  147.5 157.5 0  152.5 157.5 0  157.5 157.5 0  162.5 157.5 0  167.5 157.5 0  2.5 162.5 0  7.5 162.5 0  12.5 162.5 0  17.5 162.5 0  22.5 162.5 0  27.5 162.5 0  32.5 162.5 0  37.5 162.5 0  42.5 162.5 0  47.5 162.5 0  52.5 162.5 0  57.5 162.5 0  62.5 162.5 0  67.5 162.5 0  72.5 162.5 0  77.5 162.5 0  82.5 162.5 0  87.5 162.5 0  92.5 162.5 0  97.5 162.5 0  102.5 162.5 0  107.5 162.5 0  112.5 162.5 0  117.5 162.5 0  122.5 162.5 0  127.5 162.5 0  132.5 162.5 0  137.5 162.5 0  142.5 162.5 0  147.5 162.5 0  152.5 162.5 0  157.5 162.5 0  162.5 162.5 0  167.5 162.5 0  2.5 167.5 0  7.5 167.5 0  12.5 167.5 0  17.5 167.5 0  22.5 167.5 0  27.5 167.5 0  32.5 167.5 0  37.5 167.5 0  42.5 167.5 0  47.5 167.5 0  52.5 167.5 0  57.5 167.5 0  62.5 167.5 0  67.5 167.5 0  72.5 167.5 0  77.5 167.5 0  82.5 167.5 0  87.5 167.5 0  92.5 167.5 0  97.5 167.5 0  102.5 167.5 0  107.5 167.5 0  112.5 167.5 0  117.5 167.5 0  122.5 167.5 0  127.5 167.5 0  132.5 167.5 0  137.5 167.5 0  142.5 167.5 0  147.5 167.5 0  152.5 167.5 0  157.5 167.5 0  162.5 167.5 0  167.5 167.5 0  2.5 172.5 0  7.5 172.5 0  12.5 172.5 0  17.5 172.5 0  22.5 172.5 0  27.5 172.5 0  32.5 172.5 0  37.5 172.5 0  42.5 172.5 0  47.5 172.5 0  52.5 172.5 0  57.5 172.5 0  62.5 172.5 0  67.5 172.5 0  72.5 172.5 0  77.5 172.5 0  82.5 172.5 0  87.5 172.5 0  92.5 172.5 0  97.5 172.5 0  102.5 172.5 0  107.5 172.5 0  112.5 172.5 0  117.5 172.5 0  122.5 172.5 0  127.5 172.5 0  132.5 172.5 0  137.5 172.5 0  142.5 172.5 0  147.5 172.5 0  152.5 172.5 0  157.5 172.5 0  162.5 172.5 0  167.5 172.5 0  2.5 177.5 0  7.5 177.5 0  12.5 177.5 0  17.5 177.5 0  22.5 177.5 0  27.5 177.5 0  32.5 177.5 0  37.5 177.5 0  42.5 177.5 0  47.5 177.5 0  52.5 177.5 0  57.5 177.5 0  62.5 177.5 0  67.5 177.5 0  72.5 177.5 0  77.5 177.5 0  82.5 177.5 0  87.5 177.5 0  92.5 177.5 0  97.5 177.5 0  102.5 177.5 0  107.5 177.5 0  112.5 177.5 0  117.5 177.5 0  122.5 177.5 0  127.5 177.5 0  132.5 177.5 0  137.5 177.5 0  142.5 177.5 0  147.5 177.5 0  152.5 177.5 0  157.5 177.5 0  162.5 177.5 0  167.5 177.5 0  2.5 182.5 0  7.5 182.5 0  12.5 182.5 0  17.5 182.5 0  22.5 182.5 0  27.5 182.5 0  32.5 182.5 0  37.5 182.5 0  42.5 182.5 0  47.5 182.5 0  52.5 182.5 0  57.5 182.5 0  62.5 182.5 0  67.5 182.5 0  72.5 182.5 0  77.5 182.5 0  82.5 182.5 0  87.5 182.5 0  92.5 182.5 0  97.5 182.5 0  102.5 182.5 0  107.5 182.5 0  112.5 182.5 0  117.5 182.5 0  122.5 182.5 0  127.5 182.5 0  132.5 182.5 0  137.5 182.5 0  142.5 182.5 0  147.5 182.5 0  152.5 182.5 0  157.5 182.5 0  162.5 182.5 0  167.5 182.5 0  2.5 187.5 0  7.5 187.5 0  12.5 187.5 0  17.5 187.5 0  22.5 187.5 0  27.5 187.5 0  32.5 187.5 0  37.5 187.5 0  42.5 187.5 0  47.5 187.5 0  52.5 187.5 0  57.5 187.5 0  62.5 187.5 0  67.5 187.5 0  72.5 187.5 0  77.5 187.5 0  82.5 187.5 0  87.5 187.5 0  92.5 187.5 0  97.5 187.5 0  102.5 187.5 0  107.5 187.5 0  112.5 187.5 0  117.5 187.5 0  122.5 187.5 0  127.5 187.5 0  132.5 187.5 0  137.5 187.5 0  142.5 187.5 0  147.5 187.5 0  152.5 187.5 0  157.5 187.5 0  162.5 187.5 0  167.5 187.5 0  2.5 192.5 0  7.5 192.5 0  12.5 192.5 0  17.5 192.5 0  22.5 192.5 0  27.5 192.5 0  32.5 192.5 0  37.5 192.5 0  42.5 192.5 0  47.5 192.5 0  52.5 192.5 0  57.5 192.5 0  62.5 192.5 0  67.5 192.5 0  72.5 192.5 0  77.5 192.5 0  82.5 192.5 0  87.5 192.5 0  92.5 192.5 0  97.5 192.5 0  102.5 192.5 0  107.5 192.5 0  112.5 192.5 0  117.5 192.5 0  122.5 192.5 0  127.5 192.5 0  132.5 192.5 0  137.5 192.5 0  142.5 192.5 0  147.5 192.5 0  152.5 192.5 0  157.5 192.5 0  162.5 192.5 0  167.5 192.5 0  2.5 197.5 0  7.5 197.5 0  12.5 197.5 0  17.5 197.5 0  22.5 197.5 0  27.5 197.5 0  32.5 197.5 0  37.5 197.5 0  42.5 197.5 0  47.5 197.5 0  52.5 197.5 0  57.5 197.5 0  62.5 197.5 0  67.5 197.5 0  72.5 197.5 0  77.5 197.5 0  82.5 197.5 0  87.5 197.5 0  92.5 197.5 0  97.5 197.5 0  102.5 197.5 0  107.5 197.5 0  112.5 197.5 0  117.5 197.5 0  122.5 197.5 0  127.5 197.5 0  132.5 197.5 0  137.5 197.5 0  142.5 197.5 0  147.5 197.5 0  152.5 197.5 0  157.5 197.5 0  162.5 197.5 0  167.5 197.5 0  2.5 202.5 0  7.5 202.5 0  12.5 202.5 0  17.5 202.5 0  22.5 202.5 0  27.5 202.5 0  32.5 202.5 0  37.5 202.5 0  42.5 202.5 0  47.5 202.5 0  52.5 202.5 0  57.5 202.5 0  62.5 202.5 0  67.5 202.5 0  72.5 202.5 0  77.5 202.5 0  82.5 202.5 0  87.5 202.5 0  92.5 202.5 0  97.5 202.5 0  102.5 202.5 0  107.5 202.5 0  112.5 202.5 0  117.5 202.5 0  122.5 202.5 0  127.5 202.5 0  132.5 202.5 0  137.5 202.5 0  142.5 202.5 0  147.5 202.5 0  152.5 202.5 0  157.5 202.5 0  162.5 202.5 0  167.5 202.5 0  2.5 207.5 0  7.5 207.5 0  12.5 207.5 0  17.5 207.5 0  22.5 207.5 0  27.5 207.5 0  32.5 207.5 0  37.5 207.5 0  42.5 207.5 0  47.5 207.5 0  52.5 207.5 0  57.5 207.5 0  62.5 207.5 0  67.5 207.5 0  72.5 207.5 0  77.5 207.5 0  82.5 207.5 0  87.5 207.5 0  92.5 207.5 0  97.5 207.5 0  102.5 207.5 0  107.5 207.5 0  112.5 207.5 0  117.5 207.5 0  122.5 207.5 0  127.5 207.5 0  132.5 207.5 0  137.5 207.5 0  142.5 207.5 0  147.5 207.5 0  152.5 207.5 0  157.5 207.5 0  162.5 207.5 0  167.5 207.5 0  2.5 212.5 0  7.5 212.5 0  12.5 212.5 0  17.5 212.5 0  22.5 212.5 0  27.5 212.5 0  32.5 212.5 0  37.5 212.5 0  42.5 212.5 0  47.5 212.5 0  52.5 212.5 0  57.5 212.5 0  62.5 212.5 0  67.5 212.5 0  72.5 212.5 0  77.5 212.5 0  82.5 212.5 0  87.5 212.5 0  92.5 212.5 0  97.5 212.5 0  102.5 212.5 0  107.5 212.5 0  112.5 212.5 0  117.5 212.5 0  122.5 212.5 0  127.5 212.5 0  132.5 212.5 0  137.5 212.5 0  142.5 212.5 0  147.5 212.5 0  152.5 212.5 0  157.5 212.5 0  162.5 212.5 0  167.5 212.5 0  2.5 217.5 0  7.5 217.5 0  12.5 217.5 0  17.5 217.5 0  22.5 217.5 0  27.5 217.5 0  32.5 217.5 0  37.5 217.5 0  42.5 217.5 0  47.5 217.5 0  52.5 217.5 0  57.5 217.5 0  62.5 217.5 0  67.5 217.5 0  72.5 217.5 0  77.5 217.5 0  82.5 217.5 0  87.5 217.5 0  92.5 217.5 0  97.5 217.5 0  102.5 217.5 0  107.5 217.5 0  112.5 217.5 0  117.5 217.5 0  122.5 217.5 0  127.5 217.5 0  132.5 217.5 0  137.5 217.5 0  142.5 217.5 0  147.5 217.5 0  152.5 217.5 0  157.5 217.5 0  162.5 217.5 0  167.5 217.5 0  </DataArray>
</Points>
<Cells>
<DataArray  type="UInt32"  Name="connectivity"  format="ascii">0 1 1575  0 35 1575  1 36 1575  35 36 1575  1 2 1576  1 36 1576  2 37 1576  36 37 1576  2 3 1577  2 37 1577  3 38 1577  37 38 1577  3 4 1578  3 38 1578  4 39 1578  38 39 1578  4 5 1579  4 39 1579  5 40 1579  39 40 1579  5 6 1580  5 40 1580  6 41 1580  40 41 1580  6 7 1581  6 41 1581  7 42 1581  41 42 1581  7 8 1582  7 42 1582  8 43 1582  42 43 1582  8 9 1583  8 43 1583  9 44 1583  43 44 1583  9 10 1584  9 44 1584  10 45 1584  44 45 1584  10 11 1585  10 45 1585  11 46 1585  45 46 1585  11 12 1586  11 46 1586  12 47 1586  46 47 1586  12 13 1587  12 47 1587  13 48 1587  47 48 1587  13 14 1588  13 48 1588  14 49 1588  48 49 1588  14 15 1589  14 49 1589  15 50 1589  49 50 1589  15 16 1590  15 50 1590  16 51 1590  50 51 1590  16 17 1591  16 51 1591  17 52 1591  51 52 1591  17 18 1592  17 52 1592  18 53 1592  52 53 1592  18 19 1593  18 53 1593  19 54 1593  53 54 1593  19 20 1594  19 54 1594  20 55 1594  54 55 1594  20 21 1595  20 55 1595  21 56 1595  55 56 1595  21 22 1596  21 56 1596  22 57 1596  56 57 1596  22 23 1597  22 57 1597  23 58 1597  57 58 1597  23 24 1598  23 58 1598  24 59 1598  58 59 1598  24 25 1599  24 59 1599  25 60 1599  59 60 1599  25 26 1600  25 60 1600  26 61 1600  60 61 1600  26 27 1601  26 61 1601  27 62 1601  61 62 1601  27 28 1602  27 62 1602  28 63 1602  62 63 1602  28 29 1603  28 63 1603  29 64 1603  63 64 1603  29 30 1604  29 64 1604  30 65 1604  64 65 1604  30 31 1605  30 65 1605  31 66 1605  65 66 1605  31 32 1606  31 66 1606  32 67 1606  66 67 1606  32 33 1607  32 67 1607  33 68 1607  67 68 1607  33 34 1608  33 68 1608  34 69 1608  68 69 1608  35 36 1609  35 70 1609  36 71 1609  70 71 1609  36 37 1610  36 71 1610  37 72 1610  71 72 1610  37 38 1611  37 72 1611  38 73 1611  72 73 1611  38 39 1612  38 73 1612  39 74 1612  73 74 1612  39 40 1613  39 74 1613  40 75 1613  74 75 1613  40 41 1614  40 75 1614  41 76 1614  75 76 1614  41 42 1615  41 76 1615  42 77 1615  76 77 1615  42 43 1616  42 77 1616  43 78 1616  77 78 1616  43 44 1617  43 78 1617  44 79 1617  78 79 1617  44 45 1618  44 79 1618  45 80 1618  79 80 1618  45 46 1619  45 80 1619  46 81 1619  80 81 1619  46 47 1620  46 81 1620  47 82 1620  81 82 1620  47 48 1621  47 82 1621  48 83 1621  82 83 1621  48 49 1622  48 83 1622  49 84 1622  83 84 1622  49 50 1623  49 84 1623  50 85 1623  84 85 1623  50 51 1624  50 85 1624  51 86 1624  85 86 1624  51 52 1625  51 86 1625  52 87 1625  86 87 1625  52 53 1626  52 87 1626  53 88 1626  87 88 1626  53 54 1627  53 88 1627  54 89 1627  88 89 1627  54 55 1628  54 89 1628  55 90 1628  89 90 1628  55 56 1629  55 90 1629  56 91 1629  90 91 1629  56 57 1630  56 91 1630  57 92 1630  91 92 1630  57 58 1631  57 92 1631  58 93 1631  92 93 1631  58 59 1632  58 93 1632  59 94 1632  93 94 1632  59 60 1633  59 94 1633  60 95 1633  94 95 1633  60 61 1634  60 95 1634  61 96 1634  95 96 1634  61 62 1635  61 96 1635  62 97 1635  96 97 1635  62 63 1636  62 97 1636  63 98 1636  97 98 1636  63 64 1637  63 98 1637  64 99 1637  98 99 1637  64 65 1638  64 99 1638  65 100 1638  99 100 1638  65 66 1639  65 100 1639  66 101 1639  100 101 1639  66 67 1640  66 101 1640  67 102 1640  101 102 1640  67 68 1641  67 102 1641  68 103 1641  102 103 1641  68 69 1642  68 103 1642  69 104 1642  103 104 1642  70 71 1643  70 105 1643  71 106 1643  105 106 1643  71 72 1644  71 106 1644  72 107 1644  106 107 1644  72 73 1645  72 107 1645  73 108 1645  107 108 1645  73 74 1646  73 108 1646  74 109 1646  108 109 1646  74 75 1647  74 109 1647  75 110 1647  109 110 1647  75 76 1648  75 110 1648  76 111 1648  110 111 1648  76 77 1649  76 111 1649  77 112 1649  111 112 1649  77 78 1650  77 112 1650  78 113 1650  112 113 1650  78 79 1651  78 113 1651  79 114 1651  113 114 1651  79 80 1652  79 114 1652  80 115 1652  114 115 1652  80 81 1653  80 115 1653  81 116 1653  115 116 1653  81 82 1654  81 116 1654  82 117 1654  116 117 1654  82 83 1655  82 117 1655  83 118 1655  117 118 1655  83 84 1656  83 118 1656  84 119 1656  118 119 1656  84 85 1657  84 119 1657  85 120 1657  119 120 1657  85 86 1658  85 120 1658  86 121 1658  120 121 1658  86 87 1659  86 121 1659  87 122 1659  121 122 1659  87 88 1660  87 122 1660  88 123 1660  122 123 1660  88 89 1661  88 123 1661  89 124 1661  123 124 1661  89 90 1662  89 124 1662  90 125 1662  124 125 1662  90 91 1663  90 125 1663  91 126 1663  125 126 1663  91 92 1664  91 126 1664  92 127 1664  126 127 1664  92 93 1665  92 127 1665  93 128 1665  127 128 1665  93 94 1666  93 128 1666  94 129 1666  128 129 1666  94 95 1667  94 129 1667  95 130 1667  129 130 1667  95 96 1668  95 130 1668  96 131 1668  130 131 1668  96 97 1669  96 131 1669  97 132 1669  131 132 1669  97 98 1670  97 132 1670  98 133 1670  132 133 1670  98 99 1671  98 133 1671  99 134 1671  133 134 1671  99 100 1672  99 134 1672  100 135 1672  134 135 1672  100 101 1673  100 135 1673  101 136 1673  135 136 1673  101 102 1674  101 136 1674  102 137 1674  136 137 1674  102 103 1675  102 137 1675  103 138 1675  137 138 1675  103 104 1676  103 138 1676  104 139 1676  138 139 1676  105 106 1677  105 140 1677  106 141 1677  140 141 1677  106 107 1678  106 141 1678  107 142 1678  141 142 1678  107 108 1679  107 142 1679  108 143 1679  142 143 1679  108 109 1680  108 143 1680  109 144 1680  143 144 1680  109 110 1681  109 144 1681  110 145 1681  144 145 1681  110 111 1682  110 145 1682  111 146 1682  145 146 1682  111 112 1683  111 146 1683  112 147 1683  146 147 1683  112 113 1684  112 147 1684  113 148 1684  147 148 1684  113 114 1685  113 148 1685  114 149 1685  148 149 1685  114 115 1686  114 149 1686  115 150 1686  149 150 1686  115 116 1687  115 150 1687  116 151 1687  150 151 1687  116 117 1688  116 151 1688  117 152 1688  151 152 1688  117 118 1689  117 152 1689  118 153 1689  152 153 1689  118 119 1690  118 153 1690  119 154 1690  153 154 1690  119 120 1691  119 154 1691  120 155 1691  154 155 1691  120 121 1692  120 155 1692  121 156 1692  155 156 1692  121 122 1693  121 156 1693  122 157 1693  156 157 1693  122 123 1694  122 157 1694  123 158 1694  157 158 1694  123 124 1695  123 158 1695  124 159 1695  158 159 1695  124 125 1696  124 159 1696  125 160 1696  159 160 1696  125 126 1697  125 160 1697  126 161 1697  160 161 1697  126 127 1698  126 161 1698  127 162 1698  161 162 1698  127 128 1699  127 162 1699  128 163 1699  162 163 1699  128 129 1700  128 163 1700  129 164 1700  163 164 1700  129 130 1701  129 164 1701  130 165 1701  164 165 1701  130 131 1702  130 165 1702  131 166 1702  165 166 1702  131 132 1703  131 166 1703  132 167 1703  166 167 1703  132 133 1704  132 167 1704  133 168 1704  167 168 1704  133 134 1705  133 168 1705  134 169 1705  168 169 1705  134 135 1706  134 169 1706  135 170 1706  169 170 1706  135 136 1707  135 170 1707  136 171 1707  170 171 1707  136 137 1708  136 171 1708  137 172 1708  171 172 1708  137 138 1709  137 172 1709  138 173 1709  172 173 1709  138 139 1710  138 173 1710  139 174 1710  173 174 1710  140 141 1711  140 175 1711  141 176 1711  175 176 1711  141 142 1712  141 176 1712  142 177 1712  176 177 1712  142 143 1713  142 177 1713  143 178 1713  177 178 1713  143 144 1714  143 178 1714  144 179 1714  178 179 1714  144 145 1715  144 179 1715  145 180 1715  179 180 1715  145 146 1716  145 180 1716  146 181 1716  180 181 1716  146 147 1717  146 181 1717  147 182 1717  181 182 1717  147 148 1718  147 182 1718  148 183 1718  182 183 1718  148 149 1719  148 183 1719  149 184 1719  183 184 1719  149 150 1720  149 184 1720  150 185 1720  184 185 1720  150 151 1721  150 185 1721  151 186 1721  185 186 1721  151 152 1722  151 186 1722  152 187 1722  186 187 1722  152 153 1723  152 187 1723  153 188 1723  187 188 1723  153 154 1724  153 188 1724  154 189 1724  188 189 1724  154 155 1725  154 189 1725  155 190 1725  189 190 1725  155 156 1726  155 190 1726  156 191 1726  190 191 1726  156 157 1727  156 191 1727  157 192 1727  191 192 1727  157 158 1728  157 192 1728  158 193 1728  192 193 1728  158 159 1729  158 193 1729  159 194 1729  193 194 1729  159 160 1730  159 194 1730  160 195 1730  194 195 1730  160 161 1731  160 195 1731  161 196 1731  195 196 1731  161 162 1732  161 196 1732  162 197 1732  196 197 1732  162 163 1733  162 197 1733  163 198 1733  197 198 1733  163 164 1734  163 198 1734  164 199 1734  198 199 1734  164 165 1735  164 199 1735  165 200 1735  199 200 1735  165 166 1736  165 200 1736  166 201 1736  200 201 1736  166 167 1737  166 201 1737  167 202 1737  201 202 1737  167 168 1738  167 202 1738  168 203 1738  202 203 1738  168 169 1739  168 203 1739  169 204 1739  203 204 1739  169 170 1740  169 204 1740  170 205 1740  204 205 1740  170 171 1741  170 205 1741  171 206 1741  205 206 1741  171 172 1742  171 206 1742  172 207 1742  206 207 1742  172 173 1743  172 207 1743  173 208 1743  207 208 1743  173 174 1744  173 208 1744  174 209 1744  208 209 1744  175 176 1745  175 210 1745  176 211 1745  210 211 1745  176 177 1746  176 211 1746  177 212 1746  211 212 1746  177 178 1747  177 212 1747  178 213 1747  212 213 1747  178 179 1748  178 213 1748  179 214 1748  213 214 1748  179 180 1749  179 214 1749  180 215 1749  214 215 1749  180 181 1750  180 215 1750  181 216 1750  215 216 1750  181 182 1751  181 216 1751  182 217 1751  216 217 1751  182 183 1752  182 217 1752  183 218 1752  217 218 1752  183 184 1753  183 218 1753  184 219 1753  218 219 1753  184 185 1754  184 219 1754  185 220 1754  219 220 1754  185 186 1755  185 220 1755  186 221 1755  220 221 1755  186 187 1756  186 221 1756  187 222 1756  221 222 1756  187 188 1757  187 222 1757  188 223 1757  222 223 1757  188 189 1758  188 223 1758  189 224 1758  223 224 1758  189 190 1759  189 224 1759  190 225 1759  224 225 1759  190 191 1760  190 225 1760  191 226 1760  225 226 1760  191 192 1761  191 226 1761  192 227 1761  226 227 1761  192 193 1762  192 227 1762  193 228 1762  227 228 1762  193 194 1763  193 228 1763  194 229 1763  228 229 1763  194 195 1764  194 229 1764  195 230 1764  229 230 1764  195 196 1765  195 230 1765  196 231 1765  230 231 1765  196 197 1766  196 231 1766  197 232 1766  231 232 1766  197 198 1767  197 232 1767  198 233 1767  232 233 1767  198 199 1768  198 233 1768  199 234 1768  233 234 1768  199 200 1769  199 234 1769  200 235 1769  234 235 1769  200 201 1770  200 235 1770  201 236 1770  235 236 1770  201 202 1771  201 236 1771  202 237 1771  236 237 1771  202 203 1772  202 237 1772  203 238 1772  237 238 1772  203 204 1773  203 238 1773  204 239 1773  238 239 1773  204 205 1774  204 239 1774  205 240 1774  239 240 1774  205 206 1775  205 240 1775  206 241 1775  240 241 1775  206 207 1776  206 241 1776  207 242 1776  241 242 1776  207 208 1777  207 242 1777  208 243 1777  242 243 1777  208 209 1778  208 243 1778  209 244 1778  243 244 1778  210 211 1779  210 245 1779  211 246 1779  245 246 1779  211 212 1780  211 246 1780  212 247 1780  246 247 1780  212 213 1781  212 247 1781  213 248 1781  247 248 1781  213 214 1782  213 248 1782  214 249 1782  248 249 1782  214 215 1783  214 249 1783  215 250 1783  249 250 1783  215 216 1784  215 250 1784  216 251 1784  250 251 1784  216 217 1785  216 251 1785  217 252 1785  251 252 1785  217 218 1786  217 252 1786  218 253 1786  252 253 1786  218 219 1787  218 253 1787  219 254 1787  253 254 1787  219 220 1788  219 254 1788  220 255 1788  254 255 1788  220 221 1789  220 255 1789  221 256 1789  255 256 1789  221 222 1790  221 256 1790  222 257 1790  256 257 1790  222 223 1791  222 257 1791  223 258 1791  257 258 1791  223 224 1792  223 258 1792  224 259 1792  258 259 1792  224 225 1793  224 259 1793  225 260 1793  259 260 1793  225 226 1794  225 260 1794  226 261 1794  260 261 1794  226 227 1795  226 261 1795  227 262 1795  261 262 1795  227 228 1796  227 262 1796  228 263 1796  262 263 1796  228 229 1797  228 263 1797  229 264 1797  263 264 1797  229 230 1798  229 264 1798  230 265 1798  264 265 1798  230 231 1799  230 265 1799  231 266 1799  265 266 1799  231 232 1800  231 266 1800  232 267 1800  266 267 1800  232 233 1801  232 267 1801  233 268 1801  267 268 1801  233 234 1802  233 268 1802  234 269 1802  268 269 1802  234 235 1803  234 269 1803  235 270 1803  269 270 1803  235 236 1804  235 270 1804  236 271 1804  270 271 1804  236 237 1805  236 271 1805  237 272 1805  271 272 1805  237 238 1806  237 272 1806  238 273 1806  272 273 1806  238 239 1807  238 273 1807  239 274 1807  273 274 1807  239 240 1808  239 274 1808  240 275 1808  274 275 1808  240 241 1809  240 275 1809  241 276 1809  275 276 1809  241 242 1810  241 276 1810  242 277 1810  276 277 1810  242 243 1811  242 277 1811  243 278 1811  277 278 1811  243 244 1812  243 278 1812  244 279 1812  278 279 1812  245 246 1813  245 280 1813  246 281 1813  280 281 1813  246 247 1814  246 281 1814  247 282 1814  281 282 1814  247 248 1815  247 282 1815  248 283 1815  282 283 1815  248 249 1816  248 283 1816  249 284 1816  283 284 1816  249 250 1817  249 284 1817  250 285 1817  284 285 1817  250 251 1818  250 285 1818  251 286 1818  285 286 1818  251 252 1819  251 286 1819  252 287 1819  286 287 1819  252 253 1820  252 287 1820  253 288 1820  287 288 1820  253 254 1821  253 288 1821  254 289 1821  288 289 1821  254 255 1822  254 289 1822  255 290 1822  289 290 1822  255 256 1823  255 290 1823  256 291 1823  290 291 1823  256 257 1824  256 291 1824  257 292 1824  291 292 1824  257 258 1825  257 292 1825  258 293 1825  292 293 1825  258 259 1826  258 293 1826  259 294 1826  293 294 1826  259 260 1827  259 294 1827  260 295 1827  294 295 1827  260 261 1828  260 295 1828  261 296 1828  295 296 1828  261 262 1829  261 296 1829  262 297 1829  296 297 1829  262 263 1830  262 297 1830  263 298 1830  297 298 1830  263 264 1831  263 298 1831  264 299 1831  298 299 1831  264 265 1832  264 299 1832  265 300 1832  299 300 1832  265 266 1833  265 300 1833  266 301 1833  300 301 1833  266 267 1834  266 301 1834  267 302 1834  301 302 1834  267 268 1835  267 302 1835  268 303 1835  302 303 1835  268 269 1836  268 303 1836  269 304 1836  303 304 1836  269 270 1837  269 304 1837  270 305 1837  304 305 1837  270 271 1838  270 305 1838  271 306 1838  305 306 1838  271 272 1839  271 306 1839  272 307 1839  306 307 1839  272 273 1840  272 307 1840  273 308 1840  307 308 1840  273 274 1841  273 308 1841  274 309 1841  308 309 1841  274 275 1842  274 309 1842  275 310 1842  309 310 1842  275 276 1843  275 310 1843  276 311 1843  310 311 1843  276 277 1844  276 311 1844  277 312 1844  311 312 1844  277 278 1845  277 312 1845  278 313 1845  312 313 1845  278 279 1846  278 313 1846  279 314 1846  313 314 1846  280 281 1847  280 315 1847  281 316 1847  315 316 1847  281 282 1848  281 316 1848  282 317 1848  316 317 1848  282 283 1849  282 317 1849  283 318 1849  317 318 1849  283 284 1850  283 318 1850  284 319 1850  318 319 1850  284 285 1851  284 319 1851  285 320 1851  319 320 1851  285 286 1852  285 320 1852  286 321 1852  320 321 1852  286 287 1853  286 321 1853  287 322 1853  321 322 1853  287 288 1854  287 322 1854  288 323 1854  322 323 1854  288 289 1855  288 323 1855  289 324 1855  323 324 1855  289 290 1856  289 324 1856  290 325 1856  324 325 1856  290 291 1857  290 325 1857  291 326 1857  325 326 1857  291 292 1858  291 326 1858  292 327 1858  326 327 1858  292 293 1859  292 327 1859  293 328 1859  327 328 1859  293 294 1860  293 328 1860  294 329 1860  328 329 1860  294 295 1861  294 329 1861  295 330 1861  329 330 1861  295 296 1862  295 330 1862  296 331 1862  330 331 1862  296 297 1863  296 331 1863  297 332 1863  331 332 1863  297 298 1864  297 332 1864  298 333 1864  332 333 1864  298 299 1865  298 333 1865  299 334 1865  333 334 1865  299 300 1866  299 334 1866  300 335 1866  334 335 1866  300 301 1867  300 335 1867  301 336 1867  335 336 1867  301 302 1868  301 336 1868  302 337 1868  336 337 1868  302 303 1869  302 337 1869  303 338 1869  337 338 1869  303 304 1870  303 338 1870  304 339 1870  338 339 1870  304 305 1871  304 339 1871  305 340 1871  339 340 1871  305 306 1872  305 340 1872  306 341 1872  340 341 1872  306 307 1873  306 341 1873  307 342 1873  341 342 1873  307 308 1874  307 342 1874  308 343 1874  342 343 1874  308 309 1875  308 343 1875  309 344 1875  343 344 1875  309 310 1876  309 344 1876  310 345 1876  344 345 1876  310 311 1877  310 345 1877  311 346 1877  345 346 1877  311 312 1878  311 346 1878  312 347 1878  346 347 1878  312 313 1879  312 347 1879  313 348 1879  347 348 1879  313 314 1880  313 348 1880  314 349 1880  348 349 1880  315 316 1881  315 350 1881  316 351 1881  350 351 1881  316 317 1882  316 351 1882  317 352 1882  351 352 1882  317 318 1883  317 352 1883  318 353 1883  352 353 1883  318 319 1884  318 353 1884  319 354 1884  353 354 1884  319 320 1885  319 354 1885  320 355 1885  354 355 1885  320 321 1886  320 355 1886  321 356 1886  355 356 1886  321 322 1887  321 356 1887  322 357 1887  356 357 1887  322 323 1888  322 357 1888  323 358 1888  357 358 1888  323 324 1889  323 358 1889  324 359 1889  358 359 1889  324 325 1890  324 359 1890  325 360 1890  359 360 1890  325 326 1891  325 360 1891  326 361 1891  360 361 1891  326 327 1892  326 361 1892  327 362 1892  361 362 1892  327 328 1893  327 362 1893  328 363 1893  362 363 1893  328 329 1894  328 363 1894  329 364 1894  363 364 1894  329 330 1895  329 364 1895  330 365 1895  364 365 1895  330 331 1896  330 365 1896  331 366 1896  365 366 1896  331 332 1897  331 366 1897  332 367 1897  366 367 1897  332 333 1898  332 367 1898  333 368 1898  367 368 1898  333 334 1899  333 368 1899  334 369 1899  368 369 1899  334 335 1900  334 369 1900  335 370 1900  369 370 1900  335 336 1901  335 370 1901  336 371 1901  370 371 1901  336 337 1902  336 371 1902  337 372 1902  371 372 1902  337 338 1903  337 372 1903  338 373 1903  372 373 1903  338 339 1904  338 373 1904  339 374 1904  373 374 1904  339 340 1905  339 374 1905  340 375 1905  374 375 1905  340 341 1906  340 375 1906  341 376 1906  375 376 1906  341 342 1907  341 376 1907  342 377 1907  376 377 1907  342 343 1908  342 377 1908  343 378 1908  377 378 1908  343 344 1909  343 378 1909  344 379 1909  378 379 1909  344 345 1910  344 379 1910  345 380 1910  379 380 1910  345 346 1911  345 380 1911  346 381 1911  380 381 1911  346 347 1912  346 381 1912  347 382 1912  381 382 1912  347 348 1913  347 382 1913  348 383 1913  382 383 1913  348 349 1914  348 383 1914  349 384 1914  383 384 1914  350 351 1915  350 385 1915  351 386 1915  385 386 1915  351 352 1916  351 386 1916  352 387 1916  386 387 1916  352 353 1917  352 387 1917  353 388 1917  387 388 1917  353 354 1918  353 388 1918  354 389 1918  388 389 1918  354 355 1919  354 389 1919  355 390 1919  389 390 1919  355 356 1920  355 390 1920  356 391 1920  390 391 1920  356 357 1921  356 391 1921  357 392 1921  391 392 1921  357 358 1922  357 392 1922  358 393 1922  392 393 1922  358 359 1923  358 393 1923  359 394 1923  393 394 1923  359 360 1924  359 394 1924  360 395 1924  394 395 1924  360 361 1925  360 395 1925  361 396 1925  395 396 1925  361 362 1926  361 396 1926  362 397 1926  396 397 1926  362 363 1927  362 397 1927  363 398 1927  397 398 1927  363 364 1928  363 398 1928  364 399 1928  398 399 1928  364 365 1929  364 399 1929  365 400 1929  399 400 1929  365 366 1930  365 400 1930  366 401 1930  400 401 1930  366 367 1931  366 401 1931  367 402 1931  401 402 1931  367 368 1932  367 402 1932  368 403 1932  402 403 1932  368 369 1933  368 403 1933  369 404 1933  403 404 1933  369 370 1934  369 404 1934  370 405 1934  404 405 1934  370 371 1935  370 405 1935  371 406 1935  405 406 1935  371 372 1936  371 406 1936  372 407 1936  406 407 1936  372 373 1937  372 407 1937  373 408 1937  407 408 1937  373 374 1938  373 408 1938  374 409 1938  408 409 1938  374 375 1939  374 409 1939  375 410 1939  409 410 1939  375 376 1940  375 410 1940  376 411 1940  410 411 1940  376 377 1941  376 411 1941  377 412 1941  411 412 1941  377 378 1942  377 412 1942  378 413 1942  412 413 1942  378 379 1943  378 413 1943  379 414 1943  413 414 1943  379 380 1944  379 414 1944  380 415 1944  414 415 1944  380 381 1945  380 415 1945  381 416 1945  415 416 1945  381 382 1946  381 416 1946  382 417 1946  416 417 1946  382 383 1947  382 417 1947  383 418 1947  417 418 1947  383 384 1948  383 418 1948  384 419 1948  418 419 1948  385 386 1949  385 420 1949  386 421 1949  420 421 1949  386 387 1950  386 421 1950  387 422 1950  421 422 1950  387 388 1951  387 422 1951  388 423 1951  422 423 1951  388 389 1952  388 423 1952  389 424 1952  423 424 1952  389 390 1953  389 424 1953  390 425 1953  424 425 1953  390 391 1954  390 425 1954  391 426 1954  425 426 1954  391 392 1955  391 426 1955  392 427 1955  426 427 1955  392 393 1956  392 427 1956  393 428 1956  427 428 1956  393 394 1957  393 428 1957  394 429 1957  428 429 1957  394 395 1958  394 429 1958  395 430 1958  429 430 1958  395 396 1959  395 430 1959  396 431 1959  430 431 1959  396 397 1960  396 431 1960  397 432 1960  431 432 1960  397 398 1961  397 432 1961  398 433 1961  432 433 1961  398 399 1962  398 433 1962  399 434 1962  433 434 1962  399 400 1963  399 434 1963  400 435 1963  434 435 1963  400 401 1964  400 435 1964  401 436 1964  435 436 1964  401 402 1965  401 436 1965  402 437 1965  436 437 1965  402 403 1966  402 437 1966  403 438 1966  437 438 1966  403 404 1967  403 438 1967  404 439 1967  438 439 1967  404 405 1968  404 439 1968  405 440 1968  439 440 1968  405 406 1969  405 440 1969  406 441 1969  440 441 1969  406 407 1970  406 441 1970  407 442 1970  441 442 1970  407 408 1971  407 442 1971  408 443 1971  442 443 1971  408 409 1972  408 443 1972  409 444 1972  443 444 1972  409 410 1973  409 444 1973  410 445 1973  444 445 1973  410 411 1974  410 445 1974  411 446 1974  445 446 1974  411 412 1975  411 446 1975  412 447 1975  446 447 1975  412 413 1976  412 447 1976  413 448 1976  447 448 1976  413 414 1977  413 448 1977  414 449 1977  448 449 1977  414 415 1978  414 449 1978  415 450 1978  449 450 1978  415 416 1979  415 450 1979  416 451 1979  450 451 1979  416 417 1980  416 451 1980  417 452 1980  451 452 1980  417 418 1981  417 452 1981  418 453 1981  452 453 1981  418 419 1982  418 453 1982  419 454 1982  453 454 1982  420 421 1983  420 455 1983  421 456 1983  455 456 1983  421 422 1984  421 456 1984  422 457 1984  456 457 1984  422 423 1985  422 457 1985  423 458 1985  457 458 1985  423 424 1986  423 458 1986  424 459 1986  458 459 1986  424 425 1987  424 459 1987  425 460 1987  459 460 1987  425 426 1988  425 460 1988  426 461 1988  460 461 1988  426 427 1989  426 461 1989  427 462 1989  461 462 1989  427 428 1990  427 462 1990  428 463 1990  462 463 1990  428 429 1991  428 463 1991  429 464 1991  463 464 1991  429 430 1992  429 464 1992  430 465 1992  464 465 1992  430 431 1993  430 465 1993  431 466 1993  465 466 1993  431 432 1994  431 466 1994  432 467 1994  466 467 1994  432 433 1995  432 467 1995  433 468 1995  467 468 1995  433 434 1996  433 468 1996  434 469 1996  468 469 1996  434 435 1997  434 469 1997  435 470 1997  469 470 1997  435 436 1998  435 470 1998  436 471 1998  470 471 1998  436 437 1999  436 471 1999  437 472 1999  471 472 1999  437 438 2000  437 472 2000  438 473 2000  472 473 2000  438 439 2001  438 473 2001  439 474 2001  473 474 2001  439 440 2002  439 474 2002  440 475 2002  474 475 2002  440 441 2003  440 475 2003  441 476 2003  475 476 2003  441 442 2004  441 476 2004  442 477 2004  476 477 2004  442 443 2005  442 477 2005  443 478 2005  477 478 2005  443 444 2006  443 478 2006  444 479 2006  478 479 2006  444 445 2007  444 479 2007  445 480 2007  479 480 2007  445 446 2008  445 480 2008  446 481 2008  480 481 2008  446 447 2009  446 481 2009  447 482 2009  481 482 2009  447 448 2010  447 482 2010  448 483 2010  482 483 2010  448 449 2011  448 483 2011  449 484 2011  483 484 2011  449 450 2012  449 484 2012  450 485 2012  484 485 2012  450 451 2013  450 485 2013  451 486 2013  485 486 2013  451 452 2014  451 486 2014  452 487 2014  486 487 2014  452 453 2015  452 487 2015  453 488 2015  487 488 2015  453 454 2016  453 488 2016  454 489 2016  488 489 2016  455 456 2017  455 490 2017  456 491 2017  490 491 2017  456 457 2018  456 491 2018  457 492 2018  491 492 2018  457 458 2019  457 492 2019  458 493 2019  492 493 2019  458 459 2020  458 493 2020  459 494 2020  493 494 2020  459 460 2021  459 494 2021  460 495 2021  494 495 2021  460 461 2022  460 495 2022  461 496 2022  495 496 2022  461 462 2023  461 496 2023  462 497 2023  496 497 2023  462 463 2024  462 497 2024  463 498 2024  497 498 2024  463 464 2025  463 498 2025  464 499 2025  498 499 2025  464 465 2026  464 499 2026  465 500 2026  499 500 2026  465 466 2027  465 500 2027  466 501 2027  500 501 2027  466 467 2028  466 501 2028  467 502 2028  501 502 2028  467 468 2029  467 502 2029  468 503 2029  502 503 2029  468 469 2030  468 503 2030  469 504 2030  503 504 2030  469 470 2031  469 504 2031  470 505 2031  504 505 2031  470 471 2032  470 505 2032  471 506 2032  505 506 2032  471 472 2033  471 506 2033  472 507 2033  506 507 2033  472 473 2034  472 507 2034  473 508 2034  507 508 2034  473 474 2035  473 508 2035  474 509 2035  508 509 2035  474 475 2036  474 509 2036  475 510 2036  509 510 2036  475 476 2037  475 510 2037  476 511 2037  510 511 2037  476 477 2038  476 511 2038  477 512 2038  511 512 2038  477 478 2039  477 512 2039  478 513 2039  512 513 2039  478 479 2040  478 513 2040  479 514 2040  513 514 2040  479 480 2041  479 514 2041  480 515 2041  514 515 2041  480 481 2042  480 515 2042  481 516 2042  515 516 2042  481 482 2043  481 516 2043  482 517 2043  516 517 2043  482 483 2044  482 517 2044  483 518 2044  517 518 2044  483 484 2045  483 518 2045  484 519 2045  518 519 2045  484 485 2046  484 519 2046  485 520 2046  519 520 2046  485 486 2047  485 520 2047  486 521 2047  520 521 2047  486 487 2048  486 521 2048  487 522 2048  521 522 2048  487 488 2049  487 522 2049  488 523 2049  522 523 2049  488 489 2050  488 523 2050  489 524 2050  523 524 2050  490 491 2051  490 525 2051  491 526 2051  525 526 2051  491 492 2052  491 526 2052  492 527 2052  526 527 2052  492 493 2053  492 527 2053  493 528 2053  527 528 2053  493 494 2054  493 528 2054  494 529 2054  528 529 2054  494 495 2055  494 529 2055  495 530 2055  529 530 2055  495 496 2056  495 530 2056  496 531 2056  530 531 2056  496 497 2057  496 531 2057  497 532 2057  531 532 2057  497 498 2058  497 532 2058  498 533 2058  532 533 2058  498 499 2059  498 533 2059  499 534 2059  533 534 2059  499 500 2060  499 534 2060  500 535 2060  534 535 2060  500 501 2061  500 535 2061  501 536 2061  535 536 2061  501 502 2062  501 536 2062  502 537 2062  536 537 2062  502 503 2063  502 537 2063  503 538 2063  537 538 2063  503 504 2064  503 538 2064  504 539 2064  538 539 2064  504 505 2065  504 539 2065  505 540 2065  539 540 2065  505 506 2066  505 540 2066  506 541 2066  540 541 2066  506 507 2067  506 541 2067  507 542 2067  541 542 2067  507 508 2068  507 542 2068  508 543 2068  542 543 2068  508 509 2069  508 543 2069  509 544 2069  543 544 2069  509 510 2070  509 544 2070  510 545 2070  544 545 2070  510 511 2071  510 545 2071  511 546 2071  545 546 2071  511 512 2072  511 546 2072  512 547 2072  546 547 2072  512 513 2073  512 547 2073  513 548 2073  547 548 2073  513 514 2074  513 548 2074  514 549 2074  548 549 2074  514 515 2075  514 549 2075  515 550 2075  549 550 2075  515 516 2076  515 550 2076  516 551 2076  550 551 2076  516 517 2077  516 551 2077  517 552 2077  551 552 2077  517 518 2078  517 552 2078  518 553 2078  552 553 2078  518 519 2079  518 553 2079  519 554 2079  553 554 2079  519 520 2080  519 554 2080  520 555 2080  554 555 2080  520 521 2081  520 555 2081  521 556 2081  555 556 2081  521 522 2082  521 556 2082  522 557 2082  556 557 2082  522 523 2083  522 557 2083  523 558 2083  557 558 2083  523 524 2084  523 558 2084  524 559 2084  558 559 2084  525 526 2085  525 560 2085  526 561 2085  560 561 2085  526 527 2086  526 561 2086  527 562 2086  561 562 2086  527 528 2087  527 562 2087  528 563 2087  562 563 2087  528 529 2088  528 563 2088  529 564 2088  563 564 2088  529 530 2089  529 564 2089  530 565 2089  564 565 2089  530 531 2090  530 565 2090  531 566 2090  565 566 2090  531 532 2091  531 566 2091  532 567 2091  566 567 2091  532 533 2092  532 567 2092  533 568 2092  567 568 2092  533 534 2093  533 568 2093  534 569 2093  568 569 2093  534 535 2094  534 569 2094  535 570 2094  569 570 2094  535 536 2095  535 570 2095  536 571 2095  570 571 2095  536 537 2096  536 571 2096  537 572 2096  571 572 2096  537 538 2097  537 572 2097  538 573 2097  572 573 2097  538 539 2098  538 573 2098  539 574 2098  573 574 2098  539 540 2099  539 574 2099  540 575 2099  574 575 2099  540 541 2100  540 575 2100  541 576 2100  575 576 2100  541 542 2101  541 576 2101  542 577 2101  576 577 2101  542 543 2102  542 577 2102  543 578 2102  577 578 2102  543 544 2103  543 578 2103  544 579 2103  578 579 2103  544 545 2104  544 579 2104  545 580 2104  579 580 2104  545 546 2105  545 580 2105  546 581 2105  580 581 2105  546 547 2106  546 581 2106  547 582 2106  581 582 2106  547 548 2107  547 582 2107  548 583 2107  582 583 2107  548 549 2108  548 583 2108  549 584 2108  583 584 2108  549 550 2109  549 584 2109  550 585 2109  584 585 2109  550 551 2110  550 585 2110  551 586 2110  585 586 2110  551 552 2111  551 586 2111  552 587 2111  586 587 2111  552 553 2112  552 587 2112  553 588 2112  587 588 2112  553 554 2113  553 588 2113  554 589 2113  588 589 2113  554 555 2114  554 589 2114  555 590 2114  589 590 2114  555 556 2115  555 590 2115  556 591 2115  590 591 2115  556 557 2116  556 591 2116  557 592 2116  591 592 2116  557 558 2117  557 592 2117  558 593 2117  592 593 2117  558 559 2118  558 593 2118  559 594 2118  593 594 2118  560 561 2119  560 595 2119  561 596 2119  595 596 2119  561 562 2120  561 596 2120  562 597 2120  596 597 2120  562 563 2121  562 597 2121  563 598 2121  597 598 2121  563 564 2122  563 598 2122  564 599 2122  598 599 2122  564 565 2123  564 599 2123  565 600 2123  599 600 2123  565 566 2124  565 600 2124  566 601 2124  600 601 2124  566 567 2125  566 601 2125  567 602 2125  601 602 2125  567 568 2126  567 602 2126  568 603 2126  602 603 2126  568 569 2127  568 603 2127  569 604 2127  603 604 2127  569 570 2128  569 604 2128  570 605 2128  604 605 2128  570 571 2129  570 605 2129  571 606 2129  605 606 2129  571 572 2130  571 606 2130  572 607 2130  606 607 2130  572 573 2131  572 607 2131  573 608 2131  607 608 2131  573 574 2132  573 608 2132  574 609 2132  608 609 2132  574 575 2133  574 609 2133  575 610 2133  609 610 2133  575 576 2134  575 610 2134  576 611 2134  610 611 2134  576 577 2135  576 611 2135  577 612 2135  611 612 2135  577 578 2136  577 612 2136  578 613 2136  612 613 2136  578 579 2137  578 613 2137  579 614 2137  613 614 2137  579 580 2138  579 614 2138  580 615 2138  614 615 2138  580 581 2139  580 615 2139  581 616 2139  615 616 2139  581 582 2140  581 616 2140  582 617 2140  616 617 2140  582 583 2141  582 617 2141  583 618 2141  617 618 2141  583 584 2142  583 618 2142  584 619 2142  618 619 2142  584 585 2143  584 619 2143  585 620 2143  619 620 2143  585 586 2144  585 620 2144  586 621 2144  620 621 2144  586 587 2145  586 621 2145  587 622 2145  621 622 2145  587 588 2146  587 622 2146  588 623 2146  622 623 2146  588 589 2147  588 623 2147  589 624 2147  623 624 2147  589 590 2148  589 624 2148  590 625 2148  624 625 2148  590 591 2149  590 625 2149  591 626 2149  625 626 2149  591 592 2150  591 626 2150  592 627 2150  626 627 2150  592 593 2151  592 627 2151  593 628 2151  627 628 2151  593 594 2152  593 628 2152  594 629 2152  628 629 2152  595 596 2153  595 630 2153  596 631 2153  630 631 2153  596 597 2154  596 631 2154  597 632 2154  631 632 2154  597 598 2155  597 632 2155  598 633 2155  632 633 2155  598 599 2156  598 633 2156  599 634 2156  633 634 2156  599 600 2157  599 634 2157  600 635 2157  634 635 2157  600 601 2158  600 635 2158  601 636 2158  635 636 2158  601 602 2159  601 636 2159  602 637 2159  636 637 2159  602 603 2160  602 637 2160  603 638 2160  637 638 2160  603 604 2161  603 638 2161  604 639 2161  638 639 2161  604 605 2162  604 639 2162  605 640 2162  639 640 2162  605 606 2163  605 640 2163  606 641 2163  640 641 2163  606 607 2164  606 641 2164  607 642 2164  641 642 2164  607 608 2165  607 642 2165  608 643 2165  642 643 2165  608 609 2166  608 643 2166  609 644 2166  643 644 2166  609 610 2167  609 644 2167  610 645 2167  644 645 2167  610 611 2168  610 645 2168  611 646 2168  645 646 2168  611 612 2169  611 646 2169  612 647 2169  646 647 2169  612 613 2170  612 647 2170  613 648 2170  647 648 2170  613 614 2171  613 648 2171  614 649 2171  648 649 2171  614 615 2172  614 649 2172  615 650 2172  649 650 2172  615 616 2173  615 650 2173  616 651 2173  650 651 2173  616 617 2174  616 651 2174  617 652 2174  651 652 2174  617 618 2175  617 652 2175  618 653 2175  652 653 2175  618 619 2176  618 653 2176  619 654 2176  653 654 2176  619 620 2177  619 654 2177  620 655 2177  654 655 2177  620 621 2178  620 655 2178  621 656 2178  655 656 2178  621 622 2179  621 656 2179  622 657 2179  656 657 2179  622 623 2180  622 657 2180  623 658 2180  657 658 2180  623 624 2181  623 658 2181  624 659 2181  658 659 2181  624 625 2182  624 659 2182  625 660 2182  659 660 2182  625 626 2183  625 660 2183  626 661 2183  660 661 2183  626 627 2184  626 661 2184  627 662 2184  661 662 2184  627 628 2185  627 662 2185  628 663 2185  662 663 2185  628 629 2186  628 663 2186  629 664 2186  663 664 2186  630 631 2187  630 665 2187  631 666 2187  665 666 2187  631 632 2188  631 666 2188  632 667 2188  666 667 2188  632 633 2189  632 667 2189  633 668 2189  667 668 2189  633 634 2190  633 668 2190  634 669 2190  668 669 2190  634 635 2191  634 669 2191  635 670 2191  669 670 2191  635 636 2192  635 670 2192  636 671 2192  670 671 2192  636 637 2193  636 671 2193  637 672 2193  671 672 2193  637 638 2194  637 672 2194  638 673 2194  672 673 2194  638 639 2195  638 673 2195  639 674 2195  673 674 2195  639 640 2196  639 674 2196  640 675 2196  674 675 2196  640 641 2197  640 675 2197  641 676 2197  675 676 2197  641 642 2198  641 676 2198  642 677 2198  676 677 2198  642 643 2199  642 677 2199  643 678 2199  677 678 2199  643 644 2200  643 678 2200  644 679 2200  678 679 2200  644 645 2201  644 679 2201  645 680 2201  679 680 2201  645 646 2202  645 680 2202  646 681 2202  680 681 2202  646 647 2203  646 681 2203  647 682 2203  681 682 2203  647 648 2204  647 682 2204  648 683 2204  682 683 2204  648 649 2205  648 683 2205  649 684 2205  683 684 2205  649 650 2206  649 684 2206  650 685 2206  684 685 2206  650 651 2207  650 685 2207  651 686 2207  685 686 2207  651 652 2208  651 686 2208  652 687 2208  686 687 2208  652 653 2209  652 687 2209  653 688 2209  687 688 2209  653 654 2210  653 688 2210  654 689 2210  688 689 2210  654 655 2211  654 689 2211  655 690 2211  689 690 2211  655 656 2212  655 690 2212  656 691 2212  690 691 2212  656 657 2213  656 691 2213  657 692 2213  691 692 2213  657 658 2214  657 692 2214  658 693 2214  692 693 2214  658 659 2215  658 693 2215  659 694 2215  693 694 2215  659 660 2216  659 694 2216  660 695 2216  694 695 2216  660 661 2217  660 695 2217  661 696 2217  695 696 2217  661 662 2218  661 696 2218  662 697 2218  696 697 2218  662 663 2219  662 697 2219  663 698 2219  697 698 2219  663 664 2220  663 698 2220  664 699 2220  698 699 2220  665 666 2221  665 700 2221  666 701 2221  700 701 2221  666 667 2222  666 701 2222  667 702 2222  701 702 2222  667 668 2223  667 702 2223  668 703 2223  702 703 2223  668 669 2224  668 703 2224  669 704 2224  703 704 2224  669 670 2225  669 704 2225  670 705 2225  704 705 2225  670 671 2226  670 705 2226  671 706 2226  705 706 2226  671 672 2227  671 706 2227  672 707 2227  706 707 2227  672 673 2228  672 707 2228  673 708 2228  707 708 2228  673 674 2229  673 708 2229  674 709 2229  708 709 2229  674 675 2230  674 709 2230  675 710 2230  709 710 2230  675 676 2231  675 710 2231  676 711 2231  710 711 2231  676 677 2232  676 711 2232  677 712 2232  711 712 2232  677 678 2233  677 712 2233  678 713 2233  712 713 2233  678 679 2234  678 713 2234  679 714 2234  713 714 2234  679 680 2235  679 714 2235  680 715 2235  714 715 2235  680 681 2236  680 715 2236  681 716 2236  715 716 2236  681 682 2237  681 716 2237  682 717 2237  716 717 2237  682 683 2238  682 717 2238  683 718 2238  717 718 2238  683 684 2239  683 718 2239  684 719 2239  718 719 2239  684 685 2240  684 719 2240  685 720 2240  719 720 2240  685 686 2241  685 720 2241  686 721 2241  720 721 2241  686 687 2242  686 721 2242  687 722 2242  721 722 2242  687 688 2243  687 722 2243  688 723 2243  722 723 2243  688 689 2244  688 723 2244  689 724 2244  723 724 2244  689 690 2245  689 724 2245  690 725 2245  724 725 2245  690 691 2246  690 725 2246  691 726 2246  725 726 2246  691 692 2247  691 726 2247  692 727 2247  726 727 2247  692 693 2248  692 727 2248  693 728 2248  727 728 2248  693 694 2249  693 728 2249  694 729 2249  728 729 2249  694 695 2250  694 729 2250  695 730 2250  729 730 2250  695 696 2251  695 730 2251  696 731 2251  730 731 2251  696 697 2252  696 731 2252  697 732 2252  731 732 2252  697 698 2253  697 732 2253  698 733 2253  732 733 2253  698 699 2254  698 733 2254  699 734 2254  733 734 2254  700 701 2255  700 735 2255  701 736 2255  735 736 2255  701 702 2256  701 736 2256  702 737 2256  736 737 2256  702 703 2257  702 737 2257  703 738 2257  737 738 2257  703 704 2258  703 738 2258  704 739 2258  738 739 2258  704 705 2259  704 739 2259  705 740 2259  739 740 2259  705 706 2260  705 740 2260  706 741 2260  740 741 2260  706 707 2261  706 741 2261  707 742 2261  741 742 2261  707 708 2262  707 742 2262  708 743 2262  742 743 2262  708 709 2263  708 743 2263  709 744 2263  743 744 2263  709 710 2264  709 744 2264  710 745 2264  744 745 2264  710 711 2265  710 745 2265  711 746 2265  745 746 2265  711 712 2266  711 746 2266  712 747 2266  746 747 2266  712 713 2267  712 747 2267  713 748 2267  747 748 2267  713 714 2268  713 748 2268  714 749 2268  748 749 2268  714 715 2269  714 749 2269  715 750 2269  749 750 2269  715 716 2270  715 750 2270  716 751 2270  750 751 2270  716 717 2271  716 751 2271  717 752 2271  751 752 2271  717 718 2272  717 752 2272  718 753 2272  752 753 2272  718 719 2273  718 753 2273  719 754 2273  753 754 2273  719 720 2274  719 754 2274  720 755 2274  754 755 2274  720 721 2275  720 755 2275  721 756 2275  755 756 2275  721 722 2276  721 756 2276  722 757 2276  756 757 2276  722 723 2277  722 757 2277  723 758 2277  757 758 2277  723 724 2278  723 758 2278  724 759 2278  758 759 2278  724 725 2279  724 759 2279  725 760 2279  759 760 2279  725 726 2280  725 760 2280  726 761 2280  760 761 2280  726 727 2281  726 761 2281  727 762 2281  761 762 2281  727 728 2282  727 762 2282  728 763 2282  762 763 2282  728 729 2283  728 763 2283  729 764 2283  763 764 2283  729 730 2284  729 764 2284  730 765 2284  764 765 2284  730 731 2285  730 765 2285  731 766 2285  765 766 2285  731 732 2286  731 766 2286  732 767 2286  766 767 2286  732 733 2287  732 767 2287  733 768 2287  767 768 2287  733 734 2288  733 768 2288  734 769 2288  768 769 2288  735 736 2289  735 770 2289  736 771 2289  770 771 2289  736 737 2290  736 771 2290  737 772 2290  771 772 2290  737 738 2291  737 772 2291  738 773 2291  772 773 2291  738 739 2292  738 773 2292  739 774 2292  773 774 2292  739 740 2293  739 774 2293  740 775 2293  774 775 2293  740 741 2294  740 775 2294  741 776 2294  775 776 2294  741 742 2295  741 776 2295  742 777 2295  776 777 2295  742 743 2296  742 777 2296  743 778 2296  777 778 2296  743 744 2297  743 778 2297  744 779 2297  778 779 2297  744 745 2298  744 779 2298  745 780 2298  779 780 2298  745 746 2299  745 780 2299  746 781 2299  780 781 2299  746 747 2300  746 781 2300  747 782 2300  781 782 2300  747 748 2301  747 782 2301  748 783 2301  782 783 2301  748 749 2302  748 783 2302  749 784 2302  783 784 2302  749 750 2303  749 784 2303  750 785 2303  784 785 2303  750 751 2304  750 785 2304  751 786 2304  785 786 2304  751 752 2305  751 786 2305  752 787 2305  786 787 2305  752 753 2306  752 787 2306  753 788 2306  787 788 2306  753 754 2307  753 788 2307  754 789 2307  788 789 2307  754 755 2308  754 789 2308  755 790 2308  789 790 2308  755 756 2309  755 790 2309  756 791 2309  790 791 2309  756 757 2310  756 791 2310  757 792 2310  791 792 2310  757 758 2311  757 792 2311  758 793 2311  792 793 2311  758 759 2312  758 793 2312  759 794 2312  793 794 2312  759 760 2313  759 794 2313  760 795 2313  794 795 2313  760 761 2314  760 795 2314  761 796 2314  795 796 2314  761 762 2315  761 796 2315  762 797 2315  796 797 2315  762 763 2316  762 797 2316  763 798 2316  797 798 2316  763 764 2317  763 798 2317  764 799 2317  798 799 2317  764 765 2318  764 799 2318  765 800 2318  799 800 2318  765 766 2319  765 800 2319  766 801 2319  800 801 2319  766 767 2320  766 801 2320  767 802 2320  801 802 2320  767 768 2321  767 802 2321  768 803 2321  802 803 2321  768 769 2322  768 803 2322  769 804 2322  803 804 2322  770 771 2323  770 805 2323  771 806 2323  805 806 2323  771 772 2324  771 806 2324  772 807 2324  806 807 2324  772 773 2325  772 807 2325  773 808 2325  807 808 2325  773 774 2326  773 808 2326  774 809 2326  808 809 2326  774 775 2327  774 809 2327  775 810 2327  809 810 2327  775 776 2328  775 810 2328  776 811 2328  810 811 2328  776 777 2329  776 811 2329  777 812 2329  811 812 2329  777 778 2330  777 812 2330  778 813 2330  812 813 2330  778 779 2331  778 813 2331  779 814 2331  813 814 2331  779 780 2332  779 814 2332  780 815 2332  814 815 2332  780 781 2333  780 815 2333  781 816 2333  815 816 2333  781 782 2334  781 816 2334  782 817 2334  816 817 2334  782 783 2335  782 817 2335  783 818 2335  817 818 2335  783 784 2336  783 818 2336  784 819 2336  818 819 2336  784 785 2337  784 819 2337  785 820 2337  819 820 2337  785 786 2338  785 820 2338  786 821 2338  820 821 2338  786 787 2339  786 821 2339  787 822 2339  821 822 2339  787 788 2340  787 822 2340  788 823 2340  822 823 2340  788 789 2341  788 823 2341  789 824 2341  823 824 2341  789 790 2342  789 824 2342  790 825 2342  824 825 2342  790 791 2343  790 825 2343  791 826 2343  825 826 2343  791 792 2344  791 826 2344  792 827 2344  826 827 2344  792 793 2345  792 827 2345  793 828 2345  827 828 2345  793 794 2346  793 828 2346  794 829 2346  828 829 2346  794 795 2347  794 829 2347  795 830 2347  829 830 2347  795 796 2348  795 830 2348  796 831 2348  830 831 2348  796 797 2349  796 831 2349  797 832 2349  831 832 2349  797 798 2350  797 832 2350  798 833 2350  832 833 2350  798 799 2351  798 833 2351  799 834 2351  833 834 2351  799 800 2352  799 834 2352  800 835 2352  834 835 2352  800 801 2353  800 835 2353  801 836 2353  835 836 2353  801 802 2354  801 836 2354  802 837 2354  836 837 2354  802 803 2355  802 837 2355  803 838 2355  837 838 2355  803 804 2356  803 838 2356  804 839 2356  838 839 2356  805 806 2357  805 840 2357  806 841 2357  840 841 2357  806 807 2358  806 841 2358  807 842 2358  841 842 2358  807 808 2359  807 842 2359  808 843 2359  842 843 2359  808 809 2360  808 843 2360  809 844 2360  843 844 2360  809 810 2361  809 844 2361  810 845 2361  844 845 2361  810 811 2362  810 845 2362  811 846 2362  845 846 2362  811 812 2363  811 846 2363  812 847 2363  846 847 2363  812 813 2364  812 847 2364  813 848 2364  847 848 2364  813 814 2365  813 848 2365  814 849 2365  848 849 2365  814 815 2366  814 849 2366  815 850 2366  849 850 2366  815 816 2367  815 850 2367  816 851 2367  850 851 2367  816 817 2368  816 851 2368  817 852 2368  851 852 2368  817 818 2369  817 852 2369  818 853 2369  852 853 2369  818 819 2370  818 853 2370  819 854 2370  853 854 2370  819 820 2371  819 854 2371  820 855 2371  854 855 2371  820 821 2372  820 855 2372  821 856 2372  855 856 2372  821 822 2373  821 856 2373  822 857 2373  856 857 2373  822 823 2374  822 857 2374  823 858 2374  857 858 2374  823 824 2375  823 858 2375  824 859 2375  858 859 2375  824 825 2376  824 859 2376  825 860 2376  859 860 2376  825 826 2377  825 860 2377  826 861 2377  860 861 2377  826 827 2378  826 861 2378  827 862 2378  861 862 2378  827 828 2379  827 862 2379  828 863 2379  862 863 2379  828 829 2380  828 863 2380  829 864 2380  863 864 2380  829 830 2381  829 864 2381  830 865 2381  864 865 2381  830 831 2382  830 865 2382  831 866 2382  865 866 2382  831 832 2383  831 866 2383  832 867 2383  866 867 2383  832 833 2384  832 867 2384  833 868 2384  867 868 2384  833 834 2385  833 868 2385  834 869 2385  868 869 2385  834 835 2386  834 869 2386  835 870 2386  869 870 2386  835 836 2387  835 870 2387  836 871 2387  870 871 2387  836 837 2388  836 871 2388  837 872 2388  871 872 2388  837 838 2389  837 872 2389  838 873 2389  872 873 2389  838 839 2390  838 873 2390  839 874 2390  873 874 2390  840 841 2391  840 875 2391  841 876 2391  875 876 2391  841 842 2392  841 876 2392  842 877 2392  876 877 2392  842 843 2393  842 877 2393  843 878 2393  877 878 2393  843 844 2394  843 878 2394  844 879 2394  878 879 2394  844 845 2395  844 879 2395  845 880 2395  879 880 2395  845 846 2396  845 880 2396  846 881 2396  880 881 2396  846 847 2397  846 881 2397  847 882 2397  881 882 2397  847 848 2398  847 882 2398  848 883 2398  882 883 2398  848 849 2399  848 883 2399  849 884 2399  883 884 2399  849 850 2400  849 884 2400  850 885 2400  884 885 2400  850 851 2401  850 885 2401  851 886 2401  885 886 2401  851 852 2402  851 886 2402  852 887 2402  886 887 2402  852 853 2403  852 887 2403  853 888 2403  887 888 2403  853 854 2404  853 888 2404  854 889 2404  888 889 2404  854 855 2405  854 889 2405  855 890 2405  889 890 2405  855 856 2406  855 890 2406  856 891 2406  890 891 2406  856 857 2407  856 891 2407  857 892 2407  891 892 2407  857 858 2408  857 892 2408  858 893 2408  892 893 2408  858 859 2409  858 893 2409  859 894 2409  893 894 2409  859 860 2410  859 894 2410  860 895 2410  894 895 2410  860 861 2411  860 895 2411  861 896 2411  895 896 2411  861 862 2412  861 896 2412  862 897 2412  896 897 2412  862 863 2413  862 897 2413  863 898 2413  897 898 2413  863 864 2414  863 898 2414  864 899 2414  898 899 2414  864 865 2415  864 899 2415  865 900 2415  899 900 2415  865 866 2416  865 900 2416  866 901 2416  900 901 2416  866 867 2417  866 901 2417  867 902 2417  901 902 2417  867 868 2418  867 902 2418  868 903 2418  902 903 2418  868 869 2419  868 903 2419  869 904 2419  903 904 2419  869 870 2420  869 904 2420  870 905 2420  904 905 2420  870 871 2421  870 905 2421  871 906 2421  905 906 2421  871 872 2422  871 906 2422  872 907 2422  906 907 2422  872 873 2423  872 907 2423  873 908 2423  907 908 2423  873 874 2424  873 908 2424  874 909 2424  908 909 2424  875 876 2425  875 910 2425  876 911 2425  910 911 2425  876 877 2426  876 911 2426  877 912 2426  911 912 2426  877 878 2427  877 912 2427  878 913 2427  912 913 2427  878 879 2428  878 913 2428  879 914 2428  913 914 2428  879 880 2429  879 914 2429  880 915 2429  914 915 2429  880 881 2430  880 915 2430  881 916 2430  915 916 2430  881 882 2431  881 916 2431  882 917 2431  916 917 2431  882 883 2432  882 917 2432  883 918 2432  917 918 2432  883 884 2433  883 918 2433  884 919 2433  918 919 2433  884 885 2434  884 919 2434  885 920 2434  919 920 2434  885 886 2435  885 920 2435  886 921 2435  920 921 2435  886 887 2436  886 921 2436  887 922 2436  921 922 2436  887 888 2437  887 922 2437  888 923 2437  922 923 2437  888 889 2438  888 923 2438  889 924 2438  923 924 2438  889 890 2439  889 924 2439  890 925 2439  924 925 2439  890 891 2440  890 925 2440  891 926 2440  925 926 2440  891 892 2441  891 926 2441  892 927 2441  926 927 2441  892 893 2442  892 927 2442  893 928 2442  927 928 2442  893 894 2443  893 928 2443  894 929 2443  928 929 2443  894 895 2444  894 929 2444  895 930 2444  929 930 2444  895 896 2445  895 930 2445  896 931 2445  930 931 2445  896 897 2446  896 931 2446  897 932 2446  931 932 2446  897 898 2447  897 932 2447  898 933 2447  932 933 2447  898 899 2448  898 933 2448  899 934 2448  933 934 2448  899 900 2449  899 934 2449  900 935 2449  934 935 2449  900 901 2450  900 935 2450  901 936 2450  935 936 2450  901 902 2451  901 936 2451  902 937 2451  936 937 2451  902 903 2452  902 937 2452  903 938 2452  937 938 2452  903 904 2453  903 938 2453  904 939 2453  938 939 2453  904 905 2454  904 939 2454  905 940 2454  939 940 2454  905 906 2455  905 940 2455  906 941 2455  940 941 2455  906 907 2456  906 941 2456  907 942 2456  941 942 2456  907 908 2457  907 942 2457  908 943 2457  942 943 2457  908 909 2458  908 943 2458  909 944 2458  943 944 2458  910 911 2459  910 945 2459  911 946 2459  945 946 2459  911 912 2460  911 946 2460  912 947 2460  946 947 2460  912 913 2461  912 947 2461  913 948 2461  947 948 2461  913 914 2462  913 948 2462  914 949 2462  948 949 2462  914 915 2463  914 949 2463  915 950 2463  949 950 2463  915 916 2464  915 950 2464  916 951 2464  950 951 2464  916 917 2465  916 951 2465  917 952 2465  951 952 2465  917 918 2466  917 952 2466  918 953 2466  952 953 2466  918 919 2467  918 953 2467  919 954 2467  953 954 2467  919 920 2468  919 954 2468  920 955 2468  954 955 2468  920 921 2469  920 955 2469  921 956 2469  955 956 2469  921 922 2470  921 956 2470  922 957 2470  956 957 2470  922 923 2471  922 957 2471  923 958 2471  957 958 2471  923 924 2472  923 958 2472  924 959 2472  958 959 2472  924 925 2473  924 959 2473  925 960 2473  959 960 2473  925 926 2474  925 960 2474  926 961 2474  960 961 2474  926 927 2475  926 961 2475  927 962 2475  961 962 2475  927 928 2476  927 962 2476  928 963 2476  962 963 2476  928 929 2477  928 963 2477  929 964 2477  963 964 2477  929 930 2478  929 964 2478  930 965 2478  964 965 2478  930 931 2479  930 965 2479  931 966 2479  965 966 2479  931 932 2480  931 966 2480  932 967 2480  966 967 2480  932 933 2481  932 967 2481  933 968 2481  967 968 2481  933 934 2482  933 968 2482  934 969 2482  968 969 2482  934 935 2483  934 969 2483  935 970 2483  969 970 2483  935 936 2484  935 970 2484  936 971 2484  970 971 2484  936 937 2485  936 971 2485  937 972 2485  971 972 2485  937 938 2486  937 972 2486  938 973 2486  972 973 2486  938 939 2487  938 973 2487  939 974 2487  973 974 2487  939 940 2488  939 974 2488  940 975 2488  974 975 2488  940 941 2489  940 975 2489  941 976 2489  975 976 2489  941 942 2490  941 976 2490  942 977 2490  976 977 2490  942 943 2491  942 977 2491  943 978 2491  977 978 2491  943 944 2492  943 978 2492  944 979 2492  978 979 2492  945 946 2493  945 980 2493  946 981 2493  980 981 2493  946 947 2494  946 981 2494  947 982 2494  981 982 2494  947 948 2495  947 982 2495  948 983 2495  982 983 2495  948 949 2496  948 983 2496  949 984 2496  983 984 2496  949 950 2497  949 984 2497  950 985 2497  984 985 2497  950 951 2498  950 985 2498  951 986 2498  985 986 2498  951 952 2499  951 986 2499  952 987 2499  986 987 2499  952 953 2500  952 987 2500  953 988 2500  987 988 2500  953 954 2501  953 988 2501  954 989 2501  988 989 2501  954 955 2502  954 989 2502  955 990 2502  989 990 2502  955 956 2503  955 990 2503  956 991 2503  990 991 2503  956 957 2504  956 991 2504  957 992 2504  991 992 2504  957 958 2505  957 992 2505  958 993 2505  992 993 2505  958 959 2506  958 993 2506  959 994 2506  993 994 2506  959 960 2507  959 994 2507  960 995 2507  994 995 2507  960 961 2508  960 995 2508  961 996 2508  995 996 2508  961 962 2509  961 996 2509  962 997 2509  996 997 2509  962 963 2510  962 997 2510  963 998 2510  997 998 2510  963 964 2511  963 998 2511  964 999 2511  998 999 2511  964 965 2512  964 999 2512  965 1000 2512  999 1000 2512  965 966 2513  965 1000 2513  966 1001 2513  1000 1001 2513  966 967 2514  966 1001 2514  967 1002 2514  1001 1002 2514  967 968 2515  967 1002 2515  968 1003 2515  1002 1003 2515  968 969 2516  968 1003 2516  969 1004 2516  1003 1004 2516  969 970 2517  969 1004 2517  970 1005 2517  1004 1005 2517  970 971 2518  970 1005 2518  971 1006 2518  1005 1006 2518  971 972 2519  971 1006 2519  972 1007 2519  1006 1007 2519  972 973 2520  972 1007 2520  973 1008 2520  1007 1008 2520  973 974 2521  973 1008 2521  974 1009 2521  1008 1009 2521  974 975 2522  974 1009 2522  975 1010 2522  1009 1010 2522  975 976 2523  975 1010 2523  976 1011 2523  1010 1011 2523  976 977 2524  976 1011 2524  977 1012 2524  1011 1012 2524  977 978 2525  977 1012 2525  978 1013 2525  1012 1013 2525  978 979 2526  978 1013 2526  979 1014 2526  1013 1014 2526  980 981 2527  980 1015 2527  981 1016 2527  1015 1016 2527  981 982 2528  981 1016 2528  982 1017 2528  1016 1017 2528  982 983 2529  982 1017 2529  983 1018 2529  1017 1018 2529  983 984 2530  983 1018 2530  984 1019 2530  1018 1019 2530  984 985 2531  984 1019 2531  985 1020 2531  1019 1020 2531  985 986 2532  985 1020 2532  986 1021 2532  1020 1021 2532  986 987 2533  986 1021 2533  987 1022 2533  1021 1022 2533  987 988 2534  987 1022 2534  988 1023 2534  1022 1023 2534  988 989 2535  988 1023 2535  989 1024 2535  1023 1024 2535  989 990 2536  989 1024 2536  990 1025 2536  1024 1025 2536  990 991 2537  990 1025 2537  991 1026 2537  1025 1026 2537  991 992 2538  991 1026 2538  992 1027 2538  1026 1027 2538  992 993 2539  992 1027 2539  993 1028 2539  1027 1028 2539  993 994 2540  993 1028 2540  994 1029 2540  1028 1029 2540  994 995 2541  994 1029 2541  995 1030 2541  1029 1030 2541  995 996 2542  995 1030 2542  996 1031 2542  1030 1031 2542  996 997 2543  996 1031 2543  997 1032 2543  1031 1032 2543  997 998 2544  997 1032 2544  998 1033 2544  1032 1033 2544  998 999 2545  998 1033 2545  999 1034 2545  1033 1034 2545  999 1000 2546  999 1034 2546  1000 1035 2546  1034 1035 2546  1000 1001 2547  1000 1035 2547  1001 1036 2547  1035 1036 2547  1001 1002 2548  1001 1036 2548  1002 1037 2548  1036 1037 2548  1002 1003 2549  1002 1037 2549  1003 1038 2549  1037 1038 2549  1003 1004 2550  1003 1038 2550  1004 1039 2550  1038 1039 2550  1004 1005 2551  1004 1039 2551  1005 1040 2551  1039 1040 2551  1005 1006 2552  1005 1040 2552  1006 1041 2552  1040 1041 2552  1006 1007 2553  1006 1041 2553  1007 1042 2553  1041 1042 2553  1007 1008 2554  1007 1042 2554  1008 1043 2554  1042 1043 2554  1008 1009 2555  1008 1043 2555  1009 1044 2555  1043 1044 2555  1009 1010 2556  1009 1044 2556  1010 1045 2556  1044 1045 2556  1010 1011 2557  1010 1045 2557  1011 1046 2557  1045 1046 2557  1011 1012 2558  1011 1046 2558  1012 1047 2558  1046 1047 2558  1012 1013 2559  1012 1047 2559  1013 1048 2559  1047 1048 2559  1013 1014 2560  1013 1048 2560  1014 1049 2560  1048 1049 2560  1015 1016 2561  1015 1050 2561  1016 1051 2561  1050 1051 2561  1016 1017 2562  1016 1051 2562  1017 1052 2562  1051 1052 2562  1017 1018 2563  1017 1052 2563  1018 1053 2563  1052 1053 2563  1018 1019 2564  1018 1053 2564  1019 1054 2564  1053 1054 2564  1019 1020 2565  1019 1054 2565  1020 1055 2565  1054 1055 2565  1020 1021 2566  1020 1055 2566  1021 1056 2566  1055 1056 2566  1021 1022 2567  1021 1056 2567  1022 1057 2567  1056 1057 2567  1022 1023 2568  1022 1057 2568  1023 1058 2568  1057 1058 2568  1023 1024 2569  1023 1058 2569  1024 1059 2569  1058 1059 2569  1024 1025 2570  1024 1059 2570  1025 1060 2570  1059 1060 2570  1025 1026 2571  1025 1060 2571  1026 1061 2571  1060 1061 2571  1026 1027 2572  1026 1061 2572  1027 1062 2572  1061 1062 2572  1027 1028 2573  1027 1062 2573  1028 1063 2573  1062 1063 2573  1028 1029 2574  1028 1063 2574  1029 1064 2574  1063 1064 2574  1029 1030 2575  1029 1064 2575  1030 1065 2575  1064 1065 2575  1030 1031 2576  1030 1065 2576  1031 1066 2576  1065 1066 2576  1031 1032 2577  1031 1066 2577  1032 1067 2577  1066 1067 2577  1032 1033 2578  1032 1067 2578  1033 1068 2578  1067 1068 2578  1033 1034 2579  1033 1068 2579  1034 1069 2579  1068 1069 2579  1034 1035 2580  1034 1069 2580  1035 1070 2580  1069 1070 2580  1035 1036 2581  1035 1070 2581  1036 1071 2581  1070 1071 2581  1036 1037 2582  1036 1071 2582  1037 1072 2582  1071 1072 2582  1037 1038 2583  1037 1072 2583  1038 1073 2583  1072 1073 2583  1038 1039 2584  1038 1073 2584  1039 1074 2584  1073 1074 2584  1039 1040 2585  1039 1074 2585  1040 1075 2585  1074 1075 2585  1040 1041 2586  1040 1075 2586  1041 1076 2586  1075 1076 2586  1041 1042 2587  1041 1076 2587  1042 1077 2587  1076 1077 2587  1042 1043 2588  1042 1077 2588  1043 1078 2588  1077 1078 2588  1043 1044 2589  1043 1078 2589  1044 1079 2589  1078 1079 2589  1044 1045 2590  1044 1079 2590  1045 1080 2590  1079 1080 2590  1045 1046 2591  1045 1080 2591  1046 1081 2591  1080 1081 2591  1046 1047 2592  1046 1081 2592  1047 1082 2592  1081 1082 2592  1047 1048 2593  1047 1082 2593  1048 1083 2593  1082 1083 2593  1048 1049 2594  1048 1083 2594  1049 1084 2594  1083 1084 2594  1050 1051 2595  1050 1085 2595  1051 1086 2595  1085 1086 2595  1051 1052 2596  1051 1086 2596  1052 1087 2596  1086 1087 2596  1052 1053 2597  1052 1087 2597  1053 1088 2597  1087 1088 2597  1053 1054 2598  1053 1088 2598  1054 1089 2598  1088 1089 2598  1054 1055 2599  1054 1089 2599  1055 1090 2599  1089 1090 2599  1055 1056 2600  1055 1090 2600  1056 1091 2600  1090 1091 2600  1056 1057 2601  1056 1091 2601  1057 1092 2601  1091 1092 2601  1057 1058 2602  1057 1092 2602  1058 1093 2602  1092 1093 2602  1058 1059 2603  1058 1093 2603  1059 1094 2603  1093 1094 2603  1059 1060 2604  1059 1094 2604  1060 1095 2604  1094 1095 2604  1060 1061 2605  1060 1095 2605  1061 1096 2605  1095 1096 2605  1061 1062 2606  1061 1096 2606  1062 1097 2606  1096 1097 2606  1062 1063 2607  1062 1097 2607  1063 1098 2607  1097 1098 2607  1063 1064 2608  1063 1098 2608  1064 1099 2608  1098 1099 2608  1064 1065 2609  1064 1099 2609  1065 1100 2609  1099 1100 2609  1065 1066 2610  1065 1100 2610  1066 1101 2610  1100 1101 2610  1066 1067 2611  1066 1101 2611  1067 1102 2611  1101 1102 2611  1067 1068 2612  1067 1102 2612  1068 1103 2612  1102 1103 2612  1068 1069 2613  1068 1103 2613  1069 1104 2613  1103 1104 2613  1069 1070 2614  1069 1104 2614  1070 1105 2614  1104 1105 2614  1070 1071 2615  1070 1105 2615  1071 1106 2615  1105 1106 2615  1071 1072 2616  1071 1106 2616  1072 1107 2616  1106 1107 2616  1072 1073 2617  1072 1107 2617  1073 1108 2617  1107 1108 2617  1073 1074 2618  1073 1108 2618  1074 1109 2618  1108 1109 2618  1074 1075 2619  1074 1109 2619  1075 1110 2619  1109 1110 2619  1075 1076 2620  1075 1110 2620  1076 1111 2620  1110 1111 2620  1076 1077 2621  1076 1111 2621  1077 1112 2621  1111 1112 2621  1077 1078 2622  1077 1112 2622  1078 1113 2622  1112 1113 2622  1078 1079 2623  1078 1113 2623  1079 1114 2623  1113 1114 2623  1079 1080 2624  1079 1114 2624  1080 1115 2624  1114 1115 2624  1080 1081 2625  1080 1115 2625  1081 1116 2625  1115 1116 2625  1081 1082 2626  1081 1116 2626  1082 1117 2626  1116 1117 2626  1082 1083 2627  1082 1117 2627  1083 1118 2627  1117 1118 2627  1083 1084 2628  1083 1118 2628  1084 1119 2628  1118 1119 2628  1085 1086 2629  1085 1120 2629  1086 1121 2629  1120 1121 2629  1086 1087 2630  1086 1121 2630  1087 1122 2630  1121 1122 2630  1087 1088 2631  1087 1122 2631  1088 1123 2631  1122 1123 2631  1088 1089 2632  1088 1123 2632  1089 1124 2632  1123 1124 2632  1089 1090 2633  1089 1124 2633  1090 1125 2633  1124 1125 2633  1090 1091 2634  1090 1125 2634  1091 1126 2634  1125 1126 2634  1091 1092 2635  1091 1126 2635  1092 1127 2635  1126 1127 2635  1092 1093 2636  1092 1127 2636  1093 1128 2636  1127 1128 2636  1093 1094 2637  1093 1128 2637  1094 1129 2637  1128 1129 2637  1094 1095 2638  1094 1129 2638  1095 1130 2638  1129 1130 2638  1095 1096 2639  1095 1130 2639  1096 1131 2639  1130 1131 2639  1096 1097 2640  1096 1131 2640  1097 1132 2640  1131 1132 2640  1097 1098 2641  1097 1132 2641  1098 1133 2641  1132 1133 2641  1098 1099 2642  1098 1133 2642  1099 1134 2642  1133 1134 2642  1099 1100 2643  1099 1134 2643  1100 1135 2643  1134 1135 2643  1100 1101 2644  1100 1135 2644  1101 1136 2644  1135 1136 2644  1101 1102 2645  1101 1136 2645  1102 1137 2645  1136 1137 2645  1102 1103 2646  1102 1137 2646  1103 1138 2646  1137 1138 2646  1103 1104 2647  1103 1138 2647  1104 1139 2647  1138 1139 2647  1104 1105 2648  1104 1139 2648  1105 1140 2648  1139 1140 2648  1105 1106 2649  1105 1140 2649  1106 1141 2649  1140 1141 2649  1106 1107 2650  1106 1141 2650  1107 1142 2650  1141 1142 2650  1107 1108 2651  1107 1142 2651  1108 1143 2651  1142 1143 2651  1108 1109 2652  1108 1143 2652  1109 1144 2652  1143 1144 2652  1109 1110 2653  1109 1144 2653  1110 1145 2653  1144 1145 2653  1110 1111 2654  1110 1145 2654  1111 1146 2654  1145 1146 2654  1111 1112 2655  1111 1146 2655  1112 1147 2655  1146 1147 2655  1112 1113 2656  1112 1147 2656  1113 1148 2656  1147 1148 2656  1113 1114 2657  1113 1148 2657  1114 1149 2657  1148 1149 2657  1114 1115 2658  1114 1149 2658  1115 1150 2658  1149 1150 2658  1115 1116 2659  1115 1150 2659  1116 1151 2659  1150 1151 2659  1116 1117 2660  1116 1151 2660  1117 1152 2660  1151 1152 2660  1117 1118 2661  1117 1152 2661  1118 1153 2661  1152 1153 2661  1118 1119 2662  1118 1153 2662  1119 1154 2662  1153 1154 2662  1120 1121 2663  1120 1155 2663  1121 1156 2663  1155 1156 2663  1121 1122 2664  1121 1156 2664  1122 1157 2664  1156 1157 2664  1122 1123 2665  1122 1157 2665  1123 1158 2665  1157 1158 2665  1123 1124 2666  1123 1158 2666  1124 1159 2666  1158 1159 2666  1124 1125 2667  1124 1159 2667  1125 1160 2667  1159 1160 2667  1125 1126 2668  1125 1160 2668  1126 1161 2668  1160 1161 2668  1126 1127 2669  1126 1161 2669  1127 1162 2669  1161 1162 2669  1127 1128 2670  1127 1162 2670  1128 1163 2670  1162 1163 2670  1128 1129 2671  1128 1163 2671  1129 1164 2671  1163 1164 2671  1129 1130 2672  1129 1164 2672  1130 1165 2672  1164 1165 2672  1130 1131 2673  1130 1165 2673  1131 1166 2673  1165 1166 2673  1131 1132 2674  1131 1166 2674  1132 1167 2674  1166 1167 2674  1132 1133 2675  1132 1167 2675  1133 1168 2675  1167 1168 2675  1133 1134 2676  1133 1168 2676  1134 1169 2676  1168 1169 2676  1134 1135 2677  1134 1169 2677  1135 1170 2677  1169 1170 2677  1135 1136 2678  1135 1170 2678  1136 1171 2678  1170 1171 2678  1136 1137 2679  1136 1171 2679  1137 1172 2679  1171 1172 2679  1137 1138 2680  1137 1172 2680  1138 1173 2680  1172 1173 2680  1138 1139 2681  1138 1173 2681  1139 1174 2681  1173 1174 2681  1139 1140 2682  1139 1174 2682  1140 1175 2682  1174 1175 2682  1140 1141 2683  1140 1175 2683  1141 1176 2683  1175 1176 2683  1141 1142 2684  1141 1176 2684  1142 1177 2684  1176 1177 2684  1142 1143 2685  1142 1177 2685  1143 1178 2685  1177 1178 2685  1143 1144 2686  1143 1178 2686  1144 1179 2686  1178 1179 2686  1144 1145 2687  1144 1179 2687  1145 1180 2687  1179 1180 2687  1145 1146 2688  1145 1180 2688  1146 1181 2688  1180 1181 2688  1146 1147 2689  1146 1181 2689  1147 1182 2689  1181 1182 2689  1147 1148 2690  1147 1182 2690  1148 1183 2690  1182 1183 2690  1148 1149 2691  1148 1183 2691  1149 1184 2691  1183 1184 2691  1149 1150 2692  1149 1184 2692  1150 1185 2692  1184 1185 2692  1150 1151 2693  1150 1185 2693  1151 1186 2693  1185 1186 2693  1151 1152 2694  1151 1186 2694  1152 1187 2694  1186 1187 2694  1152 1153 2695  1152 1187 2695  1153 1188 2695  1187 1188 2695  1153 1154 2696  1153 1188 2696  1154 1189 2696  1188 1189 2696  1155 1156 2697  1155 1190 2697  1156 1191 2697  1190 1191 2697  1156 1157 2698  1156 1191 2698  1157 1192 2698  1191 1192 2698  1157 1158 2699  1157 1192 2699  1158 1193 2699  1192 1193 2699  1158 1159 2700  1158 1193 2700  1159 1194 2700  1193 1194 2700  1159 1160 2701  1159 1194 2701  1160 1195 2701  1194 1195 2701  1160 1161 2702  1160 1195 2702  1161 1196 2702  1195 1196 2702  1161 1162 2703  1161 1196 2703  1162 1197 2703  1196 1197 2703  1162 1163 2704  1162 1197 2704  1163 1198 2704  1197 1198 2704  1163 1164 2705  1163 1198 2705  1164 1199 2705  1198 1199 2705  1164 1165 2706  1164 1199 2706  1165 1200 2706  1199 1200 2706  1165 1166 2707  1165 1200 2707  1166 1201 2707  1200 1201 2707  1166 1167 2708  1166 1201 2708  1167 1202 2708  1201 1202 2708  1167 1168 2709  1167 1202 2709  1168 1203 2709  1202 1203 2709  1168 1169 2710  1168 1203 2710  1169 1204 2710  1203 1204 2710  1169 1170 2711  1169 1204 2711  1170 1205 2711  1204 1205 2711  1170 1171 2712  1170 1205 2712  1171 1206 2712  1205 1206 2712  1171 1172 2713  1171 1206 2713  1172 1207 2713  1206 1207 2713  1172 1173 2714  1172 1207 2714  1173 1208 2714  1207 1208 2714  1173 1174 2715  1173 1208 2715  1174 1209 2715  1208 1209 2715  1174 1175 2716  1174 1209 2716  1175 1210 2716  1209 1210 2716  1175 1176 2717  1175 1210 2717  1176 1211 2717  1210 1211 2717  1176 1177 2718  1176 1211 2718  1177 1212 2718  1211 1212 2718  1177 1178 2719  1177 1212 2719  1178 1213 2719  1212 1213 2719  1178 1179 2720  1178 1213 2720  1179 1214 2720  1213 1214 2720  1179 1180 2721  1179 1214 2721  1180 1215 2721  1214 1215 2721  1180 1181 2722  1180 1215 2722  1181 1216 2722  1215 1216 2722  1181 1182 2723  1181 1216 2723  1182 1217 2723  1216 1217 2723  1182 1183 2724  1182 1217 2724  1183 1218 2724  1217 1218 2724  1183 1184 2725  1183 1218 2725  1184 1219 2725  1218 1219 2725  1184 1185 2726  1184 1219 2726  1185 1220 2726  1219 1220 2726  1185 1186 2727  1185 1220 2727  1186 1221 2727  1220 1221 2727  1186 1187 2728  1186 1221 2728  1187 1222 2728  1221 1222 2728  1187 1188 2729  1187 1222 2729  1188 1223 2729  1222 1223 2729  1188 1189 2730  1188 1223 2730  1189 1224 2730  1223 1224 2730  1190 1191 2731  1190 1225 2731  1191 1226 2731  1225 1226 2731  1191 1192 2732  1191 1226 2732  1192 1227 2732  1226 1227 2732  1192 1193 2733  1192 1227 2733  1193 1228 2733  1227 1228 2733  1193 1194 2734  1193 1228 2734  1194 1229 2734  1228 1229 2734  1194 1195 2735  1194 1229 2735  1195 1230 2735  1229 1230 2735  1195 1196 2736  1195 1230 2736  1196 1231 2736  1230 1231 2736  1196 1197 2737  1196 1231 2737  1197 1232 2737  1231 1232 2737  1197 1198 2738  1197 1232 2738  1198 1233 2738  1232 1233 2738  1198 1199 2739  1198 1233 2739  1199 1234 2739  1233 1234 2739  1199 1200 2740  1199 1234 2740  1200 1235 2740  1234 1235 2740  1200 1201 2741  1200 1235 2741  1201 1236 2741  1235 1236 2741  1201 1202 2742  1201 1236 2742  1202 1237 2742  1236 1237 2742  1202 1203 2743  1202 1237 2743  1203 1238 2743  1237 1238 2743  1203 1204 2744  1203 1238 2744  1204 1239 2744  1238 1239 2744  1204 1205 2745  1204 1239 2745  1205 1240 2745  1239 1240 2745  1205 1206 2746  1205 1240 2746  1206 1241 2746  1240 1241 2746  1206 1207 2747  1206 1241 2747  1207 1242 2747  1241 1242 2747  1207 1208 2748  1207 1242 2748  1208 1243 2748  1242 1243 2748  1208 1209 2749  1208 1243 2749  1209 1244 2749  1243 1244 2749  1209 1210 2750  1209 1244 2750  1210 1245 2750  1244 1245 2750  1210 1211 2751  1210 1245 2751  1211 1246 2751  1245 1246 2751  1211 1212 2752  1211 1246 2752  1212 1247 2752  1246 1247 2752  1212 1213 2753  1212 1247 2753  1213 1248 2753  1247 1248 2753  1213 1214 2754  1213 1248 2754  1214 1249 2754  1248 1249 2754  1214 1215 2755  1214 1249 2755  1215 1250 2755  1249 1250 2755  1215 1216 2756  1215 1250 2756  1216 1251 2756  1250 1251 2756  1216 1217 2757  1216 1251 2757  1217 1252 2757  1251 1252 2757  1217 1218 2758  1217 1252 2758  1218 1253 2758  1252 1253 2758  1218 1219 2759  1218 1253 2759  1219 1254 2759  1253 1254 2759  1219 1220 2760  1219 1254 2760  1220 1255 2760  1254 1255 2760  1220 1221 2761  1220 1255 2761  1221 1256 2761  1255 1256 2761  1221 1222 2762  1221 1256 2762  1222 1257 2762  1256 1257 2762  1222 1223 2763  1222 1257 2763  1223 1258 2763  1257 1258 2763  1223 1224 2764  1223 1258 2764  1224 1259 2764  1258 1259 2764  1225 1226 2765  1225 1260 2765  1226 1261 2765  1260 1261 2765  1226 1227 2766  1226 1261 2766  1227 1262 2766  1261 1262 2766  1227 1228 2767  1227 1262 2767  1228 1263 2767  1262 1263 2767  1228 1229 2768  1228 1263 2768  1229 1264 2768  1263 1264 2768  1229 1230 2769  1229 1264 2769  1230 1265 2769  1264 1265 2769  1230 1231 2770  1230 1265 2770  1231 1266 2770  1265 1266 2770  1231 1232 2771  1231 1266 2771  1232 1267 2771  1266 1267 2771  1232 1233 2772  1232 1267 2772  1233 1268 2772  1267 1268 2772  1233 1234 2773  1233 1268 2773  1234 1269 2773  1268 1269 2773  1234 1235 2774  1234 1269 2774  1235 1270 2774  1269 1270 2774  1235 1236 2775  1235 1270 2775  1236 1271 2775  1270 1271 2775  1236 1237 2776  1236 1271 2776  1237 1272 2776  1271 1272 2776  1237 1238 2777  1237 1272 2777  1238 1273 2777  1272 1273 2777  1238 1239 2778  1238 1273 2778  1239 1274 2778  1273 1274 2778  1239 1240 2779  1239 1274 2779  1240 1275 2779  1274 1275 2779  1240 1241 2780  1240 1275 2780  1241 1276 2780  1275 1276 2780  1241 1242 2781  1241 1276 2781  1242 1277 2781  1276 1277 2781  1242 1243 2782  1242 1277 2782  1243 1278 2782  1277 1278 2782  1243 1244 2783  1243 1278 2783  1244 1279 2783  1278 1279 2783  1244 1245 2784  1244 1279 2784  1245 1280 2784  1279 1280 2784  1245 1246 2785  1245 1280 2785  1246 1281 2785  1280 1281 2785  1246 1247 2786  1246 1281 2786  1247 1282 2786  1281 1282 2786  1247 1248 2787  1247 1282 2787  1248 1283 2787  1282 1283 2787  1248 1249 2788  1248 1283 2788  1249 1284 2788  1283 1284 2788  1249 1250 2789  1249 1284 2789  1250 1285 2789  1284 1285 2789  1250 1251 2790  1250 1285 2790  1251 1286 2790  1285 1286 2790  1251 1252 2791  1251 1286 2791  1252 1287 2791  1286 1287 2791  1252 1253 2792  1252 1287 2792  1253 1288 2792  1287 1288 2792  1253 1254 2793  1253 1288 2793  1254 1289 2793  1288 1289 2793  1254 1255 2794  1254 1289 2794  1255 1290 2794  1289 1290 2794  1255 1256 2795  1255 1290 2795  1256 1291 2795  1290 1291 2795  1256 1257 2796  1256 1291 2796  1257 1292 2796  1291 1292 2796  1257 1258 2797  1257 1292 2797  1258 1293 2797  1292 1293 2797  1258 1259 2798  1258 1293 2798  1259 1294 2798  1293 1294 2798  1260 1261 2799  1260 1295 2799  1261 1296 2799  1295 1296 2799  1261 1262 2800  1261 1296 2800  1262 1297 2800  1296 1297 2800  1262 1263 2801  1262 1297 2801  1263 1298 2801  1297 1298 2801  1263 1264 2802  1263 1298 2802  1264 1299 2802  1298 1299 2802  1264 1265 2803  1264 1299 2803  1265 1300 2803  1299 1300 2803  1265 1266 2804  1265 1300 2804  1266 1301 2804  1300 1301 2804  1266 1267 2805  1266 1301 2805  1267 1302 2805  1301 1302 2805  1267 1268 2806  1267 1302 2806  1268 1303 2806  1302 1303 2806  1268 1269 2807  1268 1303 2807  1269 1304 2807  1303 1304 2807  1269 1270 2808  1269 1304 2808  1270 1305 2808  1304 1305 2808  1270 1271 2809  1270 1305 2809  1271 1306 2809  1305 1306 2809  1271 1272 2810  1271 1306 2810  1272 1307 2810  1306 1307 2810  1272 1273 2811  1272 1307 2811  1273 1308 2811  1307 1308 2811  1273 1274 2812  1273 1308 2812  1274 1309 2812  1308 1309 2812  1274 1275 2813  1274 1309 2813  1275 1310 2813  1309 1310 2813  1275 1276 2814  1275 1310 2814  1276 1311 2814  1310 1311 2814  1276 1277 2815  1276 1311 2815  1277 1312 2815  1311 1312 2815  1277 1278 2816  1277 1312 2816  1278 1313 2816  1312 1313 2816  1278 1279 2817  1278 1313 2817  1279 1314 2817  1313 1314 2817  1279 1280 2818  1279 1314 2818  1280 1315 2818  1314 1315 2818  1280 1281 2819  1280 1315 2819  1281 1316 2819  1315 1316 2819  1281 1282 2820  1281 1316 2820  1282 1317 2820  1316 1317 2820  1282 1283 2821  1282 1317 2821  1283 1318 2821  1317 1318 2821  1283 1284 2822  1283 1318 2822  1284 1319 2822  1318 1319 2822  1284 1285 2823  1284 1319 2823  1285 1320 2823  1319 1320 2823  1285 1286 2824  1285 1320 2824  1286 1321 2824  1320 1321 2824  1286 1287 2825  1286 1321 2825  1287 1322 2825  1321 1322 2825  1287 1288 2826  1287 1322 2826  1288 1323 2826  1322 1323 2826  1288 1289 2827  1288 1323 2827  1289 1324 2827  1323 1324 2827  1289 1290 2828  1289 1324 2828  1290 1325 2828  1324 1325 2828  1290 1291 2829  1290 1325 2829  1291 1326 2829  1325 1326 2829  1291 1292 2830  1291 1326 2830  1292 1327 2830  1326 1327 2830  1292 1293 2831  1292 1327 2831  1293 1328 2831  1327 1328 2831  1293 1294 2832  1293 1328 2832  1294 1329 2832  1328 1329 2832  1295 1296 2833  1295 1330 2833  1296 1331 2833  1330 1331 2833  1296 1297 2834  1296 1331 2834  1297 1332 2834  1331 1332 2834  1297 1298 2835  1297 1332 2835  1298 1333 2835  1332 1333 2835  1298 1299 2836  1298 1333 2836  1299 1334 2836  1333 1334 2836  1299 1300 2837  1299 1334 2837  1300 1335 2837  1334 1335 2837  1300 1301 2838  1300 1335 2838  1301 1336 2838  1335 1336 2838  1301 1302 2839  1301 1336 2839  1302 1337 2839  1336 1337 2839  1302 1303 2840  1302 1337 2840  1303 1338 2840  1337 1338 2840  1303 1304 2841  1303 1338 2841  1304 1339 2841  1338 1339 2841  1304 1305 2842  1304 1339 2842  1305 1340 2842  1339 1340 2842  1305 1306 2843  1305 1340 2843  1306 1341 2843  1340 1341 2843  1306 1307 2844  1306 1341 2844  1307 1342 2844  1341 1342 2844  1307 1308 2845  1307 1342 2845  1308 1343 2845  1342 1343 2845  1308 1309 2846  1308 1343 2846  1309 1344 2846  1343 1344 2846  1309 1310 2847  1309 1344 2847  1310 1345 2847  1344 1345 2847  1310 1311 2848  1310 1345 2848  1311 1346 2848  1345 1346 2848  1311 1312 2849  1311 1346 2849  1312 1347 2849  1346 1347 2849  1312 1313 2850  1312 1347 2850  1313 1348 2850  1347 1348 2850  1313 1314 2851  1313 1348 2851  1314 1349 2851  1348 1349 2851  1314 1315 2852  1314 1349 2852  1315 1350 2852  1349 1350 2852  1315 1316 2853  1315 1350 2853  1316 1351 2853  1350 1351 2853  1316 1317 2854  1316 1351 2854  1317 1352 2854  1351 1352 2854  1317 1318 2855  1317 1352 2855  1318 1353 2855  1352 1353 2855  1318 1319 2856  1318 1353 2856  1319 1354 2856  1353 1354 2856  1319 1320 2857  1319 1354 2857  1320 1355 2857  1354 1355 2857  1320 1321 2858  1320 1355 2858  1321 1356 2858  1355 1356 2858  1321 1322 2859  1321 1356 2859  1322 1357 2859  1356 1357 2859  1322 1323 2860  1322 1357 2860  1323 1358 2860  1357 1358 2860  1323 1324 2861  1323 1358 2861  1324 1359 2861  1358 1359 2861  1324 1325 2862  1324 1359 2862  1325 1360 2862  1359 1360 2862  1325 1326 2863  1325 1360 2863  1326 1361 2863  1360 1361 2863  1326 1327 2864  1326 1361 2864  1327 1362 2864  1361 1362 2864  1327 1328 2865  1327 1362 2865  1328 1363 2865  1362 1363 2865  1328 1329 2866  1328 1363 2866  1329 1364 2866  1363 1364 2866  1330 1331 2867  1330 1365 2867  1331 1366 2867  1365 1366 2867  1331 1332 2868  1331 1366 2868  1332 1367 2868  1366 1367 2868  1332 1333 2869  1332 1367 2869  1333 1368 2869  1367 1368 2869  1333 1334 2870  1333 1368 2870  1334 1369 2870  1368 1369 2870  1334 1335 2871  1334 1369 2871  1335 1370 2871  1369 1370 2871  1335 1336 2872  1335 1370 2872  1336 1371 2872  1370 1371 2872  1336 1337 2873  1336 1371 2873  1337 1372 2873  1371 1372 2873  1337 1338 2874  1337 1372 2874  1338 1373 2874  1372 1373 2874  1338 1339 2875  1338 1373 2875  1339 1374 2875  1373 1374 2875  1339 1340 2876  1339 1374 2876  1340 1375 2876  1374 1375 2876  1340 1341 2877  1340 1375 2877  1341 1376 2877  1375 1376 2877  1341 1342 2878  1341 1376 2878  1342 1377 2878  1376 1377 2878  1342 1343 2879  1342 1377 2879  1343 1378 2879  1377 1378 2879  1343 1344 2880  1343 1378 2880  1344 1379 2880  1378 1379 2880  1344 1345 2881  1344 1379 2881  1345 1380 2881  1379 1380 2881  1345 1346 2882  1345 1380 2882  1346 1381 2882  1380 1381 2882  1346 1347 2883  1346 1381 2883  1347 1382 2883  1381 1382 2883  1347 1348 2884  1347 1382 2884  1348 1383 2884  1382 1383 2884  1348 1349 2885  1348 1383 2885  1349 1384 2885  1383 1384 2885  1349 1350 2886  1349 1384 2886  1350 1385 2886  1384 1385 2886  1350 1351 2887  1350 1385 2887  1351 1386 2887  1385 1386 2887  1351 1352 2888  1351 1386 2888  1352 1387 2888  1386 1387 2888  1352 1353 2889  1352 1387 2889  1353 1388 2889  1387 1388 2889  1353 1354 2890  1353 1388 2890  1354 1389 2890  1388 1389 2890  1354 1355 2891  1354 1389 2891  1355 1390 2891  1389 1390 2891  1355 1356 2892  1355 1390 2892  1356 1391 2892  1390 1391 2892  1356 1357 2893  1356 1391 2893  1357 1392 2893  1391 1392 2893  1357 1358 2894  1357 1392 2894  1358 1393 2894  1392 1393 2894  1358 1359 2895  1358 1393 2895  1359 1394 2895  1393 1394 2895  1359 1360 2896  1359 1394 2896  1360 1395 2896  1394 1395 2896  1360 1361 2897  1360 1395 2897  1361 1396 2897  1395 1396 2897  1361 1362 2898  1361 1396 2898  1362 1397 2898  1396 1397 2898  1362 1363 2899  1362 1397 2899  1363 1398 2899  1397 1398 2899  1363 1364 2900  1363 1398 2900  1364 1399 2900  1398 1399 2900  1365 1366 2901  1365 1400 2901  1366 1401 2901  1400 1401 2901  1366 1367 2902  1366 1401 2902  1367 1402 2902  1401 1402 2902  1367 1368 2903  1367 1402 2903  1368 1403 2903  1402 1403 2903  1368 1369 2904  1368 1403 2904  1369 1404 2904  1403 1404 2904  1369 1370 2905  1369 1404 2905  1370 1405 2905  1404 1405 2905  1370 1371 2906  1370 1405 2906  1371 1406 2906  1405 1406 2906  1371 1372 2907  1371 1406 2907  1372 1407 2907  1406 1407 2907  1372 1373 2908  1372 1407 2908  1373 1408 2908  1407 1408 2908  1373 1374 2909  1373 1408 2909  1374 1409 2909  1408 1409 2909  1374 1375 2910  1374 1409 2910  1375 1410 2910  1409 1410 2910  1375 1376 2911  1375 1410 2911  1376 1411 2911  1410 1411 2911  1376 1377 2912  1376 1411 2912  1377 1412 2912  1411 1412 2912  1377 1378 2913  1377 1412 2913  1378 1413 2913  1412 1413 2913  1378 1379 2914  1378 1413 2914  1379 1414 2914  1413 1414 2914  1379 1380 2915  1379 1414 2915  1380 1415 2915  1414 1415 2915  1380 1381 2916  1380 1415 2916  1381 1416 2916  1415 1416 2916  1381 1382 2917  1381 1416 2917  1382 1417 2917  1416 1417 2917  1382 1383 2918  1382 1417 2918  1383 1418 2918  1417 1418 2918  1383 1384 2919  1383 1418 2919  1384 1419 2919  1418 1419 2919  1384 1385 2920  1384 1419 2920  1385 1420 2920  1419 1420 2920  1385 1386 2921  1385 1420 2921  1386 1421 2921  1420 1421 2921  1386 1387 2922  1386 1421 2922  1387 1422 2922  1421 1422 2922  1387 1388 2923  1387 1422 2923  1388 1423 2923  1422 1423 2923  1388 1389 2924  1388 1423 2924  1389 1424 2924  1423 1424 2924  1389 1390 2925  1389 1424 2925  1390 1425 2925  1424 1425 2925  1390 1391 2926  1390 1425 2926  1391 1426 2926  1425 1426 2926  1391 1392 2927  1391 1426 2927  1392 1427 2927  1426 1427 2927  1392 1393 2928  1392 1427 2928  1393 1428 2928  1427 1428 2928  1393 1394 2929  1393 1428 2929  1394 1429 2929  1428 1429 2929  1394 1395 2930  1394 1429 2930  1395 1430 2930  1429 1430 2930  1395 1396 2931  1395 1430 2931  1396 1431 2931  1430 1431 2931  1396 1397 2932  1396 1431 2932  1397 1432 2932  1431 1432 2932  1397 1398 2933  1397 1432 2933  1398 1433 2933  1432 1433 2933  1398 1399 2934  1398 1433 2934  1399 1434 2934  1433 1434 2934  1400 1401 2935  1400 1435 2935  1401 1436 2935  1435 1436 2935  1401 1402 2936  1401 1436 2936  1402 1437 2936  1436 1437 2936  1402 1403 2937  1402 1437 2937  1403 1438 2937  1437 1438 2937  1403 1404 2938  1403 1438 2938  1404 1439 2938  1438 1439 2938  1404 1405 2939  1404 1439 2939  1405 1440 2939  1439 1440 2939  1405 1406 2940  1405 1440 2940  1406 1441 2940  1440 1441 2940  1406 1407 2941  1406 1441 2941  1407 1442 2941  1441 1442 2941  1407 1408 2942  1407 1442 2942  1408 1443 2942  1442 1443 2942  1408 1409 2943  1408 1443 2943  1409 1444 2943  1443 1444 2943  1409 1410 2944  1409 1444 2944  1410 1445 2944  1444 1445 2944  1410 1411 2945  1410 1445 2945  1411 1446 2945  1445 1446 2945  1411 1412 2946  1411 1446 2946  1412 1447 2946  1446 1447 2946  1412 1413 2947  1412 1447 2947  1413 1448 2947  1447 1448 2947  1413 1414 2948  1413 1448 2948  1414 1449 2948  1448 1449 2948  1414 1415 2949  1414 1449 2949  1415 1450 2949  1449 1450 2949  1415 1416 2950  1415 1450 2950  1416 1451 2950  1450 1451 2950  1416 1417 2951  1416 1451 2951  1417 1452 2951  1451 1452 2951  1417 1418 2952  1417 1452 2952  1418 1453 2952  1452 1453 2952  1418 1419 2953  1418 1453 2953  1419 1454 2953  1453 1454 2953  1419 1420 2954  1419 1454 2954  1420 1455 2954  1454 1455 2954  1420 1421 2955  1420 1455 2955  1421 1456 2955  1455 1456 2955  1421 1422 2956  1421 1456 2956  1422 1457 2956  1456 1457 2956  1422 1423 2957  1422 1457 2957  1423 1458 2957  1457 1458 2957  1423 1424 2958  1423 1458 2958  1424 1459 2958  1458 1459 2958  1424 1425 2959  1424 1459 2959  1425 1460 2959  1459 1460 2959  1425 1426 2960  1425 1460 2960  1426 1461 2960  1460 1461 2960  1426 1427 2961  1426 1461 2961  1427 1462 2961  1461 1462 2961  1427 1428 2962  1427 1462 2962  1428 1463 2962  1462 1463 2962  1428 1429 2963  1428 1463 2963  1429 1464 2963  1463 1464 2963  1429 1430 2964  1429 1464 2964  1430 1465 2964  1464 1465 2964  1430 1431 2965  1430 1465 2965  1431 1466 2965  1465 1466 2965  1431 1432 2966  1431 1466 2966  1432 1467 2966  1466 1467 2966  1432 1433 2967  1432 1467 2967  1433 1468 2967  1467 1468 2967  1433 1434 2968  1433 1468 2968  1434 1469 2968  1468 1469 2968  1435 1436 2969  1435 1470 2969  1436 1471 2969  1470 1471 2969  1436 1437 2970  1436 1471 2970  1437 1472 2970  1471 1472 2970  1437 1438 2971  1437 1472 2971  1438 1473 2971  1472 1473 2971  1438 1439 2972  1438 1473 2972  1439 1474 2972  1473 1474 2972  1439 1440 2973  1439 1474 2973  1440 1475 2973  1474 1475 2973  1440 1441 2974  1440 1475 2974  1441 1476 2974  1475 1476 2974  1441 1442 2975  1441 1476 2975  1442 1477 2975  1476 1477 2975  1442 1443 2976  1442 1477 2976  1443 1478 2976  1477 1478 2976  1443 1444 2977  1443 1478 2977  1444 1479 2977  1478 1479 2977  1444 1445 2978  1444 1479 2978  1445 1480 2978  1479 1480 2978  1445 1446 2979  1445 1480 2979  1446 1481 2979  1480 1481 2979  1446 1447 2980  1446 1481 2980  1447 1482 2980  1481 1482 2980  1447 1448 2981  1447 1482 2981  1448 1483 2981  1482 1483 2981  1448 1449 2982  1448 1483 2982  1449 1484 2982  1483 1484 2982  1449 1450 2983  1449 1484 2983  1450 1485 2983  1484 1485 2983  1450 1451 2984  1450 1485 2984  1451 1486 2984  1485 1486 2984  1451 1452 2985  1451 1486 2985  1452 1487 2985  1486 1487 2985  1452 1453 2986  1452 1487 2986  1453 1488 2986  1487 1488 2986  1453 1454 2987  1453 1488 2987  1454 1489 2987  1488 1489 2987  1454 1455 2988  1454 1489 2988  1455 1490 2988  1489 1490 2988  1455 1456 2989  1455 1490 2989  1456 1491 2989  1490 1491 2989  1456 1457 2990  1456 1491 2990  1457 1492 2990  1491 1492 2990  1457 1458 2991  1457 1492 2991  1458 1493 2991  1492 1493 2991  1458 1459 2992  1458 1493 2992  1459 1494 2992  1493 1494 2992  1459 1460 2993  1459 1494 2993  1460 1495 2993  1494 1495 2993  1460 1461 2994  1460 1495 2994  1461 1496 2994  1495 1496 2994  1461 1462 2995  1461 1496 2995  1462 1497 2995  1496 1497 2995  1462 1463 2996  1462 1497 2996  1463 1498 2996  1497 1498 2996  1463 1464 2997  1463 1498 2997  1464 1499 2997  1498 1499 2997  1464 1465 2998  1464 1499 2998  1465 1500 2998  1499 1500 2998  1465 1466 2999  1465 1500 2999  1466 1501 2999  1500 1501 2999  1466 1467 3000  1466 1501 3000  1467 1502 3000  1501 1502 3000  1467 1468 3001  1467 1502 3001  1468 1503 3001  1502 1503 3001  1468 1469 3002  1468 1503 3002  1469 1504 3002  1503 1504 3002  1470 1471 3003  1470 1505 3003  1471 1506 3003  1505 1506 3003  1471 1472 3004  1471 1506 3004  1472 1507 3004  1506 1507 3004  1472 1473 3005  1472 1507 3005  1473 1508 3005  1507 1508 3005  1473 1474 3006  1473 1508 3006  1474 1509 3006  1508 1509 3006  1474 1475 3007  1474 1509 3007  1475 1510 3007  1509 1510 3007  1475 1476 3008  1475 1510 3008  1476 1511 3008  1510 1511 3008  1476 1477 3009  1476 1511 3009  1477 1512 3009  1511 1512 3009  1477 1478 3010  1477 1512 3010  1478 1513 3010  1512 1513 3010  1478 1479 3011  1478 1513 3011  1479 1514 3011  1513 1514 3011  1479 1480 3012  1479 1514 3012  1480 1515 3012  1514 1515 3012  1480 1481 3013  1480 1515 3013  1481 1516 3013  1515 1516 3013  1481 1482 3014  1481 1516 3014  1482 1517 3014  1516 1517 3014  1482 1483 3015  1482 1517 3015  1483 1518 3015  1517 1518 3015  1483 1484 3016  1483 1518 3016  1484 1519 3016  1518 1519 3016  1484 1485 3017  1484 1519 3017  1485 1520 3017  1519 1520 3017  1485 1486 3018  1485 1520 3018  1486 1521 3018  1520 1521 3018  1486 1487 3019  1486 1521 3019  1487 1522 3019  1521 1522 3019  1487 1488 3020  1487 1522 3020  1488 1523 3020  1522 1523 3020  1488 1489 3021  1488 1523 3021  1489 1524 3021  1523 1524 3021  1489 1490 3022  1489 1524 3022  1490 1525 3022  1524 1525 3022  1490 1491 3023  1490 1525 3023  1491 1526 3023  1525 1526 3023  1491 1492 3024  1491 1526 3024  1492 1527 3024  1526 1527 3024  1492 1493 3025  1492 1527 3025  1493 1528 3025  1527 1528 3025  1493 1494 3026  1493 1528 3026  1494 1529 3026  1528 1529 3026  1494 1495 3027  1494 1529 3027  1495 1530 3027  1529 1530 3027  1495 1496 3028  1495 1530 3028  1496 1531 3028  1530 1531 3028  1496 1497 3029  1496 1531 3029  1497 1532 3029  1531 1532 3029  1497 1498 3030  1497 1532 3030  1498 1533 3030  1532 1533 3030  1498 1499 3031  1498 1533 3031  1499 1534 3031  1533 1534 3031  1499 1500 3032  1499 1534 3032  1500 1535 3032  1534 1535 3032  1500 1501 3033  1500 1535 3033  1501 1536 3033  1535 1536 3033  1501 1502 3034  1501 1536 3034  1502 1537 3034  1536 1537 3034  1502 1503 3035  1502 1537 3035  1503 1538 3035  1537 1538 3035  1503 1504 3036  1503 1538 3036  1504 1539 3036  1538 1539 3036  1505 1506 3037  1505 1540 3037  1506 1541 3037  1540 1541 3037  1506 1507 3038  1506 1541 3038  1507 1542 3038  1541 1542 3038  1507 1508 3039  1507 1542 3039  1508 1543 3039  1542 1543 3039  1508 1509 3040  1508 1543 3040  1509 1544 3040  1543 1544 3040  1509 1510 3041  1509 1544 3041  1510 1545 3041  1544 1545 3041  1510 1511 3042  1510 1545 3042  1511 1546 3042  1545 1546 3042  1511 1512 3043  1511 1546 3043  1512 1547 3043  1546 1547 3043  1512 1513 3044  1512 1547 3044  1513 1548 3044  1547 1548 3044  1513 1514 3045  1513 1548 3045  1514 1549 3045  1548 1549 3045  1514 1515 3046  1514 1549 3046  1515 1550 3046  1549 1550 3046  1515 1516 3047  1515 1550 3047  1516 1551 3047  1550 1551 3047  1516 1517 3048  1516 1551 3048  1517 1552 3048  1551 1552 3048  1517 1518 3049  1517 1552 3049  1518 1553 3049  1552 1553 3049  1518 1519 3050  1518 1553 3050  1519 1554 3050  1553 1554 3050  1519 1520 3051  1519 1554 3051  1520 1555 3051  1554 1555 3051  1520 1521 3052  1520 1555 3052  1521 1556 3052  1555 1556 3052  1521 1522 3053  1521 1556 3053  1522 1557 3053  1556 1557 3053  1522 1523 3054  1522 1557 3054  1523 1558 3054  1557 1558 3054  1523 1524 3055  1523 1558 3055  1524 1559 3055  1558 1559 3055  1524 1525 3056  1524 1559 3056  1525 1560 3056  1559 1560 3056  1525 1526 3057  1525 1560 3057  1526 1561 3057  1560 1561 3057  1526 1527 3058  1526 1561 3058  1527 1562 3058  1561 1562 3058  1527 1528 3059  1527 1562 3059  1528 1563 3059  1562 1563 3059  1528 1529 3060  1528 1563 3060  1529 1564 3060  1563 1564 3060  1529 1530 3061  1529 1564 3061  1530 1565 3061  1564 1565 3061  1530 1531 3062  1530 1565 3062  1531 1566 3062  1565 1566 3062  1531 1532 3063  1531 1566 3063  1532 1567 3063  1566 1567 3063  1532 1533 3064  1532 1567 3064  1533 1568 3064  1567 1568 3064  1533 1534 3065  1533 1568 3065  1534 1569 3065  1568 1569 3065  1534 1535 3066  1534 1569 3066  1535 1570 3066  1569 1570 3066  1535 1536 3067  1535 1570 3067  1536 1571 3067  1570 1571 3067  1536 1537 3068  1536 1571 3068  1537 1572 3068  1571 1572 3068  1537 1538 3069  1537 1572 3069  1538 1573 3069  1572 1573 3069  1538 1539 3070  1538 1573 3070  1539 1574 3070  1573 1574 3070  </DataArray>
<DataArray  type="UInt32"  Name="offsets"  format="ascii">3 6 9 12 15 18 21 24 27 30 33 36 39 42 45 48 51 54 57 60 63 66 69 72 75 78 81 84 87 90 93 96 99 102 105 108 111 114 117 120 123 126 129 132 135 138 141 144 147 150 153 156 159 162 165 168 171 174 177 180 183 186 189 192 195 198 201 204 207 210 213 216 219 222 225 228 231 234 237 240 243 246 249 252 255 258 261 264 267 270 273 276 279 282 285 288 291 294 297 300 303 306 309 312 315 318 321 324 327 330 333 336 339 342 345 348 351 354 357 360 363 366 369 372 375 378 381 384 387 390 393 396 399 402 405 408 411 414 417 420 423 426 429 432 435 438 441 444 447 450 453 456 459 462 465 468 471 474 477 480 483 486 489 492 495 498 501 504 507 510 513 516 519 522 525 528 531 534 537 540 543 546 549 552 555 558 561 564 567 570 573 576 579 582 585 588 591 594 597 600 603 606 609 612 615 618 621 624 627 630 633 636 639 642 645 648 651 654 657 660 663 666 669 672 675 678 681 684 687 690 693 696 699 702 705 708 711 714 717 720 723 726 729 732 735 738 741 744 747 750 753 756 759 762 765 768 771 774 777 780 783 786 789 792 795 798 801 804 807 810 813 816 819 822 825 828 831 834 837 840 843 846 849 852 855 858 861 864 867 870 873 876 879 882 885 888 891 894 897 900 903 906 909 912 915 918 921 924 927 930 933 936 939 942 945 948 951 954 957 960 963 966 969 972 975 978 981 984 987 990 993 996 999 1002 1005 1008 1011 1014 1017 1020 1023 1026 1029 1032 1035 1038 1041 1044 1047 1050 1053 1056 1059 1062 1065 1068 1071 1074 1077 1080 1083 1086 1089 1092 1095 1098 1101 1104 1107 1110 1113 1116 1119 1122 1125 1128 1131 1134 1137 1140 1143 1146 1149 1152 1155 1158 1161 1164 1167 1170 1173 1176 1179 1182 1185 1188 1191 1194 1197 1200 1203 1206 1209 1212 1215 1218 1221 1224 1227 1230 1233 1236 1239 1242 1245 1248 1251 1254 1257 1260 1263 1266 1269 1272 1275 1278 1281 1284 1287 1290 1293 1296 1299 1302 1305 1308 1311 1314 1317 1320 1323 1326 1329 1332 1335 1338 1341 1344 1347 1350 1353 1356 1359 1362 1365 1368 1371 1374 1377 1380 1383 1386 1389 1392 1395 1398 1401 1404 1407 1410 1413 1416 1419 1422 1425 1428 1431 1434 1437 1440 1443 1446 1449 1452 1455 1458 1461 1464 1467 1470 1473 1476 1479 1482 1485 1488 1491 1494 1497 1500 1503 1506 1509 1512 1515 1518 1521 1524 1527 1530 1533 1536 1539 1542 1545 1548 1551 1554 1557 1560 1563 1566 1569 1572 1575 1578 1581 1584 1587 1590 1593 1596 1599 1602 1605 1608 1611 1614 1617 1620 1623 1626 1629 1632 1635 1638 1641 1644 1647 1650 1653 1656 1659 1662 1665 1668 1671 1674 1677 1680 1683 1686 1689 1692 1695 1698 1701 1704 1707 1710 1713 1716 1719 1722 1725 1728 1731 1734 1737 1740 1743 1746 1749 1752 1755 1758 1761 1764 1767 1770 1773 1776 1779 1782 1785 1788 1791 1794 1797 1800 1803 1806 1809 1812 1815 1818 1821 1824 1827 1830 1833 1836 1839 1842 1845 1848 1851 1854 1857 1860 1863 1866 1869 1872 1875 1878 1881 1884 1887 1890 1893 1896 1899 1902 1905 1908 1911 1914 1917 1920 1923 1926 1929 1932 1935 1938 1941 1944 1947 1950 1953 1956 1959 1962 1965 1968 1971 1974 1977 1980 1983 1986 1989 1992 1995 1998 2001 2004 2007 2010 2013 2016 2019 2022 2025 2028 2031 2034 2037 2040 2043 2046 2049 2052 2055 2058 2061 2064 2067 2070 2073 2076 2079 2082 2085 2088 2091 2094 2097 2100 2103 2106 2109 2112 2115 2118 2121 2124 2127 2130 2133 2136 2139 2142 2145 2148 2151 2154 2157 2160 2163 2166 2169 2172 2175 2178 2181 2184 2187 2190 2193 2196 2199 2202 2205 2208 2211 2214 2217 2220 2223 2226 2229 2232 2235 2238 2241 2244 2247 2250 2253 2256 2259 2262 2265 2268 2271 2274 2277 2280 2283 2286 2289 2292 2295 2298 2301 2304 2307 2310 2313 2316 2319 2322 2325 2328 2331 2334 2337 2340 2343 2346 2349 2352 2355 2358 2361 2364 2367 2370 2373 2376 2379 2382 2385 2388 2391 2394 2397 2400 2403 2406 2409 2412 2415 2418 2421 2424 2427 2430 2433 2436 2439 2442 2445 2448 2451 2454 2457 2460 2463 2466 2469 2472 2475 2478 2481 2484 2487 2490 2493 2496 2499 2502 2505 2508 2511 2514 2517 2520 2523 2526 2529 2532 2535 2538 2541 2544 2547 2550 2553 2556 2559 2562 2565 2568 2571 2574 2577 2580 2583 2586 2589 2592 2595 2598 2601 2604 2607 2610 2613 2616 2619 2622 2625 2628 2631 2634 2637 2640 2643 2646 2649 2652 2655 2658 2661 2664 2667 2670 2673 2676 2679 2682 2685 2688 2691 2694 2697 2700 2703 2706 2709 2712 2715 2718 2721 2724 2727 2730 2733 2736 2739 2742 2745 2748 2751 2754 2757 2760 2763 2766 2769 2772 2775 2778 2781 2784 2787 2790 2793 2796 2799 2802 2805 2808 2811 2814 2817 2820 2823 2826 2829 2832 2835 2838 2841 2844 2847 2850 2853 2856 2859 2862 2865 2868 2871 2874 2877 2880 2883 2886 2889 2892 2895 2898 2901 2904 2907 2910 2913 2916 2919 2922 2925 2928 2931 2934 2937 2940 2943 2946 2949 2952 2955 2958 2961 2964 2967 2970 2973 2976 2979 2982 2985 2988 2991 2994 2997 3000 3003 3006 3009 3012 3015 3018 3021 3024 3027 3030 3033 3036 3039 3042 3045 3048 3051 3054 3057 3060 3063 3066 3069 3072 3075 3078 3081 3084 3087 3090 3093 3096 3099 3102 3105 3108 3111 3114 3117 3120 3123 3126 3129 3132 3135 3138 3141 3144 3147 3150 3153 3156 3159 3162 3165 3168 3171 3174 3177 3180 3183 3186 3189 3192 3195 3198 3201 3204 3207 3210 3213 3216 3219 3222 3225 3228 3231 3234 3237 3240 3243 3246 3249 3252 3255 3258 3261 3264 3267 3270 3273 3276 3279 3282 3285 3288 3291 3294 3297 3300 3303 3306 3309 3312 3315 3318 3321 3324 3327 3330 3333 3336 3339 3342 3345 3348 3351 3354 3357 3360 3363 3366 3369 3372 3375 3378 3381 3384 3387 3390 3393 3396 3399 3402 3405 3408 3411 3414 3417 3420 3423 3426 3429 3432 3435 3438 3441 3444 3447 3450 3453 3456 3459 3462 3465 3468 3471 3474 3477 3480 3483 3486 3489 3492 3495 3498 3501 3504 3507 3510 3513 3516 3519 3522 3525 3528 3531 3534 3537 3540 3543 3546 3549 3552 3555 3558 3561 3564 3567 3570 3573 3576 3579 3582 3585 3588 3591 3594 3597 3600 3603 3606 3609 3612 3615 3618 3621 3624 3627 3630 3633 3636 3639 3642 3645 3648 3651 3654 3657 3660 3663 3666 3669 3672 3675 3678 3681 3684 3687 3690 3693 3696 3699 3702 3705 3708 3711 3714 3717 3720 3723 3726 3729 3732 3735 3738 3741 3744 3747 3750 3753 3756 3759 3762 3765 3768 3771 3774 3777 3780 3783 3786 3789 3792 3795 3798 3801 3804 3807 3810 3813 3816 3819 3822 3825 3828 3831 3834 3837 3840 3843 3846 3849 3852 3855 3858 3861 3864 3867 3870 3873 3876 3879 3882 3885 3888 3891 3894 3897 3900 3903 3906 3909 3912 3915 3918 3921 3924 3927 3930 3933 3936 3939 3942 3945 3948 3951 3954 3957 3960 3963 3966 3969 3972 3975 3978 3981 3984 3987 3990 3993 3996 3999 4002 4005 4008 4011 4014 4017 4020 4023 4026 4029 4032 4035 4038 4041 4044 4047 4050 4053 4056 4059 4062 4065 4068 4071 4074 4077 4080 4083 4086 4089 4092 4095 4098 4101 4104 4107 4110 4113 4116 4119 4122 4125 4128 4131 4134 4137 4140 4143 4146 4149 4152 4155 4158 4161 4164 4167 4170 4173 4176 4179 4182 4185 4188 4191 4194 4197 4200 4203 4206 4209 4212 4215 4218 4221 4224 4227 4230 4233 4236 4239 4242 4245 4248 4251 4254 4257 4260 4263 4266 4269 4272 4275 4278 4281 4284 4287 4290 4293 4296 4299 4302 4305 4308 4311 4314 4317 4320 4323 4326 4329 4332 4335 4338 4341 4344 4347 4350 4353 4356 4359 4362 4365 4368 4371 4374 4377 4380 4383 4386 4389 4392 4395 4398 4401 4404 4407 4410 4413 4416 4419 4422 4425 4428 4431 4434 4437 4440 4443 4446 4449 4452 4455 4458 4461 4464 4467 4470 4473 4476 4479 4482 4485 4488 4491 4494 4497 4500 4503 4506 4509 4512 4515 4518 4521 4524 4527 4530 4533 4536 4539 4542 4545 4548 4551 4554 4557 4560 4563 4566 4569 4572 4575 4578 4581 4584 4587 4590 4593 4596 4599 4602 4605 4608 4611 4614 4617 4620 4623 4626 4629 4632 4635 4638 4641 4644 4647 4650 4653 4656 4659 4662 4665 4668 4671 4674 4677 4680 4683 4686 4689 4692 4695 4698 4701 4704 4707 4710 4713 4716 4719 4722 4725 4728 4731 4734 4737 4740 4743 4746 4749 4752 4755 4758 4761 4764 4767 4770 4773 4776 4779 4782 4785 4788 4791 4794 4797 4800 4803 4806 4809 4812 4815 4818 4821 4824 4827 4830 4833 4836 4839 4842 4845 4848 4851 4854 4857 4860 4863 4866 4869 4872 4875 4878 4881 4884 4887 4890 4893 4896 4899 4902 4905 4908 4911 4914 4917 4920 4923 4926 4929 4932 4935 4938 4941 4944 4947 4950 4953 4956 4959 4962 4965 4968 4971 4974 4977 4980 4983 4986 4989 4992 4995 4998 5001 5004 5007 5010 5013 5016 5019 5022 5025 5028 5031 5034 5037 5040 5043 5046 5049 5052 5055 5058 5061 5064 5067 5070 5073 5076 5079 5082 5085 5088 5091 5094 5097 5100 5103 5106 5109 5112 5115 5118 5121 5124 5127 5130 5133 5136 5139 5142 5145 5148 5151 5154 5157 5160 5163 5166 5169 5172 5175 5178 5181 5184 5187 5190 5193 5196 5199 5202 5205 5208 5211 5214 5217 5220 5223 5226 5229 5232 5235 5238 5241 5244 5247 5250 5253 5256 5259 5262 5265 5268 5271 5274 5277 5280 5283 5286 5289 5292 5295 5298 5301 5304 5307 5310 5313 5316 5319 5322 5325 5328 5331 5334 5337 5340 5343 5346 5349 5352 5355 5358 5361 5364 5367 5370 5373 5376 5379 5382 5385 5388 5391 5394 5397 5400 5403 5406 5409 5412 5415 5418 5421 5424 5427 5430 5433 5436 5439 5442 5445 5448 5451 5454 5457 5460 5463 5466 5469 5472 5475 5478 5481 5484 5487 5490 5493 5496 5499 5502 5505 5508 5511 5514 5517 5520 5523 5526 5529 5532 5535 5538 5541 5544 5547 5550 5553 5556 5559 5562 5565 5568 5571 5574 5577 5580 5583 5586 5589 5592 5595 5598 5601 5604 5607 5610 5613 5616 5619 5622 5625 5628 5631 5634 5637 5640 5643 5646 5649 5652 5655 5658 5661 5664 5667 5670 5673 5676 5679 5682 5685 5688 5691 5694 5697 5700 5703 5706 5709 5712 5715 5718 5721 5724 5727 5730 5733 5736 5739 5742 5745 5748 5751 5754 5757 5760 5763 5766 5769 5772 5775 5778 5781 5784 5787 5790 5793 5796 5799 5802 5805 5808 5811 5814 5817 5820 5823 5826 5829 5832 5835 5838 5841 5844 5847 5850 5853 5856 5859 5862 5865 5868 5871 5874 5877 5880 5883 5886 5889 5892 5895 5898 5901 5904 5907 5910 5913 5916 5919 5922 5925 5928 5931 5934 5937 5940 5943 5946 5949 5952 5955 5958 5961 5964 5967 5970 5973 5976 5979 5982 5985 5988 5991 5994 5997 6000 6003 6006 6009 6012 6015 6018 6021 6024 6027 6030 6033 6036 6039 6042 6045 6048 6051 6054 6057 6060 6063 6066 6069 6072 6075 6078 6081 6084 6087 6090 6093 6096 6099 6102 6105 6108 6111 6114 6117 6120 6123 6126 6129 6132 6135 6138 6141 6144 6147 6150 6153 6156 6159 6162 6165 6168 6171 6174 6177 6180 6183 6186 6189 6192 6195 6198 6201 6204 6207 6210 6213 6216 6219 6222 6225 6228 6231 6234 6237 6240 6243 6246 6249 6252 6255 6258 6261 6264 6267 6270 6273 6276 6279 6282 6285 6288 6291 6294 6297 6300 6303 6306 6309 6312 6315 6318 6321 6324 6327 6330 6333 6336 6339 6342 6345 6348 6351 6354 6357 6360 6363 6366 6369 6372 6375 6378 6381 6384 6387 6390 6393 6396 6399 6402 6405 6408 6411 6414 6417 6420 6423 6426 6429 6432 6435 6438 6441 6444 6447 6450 6453 6456 6459 6462 6465 6468 6471 6474 6477 6480 6483 6486 6489 6492 6495 6498 6501 6504 6507 6510 6513 6516 6519 6522 6525 6528 6531 6534 6537 6540 6543 6546 6549 6552 6555 6558 6561 6564 6567 6570 6573 6576 6579 6582 6585 6588 6591 6594 6597 6600 6603 6606 6609 6612 6615 6618 6621 6624 6627 6630 6633 6636 6639 6642 6645 6648 6651 6654 6657 6660 6663 6666 6669 6672 6675 6678 6681 6684 6687 6690 6693 6696 6699 6702 6705 6708 6711 6714 6717 6720 6723 6726 6729 6732 6735 6738 6741 6744 6747 6750 6753 6756 6759 6762 6765 6768 6771 6774 6777 6780 6783 6786 6789 6792 6795 6798 6801 6804 6807 6810 6813 6816 6819 6822 6825 6828 6831 6834 6837 6840 6843 6846 6849 6852 6855 6858 6861 6864 6867 6870 6873 6876 6879 6882 6885 6888 6891 6894 6897 6900 6903 6906 6909 6912 6915 6918 6921 6924 6927 6930 6933 6936 6939 6942 6945 6948 6951 6954 6957 6960 6963 6966 6969 6972 6975 6978 6981 6984 6987 6990 6993 6996 6999 7002 7005 7008 7011 7014 7017 7020 7023 7026 7029 7032 7035 7038 7041 7044 7047 7050 7053 7056 7059 7062 7065 7068 7071 7074 7077 7080 7083 7086 7089 7092 7095 7098 7101 7104 7107 7110 7113 7116 7119 7122 7125 7128 7131 7134 7137 7140 7143 7146 7149 7152 7155 7158 7161 7164 7167 7170 7173 7176 7179 7182 7185 7188 7191 7194 7197 7200 7203 7206 7209 7212 7215 7218 7221 7224 7227 7230 7233 7236 7239 7242 7245 7248 7251 7254 7257 7260 7263 7266 7269 7272 7275 7278 7281 7284 7287 7290 7293 7296 7299 7302 7305 7308 7311 7314 7317 7320 7323 7326 7329 7332 7335 7338 7341 7344 7347 7350 7353 7356 7359 7362 7365 7368 7371 7374 7377 7380 7383 7386 7389 7392 7395 7398 7401 7404 7407 7410 7413 7416 7419 7422 7425 7428 7431 7434 7437 7440 7443 7446 7449 7452 7455 7458 7461 7464 7467 7470 7473 7476 7479 7482 7485 7488 7491 7494 7497 7500 7503 7506 7509 7512 7515 7518 7521 7524 7527 7530 7533 7536 7539 7542 7545 7548 7551 7554 7557 7560 7563 7566 7569 7572 7575 7578 7581 7584 7587 7590 7593 7596 7599 7602 7605 7608 7611 7614 7617 7620 7623 7626 7629 7632 7635 7638 7641 7644 7647 7650 7653 7656 7659 7662 7665 7668 7671 7674 7677 7680 7683 7686 7689 7692 7695 7698 7701 7704 7707 7710 7713 7716 7719 7722 7725 7728 7731 7734 7737 7740 7743 7746 7749 7752 7755 7758 7761 7764 7767 7770 7773 7776 7779 7782 7785 7788 7791 7794 7797 7800 7803 7806 7809 7812 7815 7818 7821 7824 7827 7830 7833 7836 7839 7842 7845 7848 7851 7854 7857 7860 7863 7866 7869 7872 7875 7878 7881 7884 7887 7890 7893 7896 7899 7902 7905 7908 7911 7914 7917 7920 7923 7926 7929 7932 7935 7938 7941 7944 7947 7950 7953 7956 7959 7962 7965 7968 7971 7974 7977 7980 7983 7986 7989 7992 7995 7998 8001 8004 8007 8010 8013 8016 8019 8022 8025 8028 8031 8034 8037 8040 8043 8046 8049 8052 8055 8058 8061 8064 8067 8070 8073 8076 8079 8082 8085 8088 8091 8094 8097 8100 8103 8106 8109 8112 8115 8118 8121 8124 8127 8130 8133 8136 8139 8142 8145 8148 8151 8154 8157 8160 8163 8166 8169 8172 8175 8178 8181 8184 8187 8190 8193 8196 8199 8202 8205 8208 8211 8214 8217 8220 8223 8226 8229 8232 8235 8238 8241 8244 8247 8250 8253 8256 8259 8262 8265 8268 8271 8274 8277 8280 8283 8286 8289 8292 8295 8298 8301 8304 8307 8310 8313 8316 8319 8322 8325 8328 8331 8334 8337 8340 8343 8346 8349 8352 8355 8358 8361 8364 8367 8370 8373 8376 8379 8382 8385 8388 8391 8394 8397 8400 8403 8406 8409 8412 8415 8418 8421 8424 8427 8430 8433 8436 8439 8442 8445 8448 8451 8454 8457 8460 8463 8466 8469 8472 8475 8478 8481 8484 8487 8490 8493 8496 8499 8502 8505 8508 8511 8514 8517 8520 8523 8526 8529 8532 8535 8538 8541 8544 8547 8550 8553 8556 8559 8562 8565 8568 8571 8574 8577 8580 8583 8586 8589 8592 8595 8598 8601 8604 8607 8610 8613 8616 8619 8622 8625 8628 8631 8634 8637 8640 8643 8646 8649 8652 8655 8658 8661 8664 8667 8670 8673 8676 8679 8682 8685 8688 8691 8694 8697 8700 8703 8706 8709 8712 8715 8718 8721 8724 8727 8730 8733 8736 8739 8742 8745 8748 8751 8754 8757 8760 8763 8766 8769 8772 8775 8778 8781 8784 8787 8790 8793 8796 8799 8802 8805 8808 8811 8814 8817 8820 8823 8826 8829 8832 8835 8838 8841 8844 8847 8850 8853 8856 8859 8862 8865 8868 8871 8874 8877 8880 8883 8886 8889 8892 8895 8898 8901 8904 8907 8910 8913 8916 8919 8922 8925 8928 8931 8934 8937 8940 8943 8946 8949 8952 8955 8958 8961 8964 8967 8970 8973 8976 8979 8982 8985 8988 8991 8994 8997 9000 9003 9006 9009 9012 9015 9018 9021 9024 9027 9030 9033 9036 9039 9042 9045 9048 9051 9054 9057 9060 9063 9066 9069 9072 9075 9078 9081 9084 9087 9090 9093 9096 9099 9102 9105 9108 9111 9114 9117 9120 9123 9126 9129 9132 9135 9138 9141 9144 9147 9150 9153 9156 9159 9162 9165 9168 9171 9174 9177 9180 9183 9186 9189 9192 9195 9198 9201 9204 9207 9210 9213 9216 9219 9222 9225 9228 9231 9234 9237 9240 9243 9246 9249 9252 9255 9258 9261 9264 9267 9270 9273 9276 9279 9282 9285 9288 9291 9294 9297 9300 9303 9306 9309 9312 9315 9318 9321 9324 9327 9330 9333 9336 9339 9342 9345 9348 9351 9354 9357 9360 9363 9366 9369 9372 9375 9378 9381 9384 9387 9390 9393 9396 9399 9402 9405 9408 9411 9414 9417 9420 9423 9426 9429 9432 9435 9438 9441 9444 9447 9450 9453 9456 9459 9462 9465 9468 9471 9474 9477 9480 9483 9486 9489 9492 9495 9498 9501 9504 9507 9510 9513 9516 9519 9522 9525 9528 9531 9534 9537 9540 9543 9546 9549 9552 9555 9558 9561 9564 9567 9570 9573 9576 9579 9582 9585 9588 9591 9594 9597 9600 9603 9606 9609 9612 9615 9618 9621 9624 9627 9630 9633 9636 9639 9642 9645 9648 9651 9654 9657 9660 9663 9666 9669 9672 9675 9678 9681 9684 9687 9690 9693 9696 9699 9702 9705 9708 9711 9714 9717 9720 9723 9726 9729 9732 9735 9738 9741 9744 9747 9750 9753 9756 9759 9762 9765 9768 9771 9774 9777 9780 9783 9786 9789 9792 9795 9798 9801 9804 9807 9810 9813 9816 9819 9822 9825 9828 9831 9834 9837 9840 9843 9846 9849 9852 9855 9858 9861 9864 9867 9870 9873 9876 9879 9882 9885 9888 9891 9894 9897 9900 9903 9906 9909 9912 9915 9918 9921 9924 9927 9930 9933 9936 9939 9942 9945 9948 9951 9954 9957 9960 9963 9966 9969 9972 9975 9978 9981 9984 9987 9990 9993 9996 9999 10002 10005 10008 10011 10014 10017 10020 10023 10026 10029 10032 10035 10038 10041 10044 10047 10050 10053 10056 10059 10062 10065 10068 10071 10074 10077 10080 10083 10086 10089 10092 10095 10098 10101 10104 10107 10110 10113 10116 10119 10122 10125 10128 10131 10134 10137 10140 10143 10146 10149 10152 10155 10158 10161 10164 10167 10170 10173 10176 10179 10182 10185 10188 10191 10194 10197 10200 10203 10206 10209 10212 10215 10218 10221 10224 10227 10230 10233 10236 10239 10242 10245 10248 10251 10254 10257 10260 10263 10266 10269 10272 10275 10278 10281 10284 10287 10290 10293 10296 10299 10302 10305 10308 10311 10314 10317 10320 10323 10326 10329 10332 10335 10338 10341 10344 10347 10350 10353 10356 10359 10362 10365 10368 10371 10374 10377 10380 10383 10386 10389 10392 10395 10398 10401 10404 10407 10410 10413 10416 10419 10422 10425 10428 10431 10434 10437 10440 10443 10446 10449 10452 10455 10458 10461 10464 10467 10470 10473 10476 10479 10482 10485 10488 10491 10494 10497 10500 10503 10506 10509 10512 10515 10518 10521 10524 10527 10530 10533 10536 10539 10542 10545 10548 10551 10554 10557 10560 10563 10566 10569 10572 10575 10578 10581 10584 10587 10590 10593 10596 10599 10602 10605 10608 10611 10614 10617 10620 10623 10626 10629 10632 10635 10638 10641 10644 10647 10650 10653 10656 10659 10662 10665 10668 10671 10674 10677 10680 10683 10686 10689 10692 10695 10698 10701 10704 10707 10710 10713 10716 10719 10722 10725 10728 10731 10734 10737 10740 10743 10746 10749 10752 10755 10758 10761 10764 10767 10770 10773 10776 10779 10782 10785 10788 10791 10794 10797 10800 10803 10806 10809 10812 10815 10818 10821 10824 10827 10830 10833 10836 10839 10842 10845 10848 10851 10854 10857 10860 10863 10866 10869 10872 10875 10878 10881 10884 10887 10890 10893 10896 10899 10902 10905 10908 10911 10914 10917 10920 10923 10926 10929 10932 10935 10938 10941 10944 10947 10950 10953 10956 10959 10962 10965 10968 10971 10974 10977 10980 10983 10986 10989 10992 10995 10998 11001 11004 11007 11010 11013 11016 11019 11022 11025 11028 11031 11034 11037 11040 11043 11046 11049 11052 11055 11058 11061 11064 11067 11070 11073 11076 11079 11082 11085 11088 11091 11094 11097 11100 11103 11106 11109 11112 11115 11118 11121 11124 11127 11130 11133 11136 11139 11142 11145 11148 11151 11154 11157 11160 11163 11166 11169 11172 11175 11178 11181 11184 11187 11190 11193 11196 11199 11202 11205 11208 11211 11214 11217 11220 11223 11226 11229 11232 11235 11238 11241 11244 11247 11250 11253 11256 11259 11262 11265 11268 11271 11274 11277 11280 11283 11286 11289 11292 11295 11298 11301 11304 11307 11310 11313 11316 11319 11322 11325 11328 11331 11334 11337 11340 11343 11346 11349 11352 11355 11358 11361 11364 11367 11370 11373 11376 11379 11382 11385 11388 11391 11394 11397 11400 11403 11406 11409 11412 11415 11418 11421 11424 11427 11430 11433 11436 11439 11442 11445 11448 11451 11454 11457 11460 11463 11466 11469 11472 11475 11478 11481 11484 11487 11490 11493 11496 11499 11502 11505 11508 11511 11514 11517 11520 11523 11526 11529 11532 11535 11538 11541 11544 11547 11550 11553 11556 11559 11562 11565 11568 11571 11574 11577 11580 11583 11586 11589 11592 11595 11598 11601 11604 11607 11610 11613 11616 11619 11622 11625 11628 11631 11634 11637 11640 11643 11646 11649 11652 11655 11658 11661 11664 11667 11670 11673 11676 11679 11682 11685 11688 11691 11694 11697 11700 11703 11706 11709 11712 11715 11718 11721 11724 11727 11730 11733 11736 11739 11742 11745 11748 11751 11754 11757 11760 11763 11766 11769 11772 11775 11778 11781 11784 11787 11790 11793 11796 11799 11802 11805 11808 11811 11814 11817 11820 11823 11826 11829 11832 11835 11838 11841 11844 11847 11850 11853 11856 11859 11862 11865 11868 11871 11874 11877 11880 11883 11886 11889 11892 11895 11898 11901 11904 11907 11910 11913 11916 11919 11922 11925 11928 11931 11934 11937 11940 11943 11946 11949 11952 11955 11958 11961 11964 11967 11970 11973 11976 11979 11982 11985 11988 11991 11994 11997 12000 12003 12006 12009 12012 12015 12018 12021 12024 12027 12030 12033 12036 12039 12042 12045 12048 12051 12054 12057 12060 12063 12066 12069 12072 12075 12078 12081 12084 12087 12090 12093 12096 12099 12102 12105 12108 12111 12114 12117 12120 12123 12126 12129 12132 12135 12138 12141 12144 12147 12150 12153 12156 12159 12162 12165 12168 12171 12174 12177 12180 12183 12186 12189 12192 12195 12198 12201 12204 12207 12210 12213 12216 12219 12222 12225 12228 12231 12234 12237 12240 12243 12246 12249 12252 12255 12258 12261 12264 12267 12270 12273 12276 12279 12282 12285 12288 12291 12294 12297 12300 12303 12306 12309 12312 12315 12318 12321 12324 12327 12330 12333 12336 12339 12342 12345 12348 12351 12354 12357 12360 12363 12366 12369 12372 12375 12378 12381 12384 12387 12390 12393 12396 12399 12402 12405 12408 12411 12414 12417 12420 12423 12426 12429 12432 12435 12438 12441 12444 12447 12450 12453 12456 12459 12462 12465 12468 12471 12474 12477 12480 12483 12486 12489 12492 12495 12498 12501 12504 12507 12510 12513 12516 12519 12522 12525 12528 12531 12534 12537 12540 12543 12546 12549 12552 12555 12558 12561 12564 12567 12570 12573 12576 12579 12582 12585 12588 12591 12594 12597 12600 12603 12606 12609 12612 12615 12618 12621 12624 12627 12630 12633 12636 12639 12642 12645 12648 12651 12654 12657 12660 12663 12666 12669 12672 12675 12678 12681 12684 12687 12690 12693 12696 12699 12702 12705 12708 12711 12714 12717 12720 12723 12726 12729 12732 12735 12738 12741 12744 12747 12750 12753 12756 12759 12762 12765 12768 12771 12774 12777 12780 12783 12786 12789 12792 12795 12798 12801 12804 12807 12810 12813 12816 12819 12822 12825 12828 12831 12834 12837 12840 12843 12846 12849 12852 12855 12858 12861 12864 12867 12870 12873 12876 12879 12882 12885 12888 12891 12894 12897 12900 12903 12906 12909 12912 12915 12918 12921 12924 12927 12930 12933 12936 12939 12942 12945 12948 12951 12954 12957 12960 12963 12966 12969 12972 12975 12978 12981 12984 12987 12990 12993 12996 12999 13002 13005 13008 13011 13014 13017 13020 13023 13026 13029 13032 13035 13038 13041 13044 13047 13050 13053 13056 13059 13062 13065 13068 13071 13074 13077 13080 13083 13086 13089 13092 13095 13098 13101 13104 13107 13110 13113 13116 13119 13122 13125 13128 13131 13134 13137 13140 13143 13146 13149 13152 13155 13158 13161 13164 13167 13170 13173 13176 13179 13182 13185 13188 13191 13194 13197 13200 13203 13206 13209 13212 13215 13218 13221 13224 13227 13230 13233 13236 13239 13242 13245 13248 13251 13254 13257 13260 13263 13266 13269 13272 13275 13278 13281 13284 13287 13290 13293 13296 13299 13302 13305 13308 13311 13314 13317 13320 13323 13326 13329 13332 13335 13338 13341 13344 13347 13350 13353 13356 13359 13362 13365 13368 13371 13374 13377 13380 13383 13386 13389 13392 13395 13398 13401 13404 13407 13410 13413 13416 13419 13422 13425 13428 13431 13434 13437 13440 13443 13446 13449 13452 13455 13458 13461 13464 13467 13470 13473 13476 13479 13482 13485 13488 13491 13494 13497 13500 13503 13506 13509 13512 13515 13518 13521 13524 13527 13530 13533 13536 13539 13542 13545 13548 13551 13554 13557 13560 13563 13566 13569 13572 13575 13578 13581 13584 13587 13590 13593 13596 13599 13602 13605 13608 13611 13614 13617 13620 13623 13626 13629 13632 13635 13638 13641 13644 13647 13650 13653 13656 13659 13662 13665 13668 13671 13674 13677 13680 13683 13686 13689 13692 13695 13698 13701 13704 13707 13710 13713 13716 13719 13722 13725 13728 13731 13734 13737 13740 13743 13746 13749 13752 13755 13758 13761 13764 13767 13770 13773 13776 13779 13782 13785 13788 13791 13794 13797 13800 13803 13806 13809 13812 13815 13818 13821 13824 13827 13830 13833 13836 13839 13842 13845 13848 13851 13854 13857 13860 13863 13866 13869 13872 13875 13878 13881 13884 13887 13890 13893 13896 13899 13902 13905 13908 13911 13914 13917 13920 13923 13926 13929 13932 13935 13938 13941 13944 13947 13950 13953 13956 13959 13962 13965 13968 13971 13974 13977 13980 13983 13986 13989 13992 13995 13998 14001 14004 14007 14010 14013 14016 14019 14022 14025 14028 14031 14034 14037 14040 14043 14046 14049 14052 14055 14058 14061 14064 14067 14070 14073 14076 14079 14082 14085 14088 14091 14094 14097 14100 14103 14106 14109 14112 14115 14118 14121 14124 14127 14130 14133 14136 14139 14142 14145 14148 14151 14154 14157 14160 14163 14166 14169 14172 14175 14178 14181 14184 14187 14190 14193 14196 14199 14202 14205 14208 14211 14214 14217 14220 14223 14226 14229 14232 14235 14238 14241 14244 14247 14250 14253 14256 14259 14262 14265 14268 14271 14274 14277 14280 14283 14286 14289 14292 14295 14298 14301 14304 14307 14310 14313 14316 14319 14322 14325 14328 14331 14334 14337 14340 14343 14346 14349 14352 14355 14358 14361 14364 14367 14370 14373 14376 14379 14382 14385 14388 14391 14394 14397 14400 14403 14406 14409 14412 14415 14418 14421 14424 14427 14430 14433 14436 14439 14442 14445 14448 14451 14454 14457 14460 14463 14466 14469 14472 14475 14478 14481 14484 14487 14490 14493 14496 14499 14502 14505 14508 14511 14514 14517 14520 14523 14526 14529 14532 14535 14538 14541 14544 14547 14550 14553 14556 14559 14562 14565 14568 14571 14574 14577 14580 14583 14586 14589 14592 14595 14598 14601 14604 14607 14610 14613 14616 14619 14622 14625 14628 14631 14634 14637 14640 14643 14646 14649 14652 14655 14658 14661 14664 14667 14670 14673 14676 14679 14682 14685 14688 14691 14694 14697 14700 14703 14706 14709 14712 14715 14718 14721 14724 14727 14730 14733 14736 14739 14742 14745 14748 14751 14754 14757 14760 14763 14766 14769 14772 14775 14778 14781 14784 14787 14790 14793 14796 14799 14802 14805 14808 14811 14814 14817 14820 14823 14826 14829 14832 14835 14838 14841 14844 14847 14850 14853 14856 14859 14862 14865 14868 14871 14874 14877 14880 14883 14886 14889 14892 14895 14898 14901 14904 14907 14910 14913 14916 14919 14922 14925 14928 14931 14934 14937 14940 14943 14946 14949 14952 14955 14958 14961 14964 14967 14970 14973 14976 14979 14982 14985 14988 14991 14994 14997 15000 15003 15006 15009 15012 15015 15018 15021 15024 15027 15030 15033 15036 15039 15042 15045 15048 15051 15054 15057 15060 15063 15066 15069 15072 15075 15078 15081 15084 15087 15090 15093 15096 15099 15102 15105 15108 15111 15114 15117 15120 15123 15126 15129 15132 15135 15138 15141 15144 15147 15150 15153 15156 15159 15162 15165 15168 15171 15174 15177 15180 15183 15186 15189 15192 15195 15198 15201 15204 15207 15210 15213 15216 15219 15222 15225 15228 15231 15234 15237 15240 15243 15246 15249 15252 15255 15258 15261 15264 15267 15270 15273 15276 15279 15282 15285 15288 15291 15294 15297 15300 15303 15306 15309 15312 15315 15318 15321 15324 15327 15330 15333 15336 15339 15342 15345 15348 15351 15354 15357 15360 15363 15366 15369 15372 15375 15378 15381 15384 15387 15390 15393 15396 15399 15402 15405 15408 15411 15414 15417 15420 15423 15426 15429 15432 15435 15438 15441 15444 15447 15450 15453 15456 15459 15462 15465 15468 15471 15474 15477 15480 15483 15486 15489 15492 15495 15498 15501 15504 15507 15510 15513 15516 15519 15522 15525 15528 15531 15534 15537 15540 15543 15546 15549 15552 15555 15558 15561 15564 15567 15570 15573 15576 15579 15582 15585 15588 15591 15594 15597 15600 15603 15606 15609 15612 15615 15618 15621 15624 15627 15630 15633 15636 15639 15642 15645 15648 15651 15654 15657 15660 15663 15666 15669 15672 15675 15678 15681 15684 15687 15690 15693 15696 15699 15702 15705 15708 15711 15714 15717 15720 15723 15726 15729 15732 15735 15738 15741 15744 15747 15750 15753 15756 15759 15762 15765 15768 15771 15774 15777 15780 15783 15786 15789 15792 15795 15798 15801 15804 15807 15810 15813 15816 15819 15822 15825 15828 15831 15834 15837 15840 15843 15846 15849 15852 15855 15858 15861 15864 15867 15870 15873 15876 15879 15882 15885 15888 15891 15894 15897 15900 15903 15906 15909 15912 15915 15918 15921 15924 15927 15930 15933 15936 15939 15942 15945 15948 15951 15954 15957 15960 15963 15966 15969 15972 15975 15978 15981 15984 15987 15990 15993 15996 15999 16002 16005 16008 16011 16014 16017 16020 16023 16026 16029 16032 16035 16038 16041 16044 16047 16050 16053 16056 16059 16062 16065 16068 16071 16074 16077 16080 16083 16086 16089 16092 16095 16098 16101 16104 16107 16110 16113 16116 16119 16122 16125 16128 16131 16134 16137 16140 16143 16146 16149 16152 16155 16158 16161 16164 16167 16170 16173 16176 16179 16182 16185 16188 16191 16194 16197 16200 16203 16206 16209 16212 16215 16218 16221 16224 16227 16230 16233 16236 16239 16242 16245 16248 16251 16254 16257 16260 16263 16266 16269 16272 16275 16278 16281 16284 16287 16290 16293 16296 16299 16302 16305 16308 16311 16314 16317 16320 16323 16326 16329 16332 16335 16338 16341 16344 16347 16350 16353 16356 16359 16362 16365 16368 16371 16374 16377 16380 16383 16386 16389 16392 16395 16398 16401 16404 16407 16410 16413 16416 16419 16422 16425 16428 16431 16434 16437 16440 16443 16446 16449 16452 16455 16458 16461 16464 16467 16470 16473 16476 16479 16482 16485 16488 16491 16494 16497 16500 16503 16506 16509 16512 16515 16518 16521 16524 16527 16530 16533 16536 16539 16542 16545 16548 16551 16554 16557 16560 16563 16566 16569 16572 16575 16578 16581 16584 16587 16590 16593 16596 16599 16602 16605 16608 16611 16614 16617 16620 16623 16626 16629 16632 16635 16638 16641 16644 16647 16650 16653 16656 16659 16662 16665 16668 16671 16674 16677 16680 16683 16686 16689 16692 16695 16698 16701 16704 16707 16710 16713 16716 16719 16722 16725 16728 16731 16734 16737 16740 16743 16746 16749 16752 16755 16758 16761 16764 16767 16770 16773 16776 16779 16782 16785 16788 16791 16794 16797 16800 16803 16806 16809 16812 16815 16818 16821 16824 16827 16830 16833 16836 16839 16842 16845 16848 16851 16854 16857 16860 16863 16866 16869 16872 16875 16878 16881 16884 16887 16890 16893 16896 16899 16902 16905 16908 16911 16914 16917 16920 16923 16926 16929 16932 16935 16938 16941 16944 16947 16950 16953 16956 16959 16962 16965 16968 16971 16974 16977 16980 16983 16986 16989 16992 16995 16998 17001 17004 17007 17010 17013 17016 17019 17022 17025 17028 17031 17034 17037 17040 17043 17046 17049 17052 17055 17058 17061 17064 17067 17070 17073 17076 17079 17082 17085 17088 17091 17094 17097 17100 17103 17106 17109 17112 17115 17118 17121 17124 17127 17130 17133 17136 17139 17142 17145 17148 17151 17154 17157 17160 17163 17166 17169 17172 17175 17178 17181 17184 17187 17190 17193 17196 17199 17202 17205 17208 17211 17214 17217 17220 17223 17226 17229 17232 17235 17238 17241 17244 17247 17250 17253 17256 17259 17262 17265 17268 17271 17274 17277 17280 17283 17286 17289 17292 17295 17298 17301 17304 17307 17310 17313 17316 17319 17322 17325 17328 17331 17334 17337 17340 17343 17346 17349 17352 17355 17358 17361 17364 17367 17370 17373 17376 17379 17382 17385 17388 17391 17394 17397 17400 17403 17406 17409 17412 17415 17418 17421 17424 17427 17430 17433 17436 17439 17442 17445 17448 17451 17454 17457 17460 17463 17466 17469 17472 17475 17478 17481 17484 17487 17490 17493 17496 17499 17502 17505 17508 17511 17514 17517 17520 17523 17526 17529 17532 17535 17538 17541 17544 17547 17550 17553 17556 17559 17562 17565 17568 17571 17574 17577 17580 17583 17586 17589 17592 17595 17598 17601 17604 17607 17610 17613 17616 17619 17622 17625 17628 17631 17634 17637 17640 17643 17646 17649 17652 17655 17658 17661 17664 17667 17670 17673 17676 17679 17682 17685 17688 17691 17694 17697 17700 17703 17706 17709 17712 17715 17718 17721 17724 17727 17730 17733 17736 17739 17742 17745 17748 17751 17754 17757 17760 17763 17766 17769 17772 17775 17778 17781 17784 17787 17790 17793 17796 17799 17802 17805 17808 17811 17814 17817 17820 17823 17826 17829 17832 17835 17838 17841 17844 17847 17850 17853 17856 17859 17862 17865 17868 17871 17874 17877 17880 17883 17886 17889 17892 17895 17898 17901 17904 17907 17910 17913 17916 17919 17922 17925 17928 17931 17934 17937 17940 17943 17946 17949 17952 </DataArray>
<DataArray  type="UInt8"  Name="types"  format="ascii">5 5 5 5 5 5 5 5 5 5 5 5 5 5 5 5 5 5 5 5 5 5 5 5 5 5 5 5 5 5 5 5 5 5 5 5 5 5 5 5 5 5 5 5 5 5 5 5 5 5 5 5 5 5 5 5 5 5 5 5 5 5 5 5 5 5 5 5 5 5 5 5 5 5 5 5 5 5 5 5 5 5 5 5 5 5 5 5 5 5 5 5 5 5 5 5 5 5 5 5 5 5 5 5 5 5 5 5 5 5 5 5 5 5 5 5 5 5 5 5 5 5 5 5 5 5 5 5 5 5 5 5 5 5 5 5 5 5 5 5 5 5 5 5 5 5 5 5 5 5 5 5 5 5 5 5 5 5 5 5 5 5 5 5 5 5 5 5 5 5 5 5 5 5 5 5 5 5 5 5 5 5 5 5 5 5 5 5 5 5 5 5 5 5 5 5 5 5 5 5 5 5 5 5 5 5 5 5 5 5 5 5 5 5 5 5 5 5 5 5 5 5 5 5 5 5 5 5 5 5 5 5 5 5 5 5 5 5 5 5 5 5 5 5 5 5 5 5 5 5 5 5 5 5 5 5 5 5 5 5 5 5 5 5 5 5 5 5 5 5 5 5 5 5 5 5 5 5 5 5 5 5 5 5 5 5 5 5 5 5 5 5 5 5 5 5 5 5 5 5 5 5 5 5 5 5 5 5 5 5 5 5 5 5 5 5 5 5 5 5 5 5 5 5 5 5 5 5 5 5 5 5 5 5 5 5 5 5 5 5 5 5 5 5 5 5 5 5 5 5 5 5 5 5 5 5 5 5 5 5 5 5 5 5 5 5 5 5 5 5 5 5 5 5 5 5 5 5 5 5 5 5 5 5 5 5 5 5 5 5 5 5 5 5 5 5 5 5 5 5 5 5 5 5 5 5 5 5 5 5 5 5 5 5 5 5 5 5 5 5 5 5 5 5 5 5 5 5 5 5 5 5 5 5 5 5 5 5 5 5 5 5 5 5 5 5 5 5 5 5 5 5 5 5 5 5 5 5 5 5 5 5 5 5 5 5 5 5 5 5 5 5 5 5 5 5 5 5 5 5 5 5 5 5 5 5 5 5 5 5 5 5 5 5 5 5 5 5 5 5 5 5 5 5 5 5 5 5 5 5 5 5 5 5 5 5 5 5 5 5 5 5 5 5 5 5 5 5 5 5 5 5 5 5 5 5 5 5 5 5 5 5 5 5 5 5 5 5 5 5 5 5 5 5 5 5 5 5 5 5 5 5 5 5 5 5 5 5 5 5 5 5 5 5 5 5 5 5 5 5 5 5 5 5 5 5 5 5 5 5 5 5 5 5 5 5 5 5 5 5 5 5 5 5 5 5 5 5 5 5 5 5 5 5 5 5 5 5 5 5 5 5 5 5 5 5 5 5 5 5 5 5 5 5 5 5 5 5 5 5 5 5 5 5 5 5 5 5 5 5 5 5 5 5 5 5 5 5 5 5 5 5 5 5 5 5 5 5 5 5 5 5 5 5 5 5 5 5 5 5 5 5 5 5 5 5 5 5 5 5 5 5 5 5 5 5 5 5 5 5 5 5 5 5 5 5 5 5 5 5 5 5 5 5 5 5 5 5 5 5 5 5 5 5 5 5 5 5 5 5 5 5 5 5 5 5 5 5 5 5 5 5 5 5 5 5 5 5 5 5 5 5 5 5 5 5 5 5 5 5 5 5 5 5 5 5 5 5 5 5 5 5 5 5 5 5 5 5 5 5 5 5 5 5 5 5 5 5 5 5 5 5 5 5 5 5 5 5 5 5 5 5 5 5 5 5 5 5 5 5 5 5 5 5 5 5 5 5 5 5 5 5 5 5 5 5 5 5 5 5 5 5 5 5 5 5 5 5 5 5 5 5 5 5 5 5 5 5 5 5 5 5 5 5 5 5 5 5 5 5 5 5 5 5 5 5 5 5 5 5 5 5 5 5 5 5 5 5 5 5 5 5 5 5 5 5 5 5 5 5 5 5 5 5 5 5 5 5 5 5 5 5 5 5 5 5 5 5 5 5 5 5 5 5 5 5 5 5 5 5 5 5 5 5 5 5 5 5 5 5 5 5 5 5 5 5 5 5 5 5 5 5 5 5 5 5 5 5 5 5 5 5 5 5 5 5 5 5 5 5 5 5 5 5 5 5 5 5 5 5 5 5 5 5 5 5 5 5 5 5 5 5 5 5 5 5 5 5 5 5 5 5 5 5 5 5 5 5 5 5 5 5 5 5 5 5 5 5 5 5 5 5 5 5 5 5 5 5 5 5 5 5 5 5 5 5 5 5 5 5 5 5 5 5 5 5 5 5 5 5 5 5 5 5 5 5 5 5 5 5 5 5 5 5 5 5 5 5 5 5 5 5 5 5 5 5 5 5 5 5 5 5 5 5 5 5 5 5 5 5 5 5 5 5 5 5 5 5 5 5 5 5 5 5 5 5 5 5 5 5 5 5 5 5 5 5 5 5 5 5 5 5 5 5 5 5 5 5 5 5 5 5 5 5 5 5 5 5 5 5 5 5 5 5 5 5 5 5 5 5 5 5 5 5 5 5 5 5 5 5 5 5 5 5 5 5 5 5 5 5 5 5 5 5 5 5 5 5 5 5 5 5 5 5 5 5 5 5 5 5 5 5 5 5 5 5 5 5 5 5 5 5 5 5 5 5 5 5 5 5 5 5 5 5 5 5 5 5 5 5 5 5 5 5 5 5 5 5 5 5 5 5 5 5 5 5 5 5 5 5 5 5 5 5 5 5 5 5 5 5 5 5 5 5 5 5 5 5 5 5 5 5 5 5 5 5 5 5 5 5 5 5 5 5 5 5 5 5 5 5 5 5 5 5 5 5 5 5 5 5 5 5 5 5 5 5 5 5 5 5 5 5 5 5 5 5 5 5 5 5 5 5 5 5 5 5 5 5 5 5 5 5 5 5 5 5 5 5 5 5 5 5 5 5 5 5 5 5 5 5 5 5 5 5 5 5 5 5 5 5 5 5 5 5 5 5 5 5 5 5 5 5 5 5 5 5 5 5 5 5 5 5 5 5 5 5 5 5 5 5 5 5 5 5 5 5 5 5 5 5 5 5 5 5 5 5 5 5 5 5 5 5 5 5 5 5 5 5 5 5 5 5 5 5 5 5 5 5 5 5 5 5 5 5 5 5 5 5 5 5 5 5 5 5 5 5 5 5 5 5 5 5 5 5 5 5 5 5 5 5 5 5 5 5 5 5 5 5 5 5 5 5 5 5 5 5 5 5 5 5 5 5 5 5 5 5 5 5 5 5 5 5 5 5 5 5 5 5 5 5 5 5 5 5 5 5 5 5 5 5 5 5 5 5 5 5 5 5 5 5 5 5 5 5 5 5 5 5 5 5 5 5 5 5 5 5 5 5 5 5 5 5 5 5 5 5 5 5 5 5 5 5 5 5 5 5 5 5 5 5 5 5 5 5 5 5 5 5 5 5 5 5 5 5 5 5 5 5 5 5 5 5 5 5 5 5 5 5 5 5 5 5 5 5 5 5 5 5 5 5 5 5 5 5 5 5 5 5 5 5 5 5 5 5 5 5 5 5 5 5 5 5 5 5 5 5 5 5 5 5 5 5 5 5 5 5 5 5 5 5 5 5 5 5 5 5 5 5 5 5 5 5 5 5 5 5 5 5 5 5 5 5 5 5 5 5 5 5 5 5 5 5 5 5 5 5 5 5 5 5 5 5 5 5 5 5 5 5 5 5 5 5 5 5 5 5 5 5 5 5 5 5 5 5 5 5 5 5 5 5 5 5 5 5 5 5 5 5 5 5 5 5 5 5 5 5 5 5 5 5 5 5 5 5 5 5 5 5 5 5 5 5 5 5 5 5 5 5 5 5 5 5 5 5 5 5 5 5 5 5 5 5 5 5 5 5 5 5 5 5 5 5 5 5 5 5 5 5 5 5 5 5 5 5 5 5 5 5 5 5 5 5 5 5 5 5 5 5 5 5 5 5 5 5 5 5 5 5 5 5 5 5 5 5 5 5 5 5 5 5 5 5 5 5 5 5 5 5 5 5 5 5 5 5 5 5 5 5 5 5 5 5 5 5 5 5 5 5 5 5 5 5 5 5 5 5 5 5 5 5 5 5 5 5 5 5 5 5 5 5 5 5 5 5 5 5 5 5 5 5 5 5 5 5 5 5 5 5 5 5 5 5 5 5 5 5 5 5 5 5 5 5 5 5 5 5 5 5 5 5 5 5 5 5 5 5 5 5 5 5 5 5 5 5 5 5 5 5 5 5 5 5 5 5 5 5 5 5 5 5 5 5 5 5 5 5 5 5 5 5 5 5 5 5 5 5 5 5 5 5 5 5 5 5 5 5 5 5 5 5 5 5 5 5 5 5 5 5 5 5 5 5 5 5 5 5 5 5 5 5 5 5 5 5 5 5 5 5 5 5 5 5 5 5 5 5 5 5 5 5 5 5 5 5 5 5 5 5 5 5 5 5 5 5 5 5 5 5 5 5 5 5 5 5 5 5 5 5 5 5 5 5 5 5 5 5 5 5 5 5 5 5 5 5 5 5 5 5 5 5 5 5 5 5 5 5 5 5 5 5 5 5 5 5 5 5 5 5 5 5 5 5 5 5 5 5 5 5 5 5 5 5 5 5 5 5 5 5 5 5 5 5 5 5 5 5 5 5 5 5 5 5 5 5 5 5 5 5 5 5 5 5 5 5 5 5 5 5 5 5 5 5 5 5 5 5 5 5 5 5 5 5 5 5 5 5 5 5 5 5 5 5 5 5 5 5 5 5 5 5 5 5 5 5 5 5 5 5 5 5 5 5 5 5 5 5 5 5 5 5 5 5 5 5 5 5 5 5 5 5 5 5 5 5 5 5 5 5 5 5 5 5 5 5 5 5 5 5 5 5 5 5 5 5 5 5 5 5 5 5 5 5 5 5 5 5 5 5 5 5 5 5 5 5 5 5 5 5 5 5 5 5 5 5 5 5 5 5 5 5 5 5 5 5 5 5 5 5 5 5 5 5 5 5 5 5 5 5 5 5 5 5 5 5 5 5 5 5 5 5 5 5 5 5 5 5 5 5 5 5 5 5 5 5 5 5 5 5 5 5 5 5 5 5 5 5 5 5 5 5 5 5 5 5 5 5 5 5 5 5 5 5 5 5 5 5 5 5 5 5 5 5 5 5 5 5 5 5 5 5 5 5 5 5 5 5 5 5 5 5 5 5 5 5 5 5 5 5 5 5 5 5 5 5 5 5 5 5 5 5 5 5 5 5 5 5 5 5 5 5 5 5 5 5 5 5 5 5 5 5 5 5 5 5 5 5 5 5 5 5 5 5 5 5 5 5 5 5 5 5 5 5 5 5 5 5 5 5 5 5 5 5 5 5 5 5 5 5 5 5 5 5 5 5 5 5 5 5 5 5 5 5 5 5 5 5 5 5 5 5 5 5 5 5 5 5 5 5 5 5 5 5 5 5 5 5 5 5 5 5 5 5 5 5 5 5 5 5 5 5 5 5 5 5 5 5 5 5 5 5 5 5 5 5 5 5 5 5 5 5 5 5 5 5 5 5 5 5 5 5 5 5 5 5 5 5 5 5 5 5 5 5 5 5 5 5 5 5 5 5 5 5 5 5 5 5 5 5 5 5 5 5 5 5 5 5 5 5 5 5 5 5 5 5 5 5 5 5 5 5 5 5 5 5 5 5 5 5 5 5 5 5 5 5 5 5 5 5 5 5 5 5 5 5 5 5 5 5 5 5 5 5 5 5 5 5 5 5 5 5 5 5 5 5 5 5 5 5 5 5 5 5 5 5 5 5 5 5 5 5 5 5 5 5 5 5 5 5 5 5 5 5 5 5 5 5 5 5 5 5 5 5 5 5 5 5 5 5 5 5 5 5 5 5 5 5 5 5 5 5 5 5 5 5 5 5 5 5 5 5 5 5 5 5 5 5 5 5 5 5 5 5 5 5 5 5 5 5 5 5 5 5 5 5 5 5 5 5 5 5 5 5 5 5 5 5 5 5 5 5 5 5 5 5 5 5 5 5 5 5 5 5 5 5 5 5 5 5 5 5 5 5 5 5 5 5 5 5 5 5 5 5 5 5 5 5 5 5 5 5 5 5 5 5 5 5 5 5 5 5 5 5 5 5 5 5 5 5 5 5 5 5 5 5 5 5 5 5 5 5 5 5 5 5 5 5 5 5 5 5 5 5 5 5 5 5 5 5 5 5 5 5 5 5 5 5 5 5 5 5 5 5 5 5 5 5 5 5 5 5 5 5 5 5 5 5 5 5 5 5 5 5 5 5 5 5 5 5 5 5 5 5 5 5 5 5 5 5 5 5 5 5 5 5 5 5 5 5 5 5 5 5 5 5 5 5 5 5 5 5 5 5 5 5 5 5 5 5 5 5 5 5 5 5 5 5 5 5 5 5 5 5 5 5 5 5 5 5 5 5 5 5 5 5 5 5 5 5 5 5 5 5 5 5 5 5 5 5 5 5 5 5 5 5 5 5 5 5 5 5 5 5 5 5 5 5 5 5 5 5 5 5 5 5 5 5 5 5 5 5 5 5 5 5 5 5 5 5 5 5 5 5 5 5 5 5 5 5 5 5 5 5 5 5 5 5 5 5 5 5 5 5 5 5 5 5 5 5 5 5 5 5 5 5 5 5 5 5 5 5 5 5 5 5 5 5 5 5 5 5 5 5 5 5 5 5 5 5 5 5 5 5 5 5 5 5 5 5 5 5 5 5 5 5 5 5 5 5 5 5 5 5 5 5 5 5 5 5 5 5 5 5 5 5 5 5 5 5 5 5 5 5 5 5 5 5 5 5 5 5 5 5 5 5 5 5 5 5 5 5 5 5 5 5 5 5 5 5 5 5 5 5 5 5 5 5 5 5 5 5 5 5 5 5 5 5 5 5 5 5 5 5 5 5 5 5 5 5 5 5 5 5 5 5 5 5 5 5 5 5 5 5 5 5 5 5 5 5 5 5 5 5 5 5 5 5 5 5 5 5 5 5 5 5 5 5 5 5 5 5 5 5 5 5 5 5 5 5 5 5 5 5 5 5 5 5 5 5 5 5 5 5 5 5 5 5 5 5 5 5 5 5 5 5 5 5 5 5 5 5 5 5 5 5 5 5 5 5 5 5 5 5 5 5 5 5 5 5 5 5 5 5 5 5 5 5 5 5 5 5 5 5 5 5 5 5 5 5 5 5 5 5 5 5 5 5 5 5 5 5 5 5 5 5 5 5 5 5 5 5 5 5 5 5 5 5 5 5 5 5 5 5 5 5 5 5 5 5 5 5 5 5 5 5 5 5 5 5 5 5 5 5 5 5 5 5 5 5 5 5 5 5 5 5 5 5 5 5 5 5 5 5 5 5 5 5 5 5 5 5 5 5 5 5 5 5 5 5 5 5 5 5 5 5 5 5 5 5 5 5 5 5 5 5 5 5 5 5 5 5 5 5 5 5 5 5 5 5 5 5 5 5 5 5 5 5 5 5 5 5 5 5 5 5 5 5 5 5 5 5 5 5 5 5 5 5 5 5 5 5 5 5 5 5 5 5 5 5 5 5 5 5 5 5 5 5 5 5 5 5 5 5 5 5 5 5 5 5 5 5 5 5 5 5 5 5 5 5 5 5 5 5 5 5 5 5 5 5 5 5 5 5 5 5 5 5 5 5 5 5 5 5 5 5 5 5 5 5 5 5 5 5 5 5 5 5 5 5 5 5 5 5 5 5 5 5 5 5 5 5 5 5 5 5 5 5 5 5 5 5 5 5 5 5 5 5 5 5 5 5 5 5 5 5 5 5 5 5 5 5 5 5 5 5 5 5 5 5 5 5 5 5 5 5 5 5 5 5 5 5 5 5 5 5 5 5 5 5 5 5 5 5 5 5 5 5 5 5 5 5 5 5 5 5 5 5 5 5 5 5 5 5 5 5 5 5 5 5 5 5 5 5 5 5 5 5 5 5 5 5 5 5 5 5 5 5 5 5 5 5 5 5 5 5 5 5 5 5 5 5 5 5 5 5 5 5 5 5 5 5 5 5 5 5 5 5 5 5 5 5 5 5 5 5 5 5 5 5 5 5 5 5 5 5 5 5 5 5 5 5 5 5 5 5 5 5 5 5 5 5 5 5 5 5 5 5 5 5 5 5 5 5 5 5 5 5 5 5 5 5 5 5 5 5 5 5 5 5 5 5 5 5 5 5 5 5 5 5 5 5 5 5 5 5 5 5 5 5 5 5 5 5 5 5 5 5 5 5 5 5 5 5 5 5 5 5 5 5 5 5 5 5 5 5 5 5 5 5 5 5 5 5 5 5 5 5 5 5 5 5 5 5 5 5 5 5 5 5 5 5 5 5 5 5 5 5 5 5 5 5 5 5 5 5 5 5 5 5 5 5 5 5 5 5 5 5 5 5 5 5 5 5 5 5 5 5 5 5 5 5 5 5 5 5 5 5 5 5 5 5 5 5 5 5 5 5 5 5 5 5 5 5 5 5 5 5 5 5 5 5 5 5 5 5 5 5 5 5 5 5 5 5 5 5 5 5 5 5 5 5 5 5 5 5 5 5 5 5 5 5 5 5 5 5 5 5 5 5 5 5 5 5 5 5 5 5 5 5 5 5 5 5 5 5 5 5 5 5 5 5 5 5 5 5 5 5 5 5 5 5 5 5 5 5 5 5 5 5 5 5 5 5 5 5 5 5 5 5 5 5 5 5 5 5 5 5 5 5 5 5 5 5 5 5 5 5 5 5 5 5 5 5 5 5 5 5 5 5 5 5 5 5 5 5 5 5 5 5 5 5 5 5 5 5 5 5 5 5 5 5 5 5 5 5 5 5 5 5 5 5 5 5 5 5 5 5 5 5 5 5 5 5 5 5 5 5 5 5 5 5 5 5 5 5 5 5 5 5 5 5 5 5 5 5 5 5 5 5 5 5 5 5 5 5 5 5 5 5 5 5 5 5 5 5 5 5 5 5 5 5 5 5 5 5 5 5 5 5 5 5 5 5 5 5 5 5 5 5 5 5 5 5 5 5 5 5 5 5 5 5 5 5 5 5 5 5 5 5 5 5 5 5 5 5 5 5 5 5 5 5 5 5 5 5 5 5 5 5 5 5 5 5 5 5 5 5 5 5 5 5 5 5 5 5 5 5 5 5 5 5 5 5 5 5 5 5 5 5 5 5 5 5 5 5 5 5 5 5 5 5 5 5 5 5 5 5 5 5 5 5 5 5 5 5 5 5 5 5 5 5 5 5 5 5 5 5 5 5 5 5 5 5 5 5 5 5 5 5 5 5 5 5 5 5 5 5 5 5 5 5 5 5 5 5 5 5 5 5 5 5 5 5 5 5 5 5 5 5 5 5 5 5 5 5 5 5 5 5 5 5 5 5 5 5 5 5 5 5 5 5 5 5 5 5 5 5 5 5 5 5 5 5 5 5 5 5 5 5 5 5 5 5 5 5 5 5 5 5 5 5 5 5 5 5 5 5 5 5 5 5 5 5 5 5 5 5 5 5 5 5 5 5 5 5 5 5 5 5 5 5 5 5 5 5 5 5 5 5 5 5 5 5 5 5 5 5 5 5 5 5 5 5 5 5 5 5 5 5 5 5 5 5 5 5 5 5 5 5 5 5 5 5 5 5 5 5 5 5 5 5 5 5 5 5 5 5 5 5 5 5 5 5 5 5 5 5 5 5 5 5 5 5 5 5 5 5 5 5 5 5 5 5 5 5 5 5 5 5 5 5 5 5 5 5 5 5 5 5 5 5 5 5 5 5 5 5 5 5 5 5 5 5 5 5 5 5 5 5 5 5 5 5 5 5 5 5 5 5 5 5 5 5 5 5 5 5 5 5 5 5 5 5 5 5 5 5 5 5 5 5 5 5 5 5 5 5 5 5 5 5 5 5 5 5 5 5 5 5 5 5 5 5 5 5 5 5 5 5 5 5 5 5 5 5 5 5 5 5 5 5 5 5 5 5 5 5 5 5 5 5 5 5 5 5 5 5 5 5 5 5 5 5 5 5 5 5 5 5 5 5 5 5 5 5 5 5 5 5 5 5 5 5 5 5 5 5 5 5 5 5 5 5 5 5 5 5 5 5 5 5 5 5 5 5 5 5 5 5 5 5 5 5 5 5 5 5 5 5 5 5 5 5 5 5 5 5 5 5 5 5 5 5 5 5 5 5 5 5 5 5 5 5 5 5 5 5 5 5 5 5 5 5 5 5 5 5 5 5 5 5 5 5 5 5 5 5 5 5 5 5 5 5 5 5 5 5 5 5 5 5 5 5 5 5 5 5 5 5 5 5 5 5 5 5 5 5 5 5 5 5 5 5 5 5 5 5 5 5 5 5 5 5 5 5 5 5 5 5 5 5 5 5 5 5 5 5 5 5 5 5 5 5 5 5 5 5 5 5 5 5 5 5 5 5 5 5 5 5 5 5 5 5 5 5 5 5 5 5 5 5 5 5 5 5 5 5 5 5 5 5 5 5 5 5 5 5 5 5 5 5 5 5 5 5 5 5 5 5 5 5 5 5 5 5 5 5 5 5 5 5 5 5 5 5 5 5 5 5 5 5 5 5 5 5 5 5 5 5 5 5 5 5 5 5 5 5 5 5 5 5 5 5 5 5 5 5 5 5 5 5 5 5 5 5 5 5 5 5 5 5 5 5 5 5 5 5 5 5 5 5 5 5 5 5 5 5 5 5 5 5 5 5 5 5 5 5 5 5 5 5 5 5 5 5 5 5 5 5 5 5 5 5 5 5 5 5 5 5 5 5 5 5 5 5 5 5 5 5 5 5 5 5 5 5 5 5 5 5 5 5 5 5 5 5 5 5 5 5 5 5 5 5 5 5 5 5 5 5 5 5 5 5 5 5 5 5 5 5 5 5 5 5 5 5 5 5 5 5 5 5 5 5 5 5 5 5 5 5 5 5 5 5 5 5 5 5 5 5 5 5 5 5 5 5 5 5 5 5 5 5 5 5 5 5 5 5 5 5 5 5 5 5 5 5 5 5 5 5 5 5 5 5 5 5 5 5 5 5 5 5 5 5 5 5 5 5 5 5 5 5 5 5 5 5 5 5 5 5 5 5 5 5 5 5 5 5 5 5 5 5 5 5 5 5 5 5 5 5 5 5 5 5 5 5 5 5 5 5 5 5 5 5 5 5 5 5 5 5 5 5 5 5 5 5 5 5 5 5 5 5 5 5 5 5 5 5 5 5 5 5 5 5 5 5 5 5 5 5 5 5 5 5 5 5 5 5 5 5 5 5 5 5 5 5 5 5 5 5 5 5 5 5 5 5 5 5 5 5 5 5 5 5 5 5 5 5 5 5 5 5 5 5 5 5 5 5 5 5 5 5 5 5 5 5 5 5 5 5 5 5 5 5 5 5 5 5 5 5 5 5 5 5 5 5 5 5 5 5 5 5 5 5 5 5 5 5 5 5 5 5 5 5 5 5 5 5 5 5 5 5 5 5 5 5 5 5 5 5 5 5 5 5 5 5 5 5 5 5 5 5 5 5 5 5 5 5 5 5 5 5 5 5 5 5 5 5 5 5 5 5 5 5 5 5 5 5 5 5 5 5 5 5 5 5 5 5 5 5 5 5 5 5 5 5 5 5 5 5 5 5 5 5 5 5 5 5 5 5 5 5 5 5 5 5 5 5 5 5 5 5 5 5 5 5 5 5 5 5 5 5 5 5 5 5 5 5 5 5 5 5 5 5 5 5 5 5 5 5 5 5 5 5 5 5 5 5 5 5 5 5 5 5 5 5 5 5 5 5 5 5 5 5 5 5 5 5 5 5 5 5 5 5 5 5 5 5 5 5 5 5 5 5 5 5 5 5 5 5 5 5 5 5 5 5 5 5 5 5 5 5 5 5 5 5 5 5 5 5 5 5 5 5 5 5 5 5 5 5 5 5 5 5 5 5 5 5 5 5 5 5 5 5 5 5 5 5 5 5 5 5 5 5 5 5 5 5 5 5 5 5 5 5 5 5 5 5 5 5 5 5 5 5 5 5 5 5 5 5 5 5 5 5 5 5 5 5 5 5 5 5 5 5 5 5 5 5 5 5 5 5 5 5 5 5 5 5 5 5 5 5 5 5 5 5 5 5 5 5 5 5 5 5 5 5 5 5 5 5 5 5 5 5 5 5 5 5 5 5 5 5 5 5 5 5 5 5 5 5 5 5 5 5 5 5 5 5 5 5 5 5 5 5 5 5 5 5 5 5 5 5 5 5 5 5 5 5 5 5 5 5 5 5 5 5 5 5 5 5 5 5 5 5 5 5 5 5 5 5 5 5 5 5 5 5 5 5 5 5 5 5 5 5 5 5 5 5 5 5 5 5 5 5 5 5 5 5 5 5 5 5 5 5 5 5 5 5 5 5 5 5 5 5 5 5 5 5 5 5 5 5 5 5 5 5 5 5 5 5 5 5 5 5 5 5 5 5 5 5 5 5 5 5 5 5 5 5 5 5 5 5 5 5 5 5 5 5 5 5 5 5 5 5 5 5 5 5 5 5 5 5 5 5 5 5 5 5 5 5 5 5 5 5 5 5 5 5 5 5 5 5 5 5 5 5 5 5 5 5 5 5 5 5 5 5 5 5 5 5 5 5 5 5 5 5 5 5 5 5 5 5 5 5 5 5 5 5 5 5 5 5 5 5 5 5 5 5 5 5 5 5 5 5 5 5 5 5 5 5 5 5 5 5 5 5 5 5 5 5 5 5 5 5 5 5 5 5 5 5 5 5 5 5 5 5 5 5 5 5 5 5 5 5 5 5 5 5 5 5 5 5 5 5 5 5 5 5 5 5 5 5 5 5 5 5 5 5 5 5 5 5 5 5 5 5 5 5 5 5 5 5 5 5 5 5 5 5 5 5 5 5 5 5 5 5 5 5 5 5 5 5 5 5 5 5 5 5 5 5 5 5 5 5 5 5 5 5 5 5 5 5 5 5 5 5 5 5 5 5 5 5 5 5 5 5 5 5 5 5 5 5 5 5 5 5 5 5 5 5 5 5 5 5 5 5 5 5 5 5 5 5 5 5 5 5 5 5 5 5 5 5 5 5 5 5 5 5 5 5 5 5 5 5 5 5 5 5 5 5 5 5 5 5 5 5 5 5 5 5 5 5 5 5 5 5 5 5 5 5 5 5 5 5 5 5 5 5 5 5 5 5 5 5 5 5 5 5 5 5 5 5 5 5 5 5 5 5 5 5 5 5 5 5 5 5 5 5 5 5 5 5 5 5 5 5 5 5 5 5 5 5 5 5 5 5 5 5 5 5 5 5 5 5 5 5 5 5 5 5 5 5 5 5 5 5 5 5 5 5 5 5 5 5 5 5 5 5 5 5 5 5 5 5 5 5 5 5 5 5 5 5 5 5 5 5 5 5 5 5 5 5 5 5 5 5 </DataArray>
</Cells>
<PointData  Tensors="stress"> 
<DataArray  type="Float64"  Name="stress"  NumberOfComponents="9" format="ascii">-1.6617524679902505e-04 4.3900944610179922e-05 0.0000000000000000e+00 4.3900944610179922e-05 -1.4894765853565230e-04 0.0000000000000000e+00 0.0000000000000000e+00 0.0000000000000000e+00 0.0000000000000000e+00  -2.9107969687905856e-05 -5.2996357932057181e-05 0.0000000000000000e+00 -5.2996357932057181e-05 -5.6065009130940124e-05 0.0000000000000000e+00 0.0000000000000000e+00 0.0000000000000000e+00 0.0000000000000000e+00  -2.1306279450803830e-04 1.1669141477688161e-04 0.0000000000000000e+00 1.1669141477688161e-04 -1.7052199142959787e-04 0.0000000000000000e+00 0.0000000000000000e+00 0.0000000000000000e+00 0.0000000000000000e+00  3.6594418328372291e-05 -7.3568665272917495e-05 0.0000000000000000e+00 -7.3568665272917495e-05 -3.1095909922417260e-05 0.0000000000000000e+00 0.0000000000000000e+00 0.0000000000000000e+00 0.0000000000000000e+00  -6.0431975263664387e-05 1.4766836321590600e-04 0.0000000000000000e+00 1.4766836321590600e-04 1.5230462970721585e-08 0.0000000000000000e+00 0.0000000000000000e+00 0.0000000000000000e+00 0.0000000000000000e+00  -3.7866407003392116e-05 -1.6156662484506021e-05 0.0000000000000000e+00 -1.6156662484506021e-05 -7.8644573307425067e-05 0.0000000000000000e+00 0.0000000000000000e+00 0.0000000000000000e+00 0.0000000000000000e+00  1.6624567899570014e-04 7.1070015308162680e-06 0.0000000000000000e+00 7.1070015308162680e-06 2.1216857838789473e-04 0.0000000000000000e+00 0.0000000000000000e+00 0.0000000000000000e+00 0.0000000000000000e+00  -1.6613574715496508e-05 1.6095783415935630e-05 0.0000000000000000e+00 1.6095783415935630e-05 -5.7208885952479218e-05 0.0000000000000000e+00 0.0000000000000000e+00 0.0000000000000000e+00 0.0000000000000000e+00  -7.1666330486202289e-05 -1.1674137550994450e-04 0.0000000000000000e+00 -1.1674137550994450e-04 -5.4193858767333655e-06 0.0000000000000000e+00 0.0000000000000000e+00 0.0000000000000000e+00 0.0000000000000000e+00  1.3453184566140008e-04 3.4112370438043448e-05 0.0000000000000000e+00 3.4112370438043448e-05 4.3576064238987845e-05 0.0000000000000000e+00 0.0000000000000000e+00 0.0000000000000000e+00 0.0000000000000000e+00  -2.8167761975369859e-04 -1.1067505849626159e-06 0.0000000000000000e+00 -1.1067505849626159e-06 -1.9481067335944517e-04 0.0000000000000000e+00 0.0000000000000000e+00 0.0000000000000000e+00 0.0000000000000000e+00  1.3630797846068710e-04 -3.4381937394148023e-05 0.0000000000000000e+00 -3.4381937394148023e-05 4.4570770208907810e-05 0.0000000000000000e+00 0.0000000000000000e+00 0.0000000000000000e+00 0.0000000000000000e+00  -6.4267719345638665e-05 1.2144468374235326e-04 0.0000000000000000e+00 1.2144468374235326e-04 7.8187660029375400e-07 0.0000000000000000e+00 0.0000000000000000e+00 0.0000000000000000e+00 0.0000000000000000e+00  2.1229127671199838e-06 -5.2386501075459948e-06 0.0000000000000000e+00 -5.2386501075459948e-06 -3.9647623980570205e-05 0.0000000000000000e+00 0.0000000000000000e+00 0.0000000000000000e+00 0.0000000000000000e+00  2.0174479624926245e-04 9.0691830560663386e-06 0.0000000000000000e+00 9.0691830560663386e-06 2.4688134013166590e-04 0.0000000000000000e+00 0.0000000000000000e+00 0.0000000000000000e+00 0.0000000000000000e+00  1.8103529914747471e-05 3.5654032258962491e-05 0.0000000000000000e+00 3.5654032258962491e-05 -2.2744082683696225e-05 0.0000000000000000e+00 0.0000000000000000e+00 0.0000000000000000e+00 0.0000000000000000e+00  1.7150647435275534e-05 -1.2826304552963368e-04 0.0000000000000000e+00 -1.2826304552963368e-04 7.8416441666146136e-05 0.0000000000000000e+00 0.0000000000000000e+00 0.0000000000000000e+00 0.0000000000000000e+00  1.3112352632204256e-04 8.8059141401101269e-05 0.0000000000000000e+00 8.8059141401101269e-05 6.4895745663055642e-05 0.0000000000000000e+00 0.0000000000000000e+00 0.0000000000000000e+00 0.0000000000000000e+00  -1.0400297289422242e-04 -1.0589486461572599e-04 0.0000000000000000e+00 -1.0589486461572599e-04 -5.9413035178458801e-05 0.0000000000000000e+00 0.0000000000000000e+00 0.0000000000000000e+00 0.0000000000000000e+00  6.6872811751359862e-05 4.7340075126627661e-05 0.0000000000000000e+00 4.7340075126627661e-05 4.2228957269791514e-05 0.0000000000000000e+00 0.0000000000000000e+00 0.0000000000000000e+00 0.0000000000000000e+00  -2.9574841493792309e-05 -1.8873772429068638e-05 0.0000000000000000e+00 -1.8873772429068638e-05 -2.3257571778123645e-05 0.0000000000000000e+00 0.0000000000000000e+00 0.0000000000000000e+00 0.0000000000000000e+00  1.7606006791498073e-05 1.3794598952664398e-05 0.0000000000000000e+00 1.3794598952664398e-05 1.6283016197275065e-05 0.0000000000000000e+00 0.0000000000000000e+00 0.0000000000000000e+00 0.0000000000000000e+00  9.1256573424388734e-06 3.5856028121035329e-06 0.0000000000000000e+00 3.5856028121035329e-06 9.3160454696782954e-06 0.0000000000000000e+00 0.0000000000000000e+00 0.0000000000000000e+00 0.0000000000000000e+00  1.7081819811424924e-05 5.2347400223994605e-06 0.0000000000000000e+00 5.2347400223994605e-06 1.7434919687732664e-05 0.0000000000000000e+00 0.0000000000000000e+00 0.0000000000000000e+00 0.0000000000000000e+00  1.8589577710551771e-05 2.7442828576322238e-06 0.0000000000000000e+00 2.7442828576322238e-06 1.8789406319049257e-05 0.0000000000000000e+00 0.0000000000000000e+00 0.0000000000000000e+00 0.0000000000000000e+00  2.0100108010406921e-05 1.5126733795770325e-06 0.0000000000000000e+00 1.5126733795770325e-06 2.0275946774765630e-05 0.0000000000000000e+00 0.0000000000000000e+00 0.0000000000000000e+00 0.0000000000000000e+00  2.0594301490537959e-05 4.8145245431478579e-07 0.0000000000000000e+00 4.8145245431478579e-07 2.0690576442487924e-05 0.0000000000000000e+00 0.0000000000000000e+00 0.0000000000000000e+00 0.0000000000000000e+00  2.0749954901422939e-05 -7.0008203244107599e-08 0.0000000000000000e+00 -7.0008203244107599e-08 2.0799341760916424e-05 0.0000000000000000e+00 0.0000000000000000e+00 0.0000000000000000e+00 0.0000000000000000e+00  2.0743702979057724e-05 -3.0152129433229335e-07 0.0000000000000000e+00 -3.0152129433229335e-07 2.0760164274629088e-05 0.0000000000000000e+00 0.0000000000000000e+00 0.0000000000000000e+00 0.0000000000000000e+00  2.0730487200148128e-05 -3.1233790707177803e-07 0.0000000000000000e+00 -3.1233790707177803e-07 2.0729501878370569e-05 0.0000000000000000e+00 0.0000000000000000e+00 0.0000000000000000e+00 0.0000000000000000e+00  2.0776629962167218e-05 -2.0880507914743772e-07 0.0000000000000000e+00 -2.0880507914743772e-07 2.0769415151706331e-05 0.0000000000000000e+00 0.0000000000000000e+00 0.0000000000000000e+00 0.0000000000000000e+00  2.0898168982076598e-05 -7.7044058987300025e-08 0.0000000000000000e+00 -7.7044058987300025e-08 2.0893901140455541e-05 0.0000000000000000e+00 0.0000000000000000e+00 0.0000000000000000e+00 0.0000000000000000e+00  2.1067376882629451e-05 1.5602732906444637e-08 0.0000000000000000e+00 1.5602732906444637e-08 2.1074527812608315e-05 0.0000000000000000e+00 0.0000000000000000e+00 0.0000000000000000e+00 0.0000000000000000e+00  2.1211097513023207e-05 2.8105773990912979e-08 0.0000000000000000e+00 2.8105773990912979e-08 2.1236332817902179e-05 0.0000000000000000e+00 0.0000000000000000e+00 0.0000000000000000e+00 0.0000000000000000e+00  2.1249959030876739e-05 8.9788188035217339e-11 0.0000000000000000e+00 8.9788188035217339e-11 2.1246385237625704e-05 0.0000000000000000e+00 0.0000000000000000e+00 0.0000000000000000e+00 0.0000000000000000e+00  4.4467497619226058e-05 -1.0496689557160738e-04 0.0000000000000000e+00 -1.0496689557160738e-04 2.1652585168677144e-05 0.0000000000000000e+00 0.0000000000000000e+00 0.0000000000000000e+00 0.0000000000000000e+00  -2.9712918826991396e-04 1.4917739879555299e-04 0.0000000000000000e+00 1.4917739879555299e-04 -2.7880608339183233e-04 0.0000000000000000e+00 0.0000000000000000e+00 0.0000000000000000e+00 0.0000000000000000e+00  3.0092178233737717e-04 -2.8262009610189443e-04 0.0000000000000000e+00 -2.8262009610189443e-04 1.0227197328880040e-04 0.0000000000000000e+00 0.0000000000000000e+00 0.0000000000000000e+00 0.0000000000000000e+00  -4.6827446690992026e-04 4.1493765666116526e-04 0.0000000000000000e+00 4.1493765666116526e-04 -2.7870289507120647e-04 0.0000000000000000e+00 0.0000000000000000e+00 0.0000000000000000e+00 0.0000000000000000e+00  1.3718471407416969e-04 -3.1802140300932728e-04 0.0000000000000000e+00 -3.1802140300932728e-04 -5.0577234458740719e-05 0.0000000000000000e+00 0.0000000000000000e+00 0.0000000000000000e+00 0.0000000000000000e+00  2.5007007107256349e-04 1.5528466750604208e-04 0.0000000000000000e+00 1.5528466750604208e-04 4.3721142824204270e-04 0.0000000000000000e+00 0.0000000000000000e+00 0.0000000000000000e+00 0.0000000000000000e+00  -4.8487437743324611e-04 -5.9767694613607710e-06 0.0000000000000000e+00 -5.9767694613607710e-06 -4.9196662647204865e-04 0.0000000000000000e+00 0.0000000000000000e+00 0.0000000000000000e+00 0.0000000000000000e+00  2.4311117792799624e-04 -1.4014081325209752e-04 0.0000000000000000e+00 -1.4014081325209752e-04 4.2713690709875212e-04 0.0000000000000000e+00 0.0000000000000000e+00 0.0000000000000000e+00 0.0000000000000000e+00  2.3324237912609414e-04 2.6502605399376873e-04 0.0000000000000000e+00 2.6502605399376873e-04 3.6339574451267288e-05 0.0000000000000000e+00 0.0000000000000000e+00 0.0000000000000000e+00 0.0000000000000000e+00  -6.2703505216656660e-04 -2.8271394001103990e-04 0.0000000000000000e+00 -2.8271394001103990e-04 -4.0431941348265929e-04 0.0000000000000000e+00 0.0000000000000000e+00 0.0000000000000000e+00 0.0000000000000000e+00  7.3790666123913905e-04 -3.7714565080569401e-06 0.0000000000000000e+00 -3.7714565080569401e-06 3.5411537772390061e-04 0.0000000000000000e+00 0.0000000000000000e+00 0.0000000000000000e+00 0.0000000000000000e+00  -6.1869242561797067e-04 2.7598942702631500e-04 0.0000000000000000e+00 2.7598942702631500e-04 -4.0566484533668224e-04 0.0000000000000000e+00 0.0000000000000000e+00 0.0000000000000000e+00 0.0000000000000000e+00  2.5098363028495236e-04 -2.6982637343403356e-04 0.0000000000000000e+00 -2.6982637343403356e-04 3.8733049214511003e-05 0.0000000000000000e+00 0.0000000000000000e+00 0.0000000000000000e+00 0.0000000000000000e+00  2.7275442967428877e-04 1.3722512488609202e-04 0.0000000000000000e+00 1.3722512488609202e-04 4.4094592718366230e-04 0.0000000000000000e+00 0.0000000000000000e+00 0.0000000000000000e+00 0.0000000000000000e+00  -4.4038768843990598e-04 5.2720744714825319e-06 0.0000000000000000e+00 5.2720744714825319e-06 -4.6050166801565287e-04 0.0000000000000000e+00 0.0000000000000000e+00 0.0000000000000000e+00 0.0000000000000000e+00  3.1091464165725670e-04 -1.5389421078620456e-04 0.0000000000000000e+00 -1.5389421078620456e-04 4.9138994298781810e-04 0.0000000000000000e+00 0.0000000000000000e+00 0.0000000000000000e+00 0.0000000000000000e+00  2.1258394269206787e-04 3.2083370806879719e-04 0.0000000000000000e+00 3.2083370806879719e-04 2.8036550389642910e-05 0.0000000000000000e+00 0.0000000000000000e+00 0.0000000000000000e+00 0.0000000000000000e+00  -3.7959428425238636e-04 -4.1079247625776293e-04 0.0000000000000000e+00 -4.1079247625776293e-04 -1.7763035189408540e-04 0.0000000000000000e+00 0.0000000000000000e+00 0.0000000000000000e+00 0.0000000000000000e+00  3.9149380573446106e-04 2.8053569048831436e-04 0.0000000000000000e+00 2.8053569048831436e-04 2.0814403255397501e-04 0.0000000000000000e+00 0.0000000000000000e+00 0.0000000000000000e+00 0.0000000000000000e+00  -1.7531561197682520e-04 -1.3393492181338758e-04 0.0000000000000000e+00 -1.3393492181338758e-04 -1.4615685501137663e-04 0.0000000000000000e+00 0.0000000000000000e+00 0.0000000000000000e+00 0.0000000000000000e+00  8.1072901718528891e-05 5.2679920299008361e-05 0.0000000000000000e+00 5.2679920299008361e-05 5.7732592809502342e-05 0.0000000000000000e+00 0.0000000000000000e+00 0.0000000000000000e+00 0.0000000000000000e+00  -1.1419143066545414e-05 -1.2039699687930798e-05 0.0000000000000000e+00 -1.2039699687930798e-05 -1.4414710126490537e-05 0.0000000000000000e+00 0.0000000000000000e+00 0.0000000000000000e+00 0.0000000000000000e+00  1.5778984439750306e-05 6.9529716365794089e-06 0.0000000000000000e+00 6.9529716365794089e-06 1.8990524405166002e-05 0.0000000000000000e+00 0.0000000000000000e+00 0.0000000000000000e+00 0.0000000000000000e+00  1.1750703690919194e-05 6.9287282620047668e-07 0.0000000000000000e+00 6.9287282620047668e-07 1.6362738154203167e-05 0.0000000000000000e+00 0.0000000000000000e+00 0.0000000000000000e+00 0.0000000000000000e+00  1.5641029421715086e-05 1.0317953301576587e-06 0.0000000000000000e+00 1.0317953301576587e-06 2.0483528772154758e-05 0.0000000000000000e+00 0.0000000000000000e+00 0.0000000000000000e+00 0.0000000000000000e+00  1.7409016414113994e-05 5.8741151888323661e-08 0.0000000000000000e+00 5.8741151888323661e-08 2.1037831263358995e-05 0.0000000000000000e+00 0.0000000000000000e+00 0.0000000000000000e+00 0.0000000000000000e+00  1.8957443300303704e-05 -3.0859406739932894e-07 0.0000000000000000e+00 -3.0859406739932894e-07 2.1254326930043076e-05 0.0000000000000000e+00 0.0000000000000000e+00 0.0000000000000000e+00 0.0000000000000000e+00  1.9934954870658901e-05 -5.1892045060649834e-07 0.0000000000000000e+00 -5.1892045060649834e-07 2.1051070073874934e-05 0.0000000000000000e+00 0.0000000000000000e+00 0.0000000000000000e+00 0.0000000000000000e+00  2.0550648580992700e-05 -5.4596133174349784e-07 0.0000000000000000e+00 -5.4596133174349784e-07 2.0811435227095687e-05 0.0000000000000000e+00 0.0000000000000000e+00 0.0000000000000000e+00 0.0000000000000000e+00  2.0916040925201011e-05 -4.6640481225840967e-07 0.0000000000000000e+00 -4.6640481225840967e-07 2.0655476759609765e-05 0.0000000000000000e+00 0.0000000000000000e+00 0.0000000000000000e+00 0.0000000000000000e+00  2.1127369483554015e-05 -3.3092745533330222e-07 0.0000000000000000e+00 -3.3092745533330222e-07 2.0642828537853509e-05 0.0000000000000000e+00 0.0000000000000000e+00 0.0000000000000000e+00 0.0000000000000000e+00  2.1240325600879612e-05 -1.8528120980929045e-07 0.0000000000000000e+00 -1.8528120980929045e-07 2.0772663525505929e-05 0.0000000000000000e+00 0.0000000000000000e+00 0.0000000000000000e+00 0.0000000000000000e+00  2.1281268559771960e-05 -6.5215857918279619e-08 0.0000000000000000e+00 -6.5215857918279619e-08 2.0999807998194367e-05 0.0000000000000000e+00 0.0000000000000000e+00 0.0000000000000000e+00 0.0000000000000000e+00  2.1267198748545706e-05 7.9967681124178094e-10 0.0000000000000000e+00 7.9967681124178094e-10 2.1228421853224086e-05 0.0000000000000000e+00 0.0000000000000000e+00 0.0000000000000000e+00 0.0000000000000000e+00  2.1258959556584186e-05 -2.9048213227023641e-08 0.0000000000000000e+00 -2.9048213227023641e-08 2.1285221173240842e-05 0.0000000000000000e+00 0.0000000000000000e+00 0.0000000000000000e+00 0.0000000000000000e+00  -5.9489376707664719e-04 3.3569435145147083e-04 0.0000000000000000e+00 3.3569435145147083e-04 -5.9719412695940902e-04 0.0000000000000000e+00 0.0000000000000000e+00 0.0000000000000000e+00 0.0000000000000000e+00  8.1905412197578022e-04 -6.4228095115729373e-04 0.0000000000000000e+00 -6.4228095115729373e-04 6.5095874846216116e-04 0.0000000000000000e+00 0.0000000000000000e+00 0.0000000000000000e+00 0.0000000000000000e+00  -2.3514814712986207e-03 1.5502575543548721e-03 0.0000000000000000e+00 1.5502575543548721e-03 -1.5864779108694237e-03 0.0000000000000000e+00 0.0000000000000000e+00 0.0000000000000000e+00 0.0000000000000000e+00  3.1980195022288946e-03 -2.8369809633902693e-03 0.0000000000000000e+00 -2.8369809633902693e-03 1.4429822404943232e-03 0.0000000000000000e+00 0.0000000000000000e+00 0.0000000000000000e+00 0.0000000000000000e+00  -1.5853629855277450e-03 2.3565419561234705e-03 0.0000000000000000e+00 2.3565419561234705e-03 -3.3744411339260558e-04 0.0000000000000000e+00 0.0000000000000000e+00 0.0000000000000000e+00 0.0000000000000000e+00  -2.0826330259291503e-03 -3.6354732586346076e-04 0.0000000000000000e+00 -3.6354732586346076e-04 -2.4926470830074661e-03 0.0000000000000000e+00 0.0000000000000000e+00 0.0000000000000000e+00 0.0000000000000000e+00  3.9780636953838282e-03 9.0008505910020148e-06 0.0000000000000000e+00 9.0008505910020148e-06 4.6081951603423260e-03 0.0000000000000000e+00 0.0000000000000000e+00 0.0000000000000000e+00 0.0000000000000000e+00  -2.0353606972720473e-03 2.9379021781935879e-04 0.0000000000000000e+00 2.9379021781935879e-04 -2.4045090487634390e-03 0.0000000000000000e+00 0.0000000000000000e+00 0.0000000000000000e+00 0.0000000000000000e+00  -1.8082011801658791e-03 -2.1986092590847812e-03 0.0000000000000000e+00 -2.1986092590847812e-03 -5.9798874494596639e-04 0.0000000000000000e+00 0.0000000000000000e+00 0.0000000000000000e+00 0.0000000000000000e+00  4.1595852026099223e-03 2.2336024726120119e-03 0.0000000000000000e+00 2.2336024726120119e-03 2.2432138778298765e-03 0.0000000000000000e+00 0.0000000000000000e+00 0.0000000000000000e+00 0.0000000000000000e+00  -4.6329854687288449e-03 -7.6293779977692930e-06 0.0000000000000000e+00 -7.6293779977692930e-06 -3.0873684494676940e-03 0.0000000000000000e+00 0.0000000000000000e+00 0.0000000000000000e+00 0.0000000000000000e+00  4.1662239076613880e-03 -2.2490275312269884e-03 0.0000000000000000e+00 -2.2490275312269884e-03 2.2407703781818808e-03 0.0000000000000000e+00 0.0000000000000000e+00 0.0000000000000000e+00 0.0000000000000000e+00  -1.7936556624081634e-03 2.1832364071014644e-03 0.0000000000000000e+00 2.1832364071014644e-03 -5.9510530969491160e-04 0.0000000000000000e+00 0.0000000000000000e+00 0.0000000000000000e+00 0.0000000000000000e+00  -2.0087536045236094e-03 -3.0932561266137091e-04 0.0000000000000000e+00 -3.0932561266137091e-04 -2.3909799788176334e-03 0.0000000000000000e+00 0.0000000000000000e+00 0.0000000000000000e+00 0.0000000000000000e+00  4.0233530813749826e-03 -2.8718911078047659e-05 0.0000000000000000e+00 -2.8718911078047659e-05 4.6383966998644176e-03 0.0000000000000000e+00 0.0000000000000000e+00 0.0000000000000000e+00 0.0000000000000000e+00  -2.0166871854683565e-03 3.4942440424988951e-04 0.0000000000000000e+00 3.4942440424988951e-04 -2.4417095057176351e-03 0.0000000000000000e+00 0.0000000000000000e+00 0.0000000000000000e+00 0.0000000000000000e+00  -1.5006306267737744e-03 -2.3667906347429090e-03 0.0000000000000000e+00 -2.3667906347429090e-03 -2.6296055887370829e-04 0.0000000000000000e+00 0.0000000000000000e+00 0.0000000000000000e+00 0.0000000000000000e+00  3.2915799971030301e-03 2.8269483878195193e-03 0.0000000000000000e+00 2.8269483878195193e-03 1.5388401545795888e-03 0.0000000000000000e+00 0.0000000000000000e+00 0.0000000000000000e+00 0.0000000000000000e+00  -2.2333519945010125e-03 -1.5440152389452754e-03 0.0000000000000000e+00 -1.5440152389452754e-03 -1.4599477803938945e-03 0.0000000000000000e+00 0.0000000000000000e+00 0.0000000000000000e+00 0.0000000000000000e+00  8.7144203097730324e-04 5.9152610592503056e-04 0.0000000000000000e+00 5.9152610592503056e-04 6.9853173027398555e-04 0.0000000000000000e+00 0.0000000000000000e+00 0.0000000000000000e+00 0.0000000000000000e+00  -2.3494956011442495e-04 -1.7075168738570019e-04 0.0000000000000000e+00 -1.7075168738570019e-04 -2.4747273345747232e-04 0.0000000000000000e+00 0.0000000000000000e+00 0.0000000000000000e+00 0.0000000000000000e+00  6.7349964839521221e-05 5.1468783811823825e-05 0.0000000000000000e+00 5.1468783811823825e-05 7.5193588067386314e-05 0.0000000000000000e+00 0.0000000000000000e+00 0.0000000000000000e+00 0.0000000000000000e+00  -2.2571077646630135e-06 -9.9583049269623509e-06 0.0000000000000000e+00 -9.9583049269623509e-06 -7.2856623541311080e-07 0.0000000000000000e+00 0.0000000000000000e+00 0.0000000000000000e+00 0.0000000000000000e+00  1.4166856638593668e-05 1.6411789880936499e-06 0.0000000000000000e+00 1.6411789880936499e-06 2.2062940975758053e-05 0.0000000000000000e+00 0.0000000000000000e+00 0.0000000000000000e+00 0.0000000000000000e+00  1.4065761825421689e-05 -2.0578559830682754e-06 0.0000000000000000e+00 -2.0578559830682754e-06 2.0233327021322522e-05 0.0000000000000000e+00 0.0000000000000000e+00 0.0000000000000000e+00 0.0000000000000000e+00  1.6853173253968883e-05 -1.7615099533522300e-06 0.0000000000000000e+00 -1.7615099533522300e-06 2.1494540604583331e-05 0.0000000000000000e+00 0.0000000000000000e+00 0.0000000000000000e+00 0.0000000000000000e+00  1.8577997676481934e-05 -1.7539187380087253e-06 0.0000000000000000e+00 -1.7539187380087253e-06 2.1270829580222186e-05 0.0000000000000000e+00 0.0000000000000000e+00 0.0000000000000000e+00 0.0000000000000000e+00  1.9875257920691256e-05 -1.4637308443497979e-06 0.0000000000000000e+00 -1.4637308443497979e-06 2.0960867997339666e-05 0.0000000000000000e+00 0.0000000000000000e+00 0.0000000000000000e+00 0.0000000000000000e+00  2.0716874970761791e-05 -1.1400273788200997e-06 0.0000000000000000e+00 -1.1400273788200997e-06 2.0635986609342213e-05 0.0000000000000000e+00 0.0000000000000000e+00 0.0000000000000000e+00 0.0000000000000000e+00  2.1228261494326796e-05 -8.1024166365945383e-07 0.0000000000000000e+00 -8.1024166365945383e-07 2.0447415277687644e-05 0.0000000000000000e+00 0.0000000000000000e+00 0.0000000000000000e+00 0.0000000000000000e+00  2.1500186415884052e-05 -5.0573009200600248e-07 0.0000000000000000e+00 -5.0573009200600248e-07 2.0434110227970199e-05 0.0000000000000000e+00 0.0000000000000000e+00 0.0000000000000000e+00 0.0000000000000000e+00  2.1604012831015671e-05 -2.4302742387287867e-07 0.0000000000000000e+00 -2.4302742387287867e-07 2.0590860614988654e-05 0.0000000000000000e+00 0.0000000000000000e+00 0.0000000000000000e+00 0.0000000000000000e+00  2.1592321513132350e-05 -4.2261279301930105e-08 0.0000000000000000e+00 -4.2261279301930105e-08 2.0872506924418653e-05 0.0000000000000000e+00 0.0000000000000000e+00 0.0000000000000000e+00 0.0000000000000000e+00  2.1514274449766174e-05 5.9754296403388319e-08 0.0000000000000000e+00 5.9754296403388319e-08 2.1196584848422009e-05 0.0000000000000000e+00 0.0000000000000000e+00 0.0000000000000000e+00 0.0000000000000000e+00  2.1433568302370301e-05 -1.8195399521355956e-08 0.0000000000000000e+00 -1.8195399521355956e-08 2.1444631153640151e-05 0.0000000000000000e+00 0.0000000000000000e+00 0.0000000000000000e+00 0.0000000000000000e+00  1.2849950923527996e-03 -1.1886443063682381e-03 0.0000000000000000e+00 -1.1886443063682381e-03 1.5789405852250551e-03 0.0000000000000000e+00 0.0000000000000000e+00 0.0000000000000000e+00 0.0000000000000000e+00  -3.4203070315654512e-03 2.2709884481340627e-03 0.0000000000000000e+00 2.2709884481340627e-03 -3.4634296303398641e-03 0.0000000000000000e+00 0.0000000000000000e+00 0.0000000000000000e+00 0.0000000000000000e+00  1.1026759974061323e-02 -7.4153376551784776e-03 0.0000000000000000e+00 -7.4153376551784776e-03 8.6497712310221377e-03 0.0000000000000000e+00 0.0000000000000000e+00 0.0000000000000000e+00 0.0000000000000000e+00  -2.8315774168400587e-02 1.8576176056005714e-02 0.0000000000000000e+00 1.8576176056005714e-02 -1.4773520636961657e-02 0.0000000000000000e+00 0.0000000000000000e+00 0.0000000000000000e+00 0.0000000000000000e+00  1.4841200731482164e-02 -2.5276503827505997e-02 0.0000000000000000e+00 -2.5276503827505997e-02 7.2336371184772896e-04 0.0000000000000000e+00 0.0000000000000000e+00 0.0000000000000000e+00 0.0000000000000000e+00  1.7371775347084385e-02 -1.0103318490020290e-02 0.0000000000000000e+00 -1.0103318490020290e-02 4.7053090790229006e-03 0.0000000000000000e+00 0.0000000000000000e+00 0.0000000000000000e+00 0.0000000000000000e+00  -3.2968909211047892e-02 -8.7267380189101287e-05 0.0000000000000000e+00 -8.7267380189101287e-05 -5.2713184894740694e-02 0.0000000000000000e+00 0.0000000000000000e+00 0.0000000000000000e+00 0.0000000000000000e+00  1.7555677179518829e-02 1.0255323040974585e-02 0.0000000000000000e+00 1.0255323040974585e-02 4.5199707827887027e-03 0.0000000000000000e+00 0.0000000000000000e+00 0.0000000000000000e+00 0.0000000000000000e+00  1.5510876698286210e-02 2.4710908942017492e-02 0.0000000000000000e+00 2.4710908942017492e-02 1.7997254610711681e-03 0.0000000000000000e+00 0.0000000000000000e+00 0.0000000000000000e+00 0.0000000000000000e+00  -3.1890130052474271e-02 -1.6520922204806492e-02 0.0000000000000000e+00 -1.6520922204806492e-02 -1.8360560594662338e-02 0.0000000000000000e+00 0.0000000000000000e+00 0.0000000000000000e+00 0.0000000000000000e+00  2.2967395438046573e-02 -8.0198064308394771e-06 0.0000000000000000e+00 -8.0198064308394771e-06 1.7941517727095572e-02 0.0000000000000000e+00 0.0000000000000000e+00 0.0000000000000000e+00 0.0000000000000000e+00  -3.1896854937702633e-02 1.6505290798817556e-02 0.0000000000000000e+00 1.6505290798817556e-02 -1.8363792035965533e-02 0.0000000000000000e+00 0.0000000000000000e+00 0.0000000000000000e+00 0.0000000000000000e+00  1.5500286408706699e-02 -2.4734521634161198e-02 0.0000000000000000e+00 -2.4734521634161198e-02 1.8085315020270919e-03 0.0000000000000000e+00 0.0000000000000000e+00 0.0000000000000000e+00 0.0000000000000000e+00  1.7556752949472974e-02 -1.0290867848575096e-02 0.0000000000000000e+00 -1.0290867848575096e-02 4.5457100044687098e-03 0.0000000000000000e+00 0.0000000000000000e+00 0.0000000000000000e+00 0.0000000000000000e+00  -3.2938668847305168e-02 5.4794741839747045e-05 0.0000000000000000e+00 5.4794741839747045e-05 -5.2683636675205869e-02 0.0000000000000000e+00 0.0000000000000000e+00 0.0000000000000000e+00 0.0000000000000000e+00  1.7449285178663905e-02 1.0056988899191269e-02 0.0000000000000000e+00 1.0056988899191269e-02 4.7390484228739460e-03 0.0000000000000000e+00 0.0000000000000000e+00 0.0000000000000000e+00 0.0000000000000000e+00  1.4955155215560685e-02 2.5239201116514912e-02 0.0000000000000000e+00 2.5239201116514912e-02 7.7835295047141886e-04 0.0000000000000000e+00 0.0000000000000000e+00 0.0000000000000000e+00 0.0000000000000000e+00  -2.8184543026636297e-02 -1.8585367656088678e-02 0.0000000000000000e+00 -1.8585367656088678e-02 -1.4668634664159026e-02 0.0000000000000000e+00 0.0000000000000000e+00 0.0000000000000000e+00 0.0000000000000000e+00  1.1133515939871858e-02 7.3773216950300743e-03 0.0000000000000000e+00 7.3773216950300743e-03 8.7210217026940061e-03 0.0000000000000000e+00 0.0000000000000000e+00 0.0000000000000000e+00 0.0000000000000000e+00  -3.1500619018425603e-03 -2.1474303682945217e-03 0.0000000000000000e+00 -2.1474303682945217e-03 -3.1644065491139239e-03 0.0000000000000000e+00 0.0000000000000000e+00 0.0000000000000000e+00 0.0000000000000000e+00  7.1353620280351386e-04 5.9106854666848439e-04 0.0000000000000000e+00 5.9106854666848439e-04 8.5669185677288444e-04 0.0000000000000000e+00 0.0000000000000000e+00 0.0000000000000000e+00 0.0000000000000000e+00  -1.2701917379972881e-04 -1.2701195968305945e-04 0.0000000000000000e+00 -1.2701195968305945e-04 -1.7364763291186533e-04 0.0000000000000000e+00 0.0000000000000000e+00 0.0000000000000000e+00 0.0000000000000000e+00  3.1914031175894995e-05 2.4504912773382893e-05 0.0000000000000000e+00 2.4504912773382893e-05 5.2009331307364514e-05 0.0000000000000000e+00 0.0000000000000000e+00 0.0000000000000000e+00 0.0000000000000000e+00  8.8264088837298595e-06 -8.1644629804450297e-06 0.0000000000000000e+00 -8.1644629804450297e-06 1.4520898144147857e-05 0.0000000000000000e+00 0.0000000000000000e+00 0.0000000000000000e+00 0.0000000000000000e+00  1.6060237346800947e-05 -3.3720198617493751e-06 0.0000000000000000e+00 -3.3720198617493751e-06 2.2133622292378515e-05 0.0000000000000000e+00 0.0000000000000000e+00 0.0000000000000000e+00 0.0000000000000000e+00  1.7713368447052224e-05 -4.0543840301547389e-06 0.0000000000000000e+00 -4.0543840301547389e-06 2.0984735740090513e-05 0.0000000000000000e+00 0.0000000000000000e+00 0.0000000000000000e+00 0.0000000000000000e+00  1.9509161482727773e-05 -3.2204515163140207e-06 0.0000000000000000e+00 -3.2204515163140207e-06 2.0833146921651672e-05 0.0000000000000000e+00 0.0000000000000000e+00 0.0000000000000000e+00 0.0000000000000000e+00  2.0649720036969557e-05 -2.4897467474310143e-06 0.0000000000000000e+00 -2.4897467474310143e-06 2.0421469637878415e-05 0.0000000000000000e+00 0.0000000000000000e+00 0.0000000000000000e+00 0.0000000000000000e+00  2.1391397147275582e-05 -1.7769469562006100e-06 0.0000000000000000e+00 -1.7769469562006100e-06 2.0136475651915480e-05 0.0000000000000000e+00 0.0000000000000000e+00 0.0000000000000000e+00 0.0000000000000000e+00  2.1819212318575606e-05 -1.1670374384631975e-06 0.0000000000000000e+00 -1.1670374384631975e-06 2.0006780122570853e-05 0.0000000000000000e+00 0.0000000000000000e+00 0.0000000000000000e+00 0.0000000000000000e+00  2.2021385560192929e-05 -6.6033520409301678e-07 0.0000000000000000e+00 -6.6033520409301678e-07 2.0062613073180295e-05 0.0000000000000000e+00 0.0000000000000000e+00 0.0000000000000000e+00 0.0000000000000000e+00  2.2061714392012558e-05 -2.5559202925323255e-07 0.0000000000000000e+00 -2.5559202925323255e-07 2.0296252294179834e-05 0.0000000000000000e+00 0.0000000000000000e+00 0.0000000000000000e+00 0.0000000000000000e+00  2.1989609154809974e-05 3.8631308576408385e-08 0.0000000000000000e+00 3.8631308576408385e-08 2.0677792537527361e-05 0.0000000000000000e+00 0.0000000000000000e+00 0.0000000000000000e+00 0.0000000000000000e+00  2.1847150706857424e-05 1.8503491608689878e-07 0.0000000000000000e+00 1.8503491608689878e-07 2.1158260678741146e-05 0.0000000000000000e+00 0.0000000000000000e+00 0.0000000000000000e+00 0.0000000000000000e+00  2.1676121764808686e-05 9.7087038839054777e-08 0.0000000000000000e+00 9.7087038839054777e-08 2.1675392023753576e-05 0.0000000000000000e+00 0.0000000000000000e+00 0.0000000000000000e+00 0.0000000000000000e+00  -3.0553411528015254e-03 3.0918094351254314e-03 0.0000000000000000e+00 3.0918094351254314e-03 -4.6553620246332144e-03 0.0000000000000000e+00 0.0000000000000000e+00 0.0000000000000000e+00 0.0000000000000000e+00  8.7784483834557423e-03 -7.6641686178537793e-03 0.0000000000000000e+00 -7.6641686178537793e-03 1.1373814943219032e-02 0.0000000000000000e+00 0.0000000000000000e+00 0.0000000000000000e+00 0.0000000000000000e+00  -4.1690285761820711e-02 2.5286570367138193e-02 0.0000000000000000e+00 2.5286570367138193e-02 -4.1673161833325312e-02 0.0000000000000000e+00 0.0000000000000000e+00 0.0000000000000000e+00 0.0000000000000000e+00  1.4863198769192271e-01 -1.0026928457330560e-01 0.0000000000000000e+00 -1.0026928457330560e-01 1.0972708496967068e-01 0.0000000000000000e+00 0.0000000000000000e+00 0.0000000000000000e+00 0.0000000000000000e+00  -3.8690498307140431e-01 2.1712995201792051e-01 0.0000000000000000e+00 2.1712995201792051e-01 -1.2936600958450925e-01 0.0000000000000000e+00 0.0000000000000000e+00 0.0000000000000000e+00 0.0000000000000000e+00  -7.7001431913973228e-01 4.5943741897357749e-03 0.0000000000000000e+00 4.5943741897357749e-03 -7.5183613189511167e-01 0.0000000000000000e+00 0.0000000000000000e+00 0.0000000000000000e+00 0.0000000000000000e+00  -8.2447162535443452e-01 3.1685232590035397e-04 0.0000000000000000e+00 3.1685232590035397e-04 -1.0040400005406112e+00 0.0000000000000000e+00 0.0000000000000000e+00 0.0000000000000000e+00 0.0000000000000000e+00  -7.7248184980666434e-01 -5.5543020216225767e-03 0.0000000000000000e+00 -5.5543020216225767e-03 -7.5180722721824500e-01 0.0000000000000000e+00 0.0000000000000000e+00 0.0000000000000000e+00 0.0000000000000000e+00  -3.8660896535551437e-01 -2.1587284336324461e-01 0.0000000000000000e+00 -2.1587284336324461e-01 -1.3225913952130508e-01 0.0000000000000000e+00 0.0000000000000000e+00 0.0000000000000000e+00 0.0000000000000000e+00  1.6011251317384539e-01 9.3632757464981425e-02 0.0000000000000000e+00 9.3632757464981425e-02 1.2398266203107187e-01 0.0000000000000000e+00 0.0000000000000000e+00 0.0000000000000000e+00 0.0000000000000000e+00  -9.0432208411960549e-02 -2.8117215540211243e-06 0.0000000000000000e+00 -2.8117215540211243e-06 -8.7089552722174224e-02 0.0000000000000000e+00 0.0000000000000000e+00 0.0000000000000000e+00 0.0000000000000000e+00  1.6010222553915457e-01 -9.3635376475990142e-02 0.0000000000000000e+00 -9.3635376475990142e-02 1.2397893030611486e-01 0.0000000000000000e+00 0.0000000000000000e+00 0.0000000000000000e+00 0.0000000000000000e+00  -3.8660791894264446e-01 2.1585567265425309e-01 0.0000000000000000e+00 2.1585567265425309e-01 -1.3222521084025821e-01 0.0000000000000000e+00 0.0000000000000000e+00 0.0000000000000000e+00 0.0000000000000000e+00  -7.7243254948095619e-01 5.4822345562221871e-03 0.0000000000000000e+00 5.4822345562221871e-03 -7.5174617429286705e-01 0.0000000000000000e+00 0.0000000000000000e+00 0.0000000000000000e+00 0.0000000000000000e+00  -8.2440138144406139e-01 -4.0899031908283245e-04 0.0000000000000000e+00 -4.0899031908283245e-04 -1.0039938764296548e+00 0.0000000000000000e+00 0.0000000000000000e+00 0.0000000000000000e+00 0.0000000000000000e+00  -7.6994505780115996e-01 -4.6924005539462866e-03 0.0000000000000000e+00 -4.6924005539462866e-03 -7.5183656419491929e-01 0.0000000000000000e+00 0.0000000000000000e+00 0.0000000000000000e+00 0.0000000000000000e+00  -3.8678504714792483e-01 -2.1716931157297545e-01 0.0000000000000000e+00 -2.1716931157297545e-01 -1.2935884870131026e-01 0.0000000000000000e+00 0.0000000000000000e+00 0.0000000000000000e+00 0.0000000000000000e+00  1.4878371819588962e-01 1.0025092560688208e-01 0.0000000000000000e+00 1.0025092560688208e-01 1.0980391781162409e-01 0.0000000000000000e+00 0.0000000000000000e+00 0.0000000000000000e+00 0.0000000000000000e+00  -4.1506402204550305e-02 -2.5257809455028139e-02 0.0000000000000000e+00 -2.5257809455028139e-02 -4.1510251635667503e-02 0.0000000000000000e+00 0.0000000000000000e+00 0.0000000000000000e+00 0.0000000000000000e+00  8.7308339614911665e-03 7.3759096186339799e-03 0.0000000000000000e+00 7.3759096186339799e-03 1.1118496754490250e-02 0.0000000000000000e+00 0.0000000000000000e+00 0.0000000000000000e+00 0.0000000000000000e+00  -1.4487898098222644e-03 -1.5438556150211649e-03 0.0000000000000000e+00 -1.5438556150211649e-03 -2.2476080094621098e-03 0.0000000000000000e+00 0.0000000000000000e+00 0.0000000000000000e+00 0.0000000000000000e+00  2.1590711191975633e-04 2.7569302638266925e-04 0.0000000000000000e+00 2.7569302638266925e-04 3.7533503290456896e-04 0.0000000000000000e+00 0.0000000000000000e+00 0.0000000000000000e+00 0.0000000000000000e+00  -1.9289195011678285e-05 -5.0807410303896141e-05 0.0000000000000000e+00 -5.0807410303896141e-05 -3.2769590930475442e-05 0.0000000000000000e+00 0.0000000000000000e+00 0.0000000000000000e+00 0.0000000000000000e+00  1.9904683889055549e-05 3.1354999081728675e-07 0.0000000000000000e+00 3.1354999081728675e-07 2.9512810367348229e-05 0.0000000000000000e+00 0.0000000000000000e+00 0.0000000000000000e+00 0.0000000000000000e+00  1.7951034911439958e-05 -7.9249082349629648e-06 0.0000000000000000e+00 -7.9249082349629648e-06 1.9638260940820645e-05 0.0000000000000000e+00 0.0000000000000000e+00 0.0000000000000000e+00 0.0000000000000000e+00  2.0459214307769307e-05 -5.4859936139971917e-06 0.0000000000000000e+00 -5.4859936139971917e-06 2.0442908632650971e-05 0.0000000000000000e+00 0.0000000000000000e+00 0.0000000000000000e+00 0.0000000000000000e+00  2.1480346232296530e-05 -4.4432049337479370e-06 0.0000000000000000e+00 -4.4432049337479370e-06 1.9767234362248936e-05 0.0000000000000000e+00 0.0000000000000000e+00 0.0000000000000000e+00 0.0000000000000000e+00  2.2149628419814223e-05 -3.2161802102962661e-06 0.0000000000000000e+00 -3.2161802102962661e-06 1.9486643295146948e-05 0.0000000000000000e+00 0.0000000000000000e+00 0.0000000000000000e+00 0.0000000000000000e+00  2.2505445691767786e-05 -2.2033327022790783e-06 0.0000000000000000e+00 -2.2033327022790783e-06 1.9329480961702876e-05 0.0000000000000000e+00 0.0000000000000000e+00 0.0000000000000000e+00 0.0000000000000000e+00  2.2661351102868708e-05 -1.3692359277507172e-06 0.0000000000000000e+00 -1.3692359277507172e-06 1.9345695697916944e-05 0.0000000000000000e+00 0.0000000000000000e+00 0.0000000000000000e+00 0.0000000000000000e+00  2.2675859520133482e-05 -7.0324999151965500e-07 0.0000000000000000e+00 -7.0324999151965500e-07 1.9533086479419282e-05 0.0000000000000000e+00 0.0000000000000000e+00 0.0000000000000000e+00 0.0000000000000000e+00  2.2588404850927086e-05 -1.8395573565357912e-07 0.0000000000000000e+00 -1.8395573565357912e-07 1.9891410487420191e-05 0.0000000000000000e+00 0.0000000000000000e+00 0.0000000000000000e+00 0.0000000000000000e+00  2.2424703790560394e-05 1.9087608640121308e-07 0.0000000000000000e+00 1.9087608640121308e-07 2.0413619535315152e-05 0.0000000000000000e+00 0.0000000000000000e+00 0.0000000000000000e+00 0.0000000000000000e+00  2.2201194637099545e-05 3.9050754591849204e-07 0.0000000000000000e+00 3.9050754591849204e-07 2.1090496940276546e-05 0.0000000000000000e+00 0.0000000000000000e+00 0.0000000000000000e+00 0.0000000000000000e+00  2.1926477368960546e-05 3.3268527329093840e-07 0.0000000000000000e+00 3.3268527329093840e-07 2.1914880617549883e-05 0.0000000000000000e+00 0.0000000000000000e+00 0.0000000000000000e+00 0.0000000000000000e+00  2.9127888165341046e-03 -5.6141905916542011e-03 0.0000000000000000e+00 -5.6141905916542011e-03 6.3934089855532360e-03 0.0000000000000000e+00 0.0000000000000000e+00 0.0000000000000000e+00 0.0000000000000000e+00  -1.5026335057672624e-02 1.8952318452057432e-02 0.0000000000000000e+00 1.8952318452057432e-02 -2.8680161951755795e-02 0.0000000000000000e+00 0.0000000000000000e+00 0.0000000000000000e+00 0.0000000000000000e+00  1.0968424911906226e-01 -1.0032009393109306e-01 0.0000000000000000e+00 -1.0032009393109306e-01 1.4868452795179185e-01 0.0000000000000000e+00 0.0000000000000000e+00 0.0000000000000000e+00 0.0000000000000000e+00  -6.3117421325908429e-01 2.3579436582641103e-01 0.0000000000000000e+00 2.3579436582641103e-01 -6.3110668711788409e-01 0.0000000000000000e+00 0.0000000000000000e+00 0.0000000000000000e+00 0.0000000000000000e+00  1.7732634201345156e-02 7.1597491546130584e-02 0.0000000000000000e+00 7.1597491546130584e-02 -1.8421322549744429e-01 0.0000000000000000e+00 0.0000000000000000e+00 0.0000000000000000e+00 0.0000000000000000e+00  3.9489065361747178e-02 -4.7086906470666023e-03 0.0000000000000000e+00 -4.7086906470666023e-03 -2.5815488689791699e-01 0.0000000000000000e+00 0.0000000000000000e+00 0.0000000000000000e+00 0.0000000000000000e+00  -1.4526525234415380e-01 4.7493624460415969e-03 0.0000000000000000e+00 4.7493624460415969e-03 -1.1680170602960742e-01 0.0000000000000000e+00 0.0000000000000000e+00 0.0000000000000000e+00 0.0000000000000000e+00  2.7289879705687699e-02 9.8148482691841604e-03 0.0000000000000000e+00 9.8148482691841604e-03 -2.4990906728784870e-01 0.0000000000000000e+00 0.0000000000000000e+00 0.0000000000000000e+00 0.0000000000000000e+00  -1.8981489322722589e-04 -8.7894711877439705e-02 0.0000000000000000e+00 -8.7894711877439705e-02 -1.8402162065442002e-01 0.0000000000000000e+00 0.0000000000000000e+00 0.0000000000000000e+00 0.0000000000000000e+00  -6.3870319604904291e-01 -2.2443354204314192e-01 0.0000000000000000e+00 -2.2443354204314192e-01 -6.6949458306648357e-01 0.0000000000000000e+00 0.0000000000000000e+00 0.0000000000000000e+00 0.0000000000000000e+00  3.0274837744612493e-01 2.3137347089614223e-06 0.0000000000000000e+00 2.3137347089614223e-06 3.3145020796951380e-01 0.0000000000000000e+00 0.0000000000000000e+00 0.0000000000000000e+00 0.0000000000000000e+00  -6.3869131742674945e-01 2.2441875788194063e-01 0.0000000000000000e+00 2.2441875788194063e-01 -6.6947443830318332e-01 0.0000000000000000e+00 0.0000000000000000e+00 0.0000000000000000e+00 0.0000000000000000e+00  -1.1716039739011197e-04 8.7818746678817006e-02 0.0000000000000000e+00 8.7818746678817006e-02 -1.8393123147901821e-01 0.0000000000000000e+00 0.0000000000000000e+00 0.0000000000000000e+00 0.0000000000000000e+00  2.7339528065810501e-02 -9.8793393960049432e-03 0.0000000000000000e+00 -9.8793393960049432e-03 -2.4984673758505288e-01 0.0000000000000000e+00 0.0000000000000000e+00 0.0000000000000000e+00 0.0000000000000000e+00  -1.4524598326660976e-01 -4.8338977607155350e-03 0.0000000000000000e+00 -4.8338977607155350e-03 -1.1674670566899166e-01 0.0000000000000000e+00 0.0000000000000000e+00 0.0000000000000000e+00 0.0000000000000000e+00  3.9476115993161462e-02 4.6274813403775579e-03 0.0000000000000000e+00 4.6274813403775579e-03 -2.5811673670990232e-01 0.0000000000000000e+00 0.0000000000000000e+00 0.0000000000000000e+00 0.0000000000000000e+00  1.7681598471618661e-02 -7.1728578936616411e-02 0.0000000000000000e+00 -7.1728578936616411e-02 -1.8425430265968279e-01 0.0000000000000000e+00 0.0000000000000000e+00 0.0000000000000000e+00 0.0000000000000000e+00  -6.3110773817706867e-01 -2.3584066268241571e-01 0.0000000000000000e+00 -2.3584066268241571e-01 -6.3108559895158667e-01 0.0000000000000000e+00 0.0000000000000000e+00 0.0000000000000000e+00 0.0000000000000000e+00  1.0981383082187317e-01 1.0025378888703314e-01 0.0000000000000000e+00 1.0025378888703314e-01 1.4875760828795875e-01 0.0000000000000000e+00 0.0000000000000000e+00 0.0000000000000000e+00 0.0000000000000000e+00  -1.4670038819165079e-02 -1.8588856569125956e-02 0.0000000000000000e+00 -1.8588856569125956e-02 -2.8199153698583793e-02 0.0000000000000000e+00 0.0000000000000000e+00 0.0000000000000000e+00 0.0000000000000000e+00  1.5360525354466829e-03 2.8250895863091477e-03 0.0000000000000000e+00 2.8250895863091477e-03 3.2752237477786115e-03 0.0000000000000000e+00 0.0000000000000000e+00 0.0000000000000000e+00 0.0000000000000000e+00  -1.7750713626691825e-04 -4.0110131937980272e-04 0.0000000000000000e+00 -4.0110131937980272e-04 -3.8672070786748751e-04 0.0000000000000000e+00 0.0000000000000000e+00 0.0000000000000000e+00 0.0000000000000000e+00  4.0652373770458062e-05 4.6610248159064569e-05 0.0000000000000000e+00 4.6610248159064562e-05 7.7064524854937241e-05 0.0000000000000000e+00 0.0000000000000000e+00 0.0000000000000000e+00 0.0000000000000000e+00  1.9796734768369248e-05 -1.8915361131786301e-05 0.0000000000000000e+00 -1.8915361131786301e-05 1.3637959625202540e-05 0.0000000000000000e+00 0.0000000000000000e+00 0.0000000000000000e+00 0.0000000000000000e+00  2.3941713145130700e-05 -7.0999404793340880e-06 0.0000000000000000e+00 -7.0999404793340880e-06 2.0498943170415618e-05 0.0000000000000000e+00 0.0000000000000000e+00 0.0000000000000000e+00 0.0000000000000000e+00  2.4155870643249608e-05 -6.7616528484261813e-06 0.0000000000000000e+00 -6.7616528484261813e-06 1.8545271805987199e-05 0.0000000000000000e+00 0.0000000000000000e+00 0.0000000000000000e+00 0.0000000000000000e+00  2.4211887780530800e-05 -4.7946321820442997e-06 0.0000000000000000e+00 -4.7946321820442997e-06 1.8363806123389195e-05 0.0000000000000000e+00 0.0000000000000000e+00 0.0000000000000000e+00 0.0000000000000000e+00  2.4059031689320060e-05 -3.3900425535428721e-06 0.0000000000000000e+00 -3.3900425535428721e-06 1.8247151066830672e-05 0.0000000000000000e+00 0.0000000000000000e+00 0.0000000000000000e+00 0.0000000000000000e+00  2.3841837163457390e-05 -2.2179667274231902e-06 0.0000000000000000e+00 -2.2179667274231902e-06 1.8329215159936160e-05 0.0000000000000000e+00 0.0000000000000000e+00 0.0000000000000000e+00 0.0000000000000000e+00  2.3603794259740054e-05 -1.2921815988246751e-06 0.0000000000000000e+00 -1.2921815988246751e-06 1.8546935268435145e-05 0.0000000000000000e+00 0.0000000000000000e+00 0.0000000000000000e+00 0.0000000000000000e+00  2.3356850525217605e-05 -5.5988643368504769e-07 0.0000000000000000e+00 -5.5988643368504769e-07 1.8904118526116101e-05 0.0000000000000000e+00 0.0000000000000000e+00 0.0000000000000000e+00 0.0000000000000000e+00  2.3099449995846111e-05 1.1595398528830252e-08 0.0000000000000000e+00 1.1595398528830252e-08 1.9411955377233160e-05 0.0000000000000000e+00 0.0000000000000000e+00 0.0000000000000000e+00 0.0000000000000000e+00  2.2822441931525801e-05 4.3417840889702047e-07 0.0000000000000000e+00 4.3417840889702047e-07 2.0090883395904038e-05 0.0000000000000000e+00 0.0000000000000000e+00 0.0000000000000000e+00 0.0000000000000000e+00  2.2508933041747151e-05 6.8614921617779550e-07 0.0000000000000000e+00 6.8614921617779550e-07 2.0972236544794719e-05 0.0000000000000000e+00 0.0000000000000000e+00 0.0000000000000000e+00 0.0000000000000000e+00  2.2128905539005236e-05 6.9540502625022472e-07 0.0000000000000000e+00 6.9540502625022472e-07 2.2106464087324500e-05 0.0000000000000000e+00 0.0000000000000000e+00 0.0000000000000000e+00 0.0000000000000000e+00  -6.1710464092015499e-04 4.8275838829554924e-03 0.0000000000000000e+00 4.8275838829554924e-03 -3.0477453494447918e-03 0.0000000000000000e+00 0.0000000000000000e+00 0.0000000000000000e+00 0.0000000000000000e+00  7.0352549903023303e-04 -2.5631872199631152e-02 0.0000000000000000e+00 -2.5631872199631152e-02 1.5115907744210946e-02 0.0000000000000000e+00 0.0000000000000000e+00 0.0000000000000000e+00 0.0000000000000000e+00  -1.2928102688090085e-01 2.1712165855118282e-01 0.0000000000000000e+00 2.1712165855118282e-01 -3.8685130171293119e-01 0.0000000000000000e+00 0.0000000000000000e+00 0.0000000000000000e+00 0.0000000000000000e+00  -1.8284837019926548e-01 7.0520447199287628e-02 0.0000000000000000e+00 7.0520447199287628e-02 1.7777946047083087e-02 0.0000000000000000e+00 0.0000000000000000e+00 0.0000000000000000e+00 0.0000000000000000e+00  -2.1962275846371992e-01 -3.6995557550677668e-02 0.0000000000000000e+00 -3.6995557550677668e-02 -2.2308068525431163e-01 0.0000000000000000e+00 0.0000000000000000e+00 0.0000000000000000e+00 0.0000000000000000e+00  -1.7849920620369716e-01 2.2211170359962035e-02 0.0000000000000000e+00 2.2211170359962035e-02 -9.4869656809715999e-02 0.0000000000000000e+00 0.0000000000000000e+00 0.0000000000000000e+00 0.0000000000000000e+00  -1.0234655164083131e-01 9.7869148260631301e-03 0.0000000000000000e+00 9.7869148260631301e-03 -1.7019804001652514e-01 0.0000000000000000e+00 0.0000000000000000e+00 0.0000000000000000e+00 0.0000000000000000e+00  -1.8736072535983359e-01 -3.3444209980265055e-03 0.0000000000000000e+00 -3.3444209980265055e-03 -8.1602042100176062e-02 0.0000000000000000e+00 0.0000000000000000e+00 0.0000000000000000e+00 0.0000000000000000e+00  -2.4281280512858544e-01 5.2465469085665010e-02 0.0000000000000000e+00 5.2465469085665010e-02 -1.8412904250116821e-01 0.0000000000000000e+00 0.0000000000000000e+00 0.0000000000000000e+00 0.0000000000000000e+00  -2.5673548868012308e-01 -1.3279048209659672e-01 0.0000000000000000e+00 -1.3279048209659672e-01 -1.2656912757789353e-02 0.0000000000000000e+00 0.0000000000000000e+00 0.0000000000000000e+00 0.0000000000000000e+00  -8.8618567923742075e-01 -7.6763631568223145e-06 0.0000000000000000e+00 -7.6763631568223145e-06 -9.4052002147107983e-01 0.0000000000000000e+00 0.0000000000000000e+00 0.0000000000000000e+00 0.0000000000000000e+00  -2.5667177147824755e-01 1.3272185651609952e-01 0.0000000000000000e+00 1.3272185651609952e-01 -1.2566995775563774e-02 0.0000000000000000e+00 0.0000000000000000e+00 0.0000000000000000e+00 0.0000000000000000e+00  -2.4278753141858259e-01 -5.2514422954512453e-02 0.0000000000000000e+00 -5.2514422954512453e-02 -1.8406243952587345e-01 0.0000000000000000e+00 0.0000000000000000e+00 0.0000000000000000e+00 0.0000000000000000e+00  -1.8735212072104560e-01 3.2949116522150244e-03 0.0000000000000000e+00 3.2949116522150244e-03 -8.1536350420759893e-02 0.0000000000000000e+00 0.0000000000000000e+00 0.0000000000000000e+00 0.0000000000000000e+00  -1.0236254813142472e-01 -9.8351984836371441e-03 0.0000000000000000e+00 -9.8351984836371441e-03 -1.7013777280130837e-01 0.0000000000000000e+00 0.0000000000000000e+00 0.0000000000000000e+00 0.0000000000000000e+00  -1.7854909835042715e-01 -2.2261621605103768e-02 0.0000000000000000e+00 -2.2261621605103768e-02 -9.4818907182507975e-02 0.0000000000000000e+00 0.0000000000000000e+00 0.0000000000000000e+00 0.0000000000000000e+00  -2.1972524221159406e-01 3.6943610801588339e-02 0.0000000000000000e+00 3.6943610801588339e-02 -2.2303126020885122e-01 0.0000000000000000e+00 0.0000000000000000e+00 0.0000000000000000e+00 0.0000000000000000e+00  -1.8308093690550681e-01 -7.0692972051368194e-02 0.0000000000000000e+00 -7.0692972051368194e-02 1.7747138455193504e-02 0.0000000000000000e+00 0.0000000000000000e+00 0.0000000000000000e+00 0.0000000000000000e+00  -1.2938768355034189e-01 -2.1718284543475619e-01 0.0000000000000000e+00 -2.1718284543475619e-01 -3.8677922304123447e-01 0.0000000000000000e+00 0.0000000000000000e+00 0.0000000000000000e+00 0.0000000000000000e+00  7.5525709825571710e-04 2.5248931506389197e-02 0.0000000000000000e+00 2.5248931506389197e-02 1.4970083325921046e-02 0.0000000000000000e+00 0.0000000000000000e+00 0.0000000000000000e+00 0.0000000000000000e+00  -2.8847332137849356e-04 -2.3656670512476777e-03 0.0000000000000000e+00 -2.3656670512476777e-03 -1.5194562711578262e-03 0.0000000000000000e+00 0.0000000000000000e+00 0.0000000000000000e+00 0.0000000000000000e+00  4.4324358590801520e-06 3.1316109759946584e-04 0.0000000000000000e+00 3.1316109759946584e-04 1.9181812736282296e-04 0.0000000000000000e+00 0.0000000000000000e+00 0.0000000000000000e+00 0.0000000000000000e+00  4.3918036472871004e-05 -6.2679079178982436e-05 0.0000000000000000e+00 -6.2679079178982436e-05 3.2847520265605928e-06 0.0000000000000000e+00 0.0000000000000000e+00 0.0000000000000000e+00 0.0000000000000000e+00  2.9014980767284136e-05 -3.2667058641043224e-06 0.0000000000000000e+00 -3.2667058641043232e-06 2.1013536292071942e-05 0.0000000000000000e+00 0.0000000000000000e+00 0.0000000000000000e+00 0.0000000000000000e+00  3.0433136877240002e-05 -9.3112345791616792e-06 0.0000000000000000e+00 -9.3112345791616792e-06 1.6866874618572080e-05 0.0000000000000000e+00 0.0000000000000000e+00 0.0000000000000000e+00 0.0000000000000000e+00  2.8289858638022113e-05 -5.7465549299100908e-06 0.0000000000000000e+00 -5.7465549299100908e-06 1.6760002691662708e-05 0.0000000000000000e+00 0.0000000000000000e+00 0.0000000000000000e+00 0.0000000000000000e+00  2.7022753344949624e-05 -4.2060122497196239e-06 0.0000000000000000e+00 -4.2060122497196239e-06 1.6718182092385636e-05 0.0000000000000000e+00 0.0000000000000000e+00 0.0000000000000000e+00 0.0000000000000000e+00  2.5917543754400812e-05 -2.8017248701922714e-06 0.0000000000000000e+00 -2.8017248701922714e-06 1.6962748697553601e-05 0.0000000000000000e+00 0.0000000000000000e+00 0.0000000000000000e+00 0.0000000000000000e+00  2.5076475843396534e-05 -1.7308845017341633e-06 0.0000000000000000e+00 -1.7308845017341633e-06 1.7309595584649903e-05 0.0000000000000000e+00 0.0000000000000000e+00 0.0000000000000000e+00 0.0000000000000000e+00  2.4423432422777815e-05 -8.7915712314123489e-07 0.0000000000000000e+00 -8.7915712314123489e-07 1.7741084818216773e-05 0.0000000000000000e+00 0.0000000000000000e+00 0.0000000000000000e+00 0.0000000000000000e+00  2.3907460587594414e-05 -1.9915091379181382e-07 0.0000000000000000e+00 -1.9915091379181382e-07 1.8265326340621852e-05 0.0000000000000000e+00 0.0000000000000000e+00 0.0000000000000000e+00 0.0000000000000000e+00  2.3478679316058034e-05 3.4683440456446252e-07 0.0000000000000000e+00 3.4683440456446252e-07 1.8913532206135051e-05 0.0000000000000000e+00 0.0000000000000000e+00 0.0000000000000000e+00 0.0000000000000000e+00  2.3091237255637079e-05 7.7378651320260573e-07 0.0000000000000000e+00 7.7378651320260573e-07 1.9732586594046611e-05 0.0000000000000000e+00 0.0000000000000000e+00 0.0000000000000000e+00 0.0000000000000000e+00  2.2695585519342157e-05 1.0689629436941054e-06 0.0000000000000000e+00 1.0689629436941054e-06 2.0790464329914290e-05 0.0000000000000000e+00 0.0000000000000000e+00 0.0000000000000000e+00 0.0000000000000000e+00  2.2224142198012953e-05 1.1775319414569110e-06 0.0000000000000000e+00 1.1775319414569110e-06 2.2191971113959448e-05 0.0000000000000000e+00 0.0000000000000000e+00 0.0000000000000000e+00 0.0000000000000000e+00  -4.7653811782915473e-03 -5.9294913284532020e-04 0.0000000000000000e+00 -5.9294913284532020e-04 -3.8729726323304438e-03 0.0000000000000000e+00 0.0000000000000000e+00 0.0000000000000000e+00 0.0000000000000000e+00  5.3423237629085674e-03 -9.9992650300386680e-03 0.0000000000000000e+00 -9.9992650300386680e-03 1.7824531665763369e-02 0.0000000000000000e+00 0.0000000000000000e+00 0.0000000000000000e+00 0.0000000000000000e+00  -7.5159931364862309e-01 3.8758060118963137e-03 0.0000000000000000e+00 3.8758060118963137e-03 -7.6865940557522727e-01 0.0000000000000000e+00 0.0000000000000000e+00 0.0000000000000000e+00 0.0000000000000000e+00  -2.5677417362048199e-01 -7.7455623081937024e-03 0.0000000000000000e+00 -7.7455623081937024e-03 4.0210170249734306e-02 0.0000000000000000e+00 0.0000000000000000e+00 0.0000000000000000e+00 0.0000000000000000e+00  -8.9770555260302642e-02 1.8507488113950418e-02 0.0000000000000000e+00 1.8507488113950418e-02 -1.8379748691947376e-01 0.0000000000000000e+00 0.0000000000000000e+00 0.0000000000000000e+00 0.0000000000000000e+00  -1.4222947432445429e-01 -1.3047643719166167e-02 0.0000000000000000e+00 -1.3047643719166167e-02 -1.5359782596403271e-01 0.0000000000000000e+00 0.0000000000000000e+00 0.0000000000000000e+00 0.0000000000000000e+00  -1.4312637236935866e-01 9.1104060836412638e-03 0.0000000000000000e+00 9.1104060836412638e-03 -1.2974172217592672e-01 0.0000000000000000e+00 0.0000000000000000e+00 0.0000000000000000e+00 0.0000000000000000e+00  -1.2792546443689357e-01 3.5017590177093078e-02 0.0000000000000000e+00 3.5017590177093078e-02 -1.4498818096413232e-01 0.0000000000000000e+00 0.0000000000000000e+00 0.0000000000000000e+00 0.0000000000000000e+00  -8.9529676862693086e-02 1.5404037126139098e-02 0.0000000000000000e+00 1.5404037126139098e-02 -1.4741594937048424e-01 0.0000000000000000e+00 0.0000000000000000e+00 0.0000000000000000e+00 0.0000000000000000e+00  -1.0623150052341540e-01 9.8326799780964286e-02 0.0000000000000000e+00 9.8326799780964286e-02 6.5108383253708088e-02 0.0000000000000000e+00 0.0000000000000000e+00 0.0000000000000000e+00 0.0000000000000000e+00  -1.2294054891296808e+00 -4.2777571721351421e-05 0.0000000000000000e+00 -4.2777571721351421e-05 -9.4643267879154946e-01 0.0000000000000000e+00 0.0000000000000000e+00 0.0000000000000000e+00 0.0000000000000000e+00  -1.0623624037403893e-01 -9.8375634371545853e-02 0.0000000000000000e+00 -9.8375634371545853e-02 6.5174710006665387e-02 0.0000000000000000e+00 0.0000000000000000e+00 0.0000000000000000e+00 0.0000000000000000e+00  -8.9533928214750313e-02 -1.5441107521141018e-02 0.0000000000000000e+00 -1.5441107521141018e-02 -1.4735200862120387e-01 0.0000000000000000e+00 0.0000000000000000e+00 0.0000000000000000e+00 0.0000000000000000e+00  -1.2794450804409174e-01 -3.5047835494991936e-02 0.0000000000000000e+00 -3.5047835494991936e-02 -1.4492680873410144e-01 0.0000000000000000e+00 0.0000000000000000e+00 0.0000000000000000e+00 0.0000000000000000e+00  -1.4316097617539750e-01 -9.1362384309415807e-03 0.0000000000000000e+00 -9.1362384309415807e-03 -1.2968566709074017e-01 0.0000000000000000e+00 0.0000000000000000e+00 0.0000000000000000e+00 0.0000000000000000e+00  -1.4228133267645335e-01 1.3030920582052612e-02 0.0000000000000000e+00 1.3030920582052612e-02 -1.5354820537580793e-01 0.0000000000000000e+00 0.0000000000000000e+00 0.0000000000000000e+00 0.0000000000000000e+00  -8.9840302414547255e-02 -1.8517521066617568e-02 0.0000000000000000e+00 -1.8517521066617568e-02 -1.8375923136100883e-01 0.0000000000000000e+00 0.0000000000000000e+00 0.0000000000000000e+00 0.0000000000000000e+00  -2.5689202308131043e-01 7.7848442635961137e-03 0.0000000000000000e+00 7.7848442635961137e-03 4.0338210267021696e-02 0.0000000000000000e+00 0.0000000000000000e+00 0.0000000000000000e+00 0.0000000000000000e+00  -7.5190077905747266e-01 -4.1748070116834441e-03 0.0000000000000000e+00 -4.1748070116834441e-03 -7.6853816483779513e-01 0.0000000000000000e+00 0.0000000000000000e+00 0.0000000000000000e+00 0.0000000000000000e+00  4.6667464646234311e-03 1.0019609804415018e-02 0.0000000000000000e+00 1.0019609804415018e-02 1.7373673257328925e-02 0.0000000000000000e+00 0.0000000000000000e+00 0.0000000000000000e+00 0.0000000000000000e+00  -2.4844798291083639e-03 3.5546302295029296e-04 0.0000000000000000e+00 3.5546302295029296e-04 -2.0293774207697018e-03 0.0000000000000000e+00 0.0000000000000000e+00 0.0000000000000000e+00 0.0000000000000000e+00  4.3585780083045485e-04 -1.4911873791482102e-04 0.0000000000000000e+00 -1.4911873791482102e-04 2.9056221059366291e-04 0.0000000000000000e+00 0.0000000000000000e+00 0.0000000000000000e+00 0.0000000000000000e+00  -9.4143758368323505e-06 1.5714007998418018e-05 0.0000000000000000e+00 1.5714007998418018e-05 -1.3818616593845064e-05 0.0000000000000000e+00 0.0000000000000000e+00 0.0000000000000000e+00 0.0000000000000000e+00  4.8421984610805000e-05 -1.1437130267506616e-05 0.0000000000000000e+00 -1.1437130267506616e-05 2.0013550205494592e-05 0.0000000000000000e+00 0.0000000000000000e+00 0.0000000000000000e+00 0.0000000000000000e+00  3.3967096498328420e-05 -4.5000948113505118e-06 0.0000000000000000e+00 -4.5000948113505126e-06 1.4401483162005295e-05 0.0000000000000000e+00 0.0000000000000000e+00 0.0000000000000000e+00 0.0000000000000000e+00  3.1817922443548850e-05 -3.7211181430690473e-06 0.0000000000000000e+00 -3.7211181430690473e-06 1.5039529029181715e-05 0.0000000000000000e+00 0.0000000000000000e+00 0.0000000000000000e+00 0.0000000000000000e+00  2.9018554227063043e-05 -2.4223774010954292e-06 0.0000000000000000e+00 -2.4223774010954292e-06 1.5380795492208721e-05 0.0000000000000000e+00 0.0000000000000000e+00 0.0000000000000000e+00 0.0000000000000000e+00  2.7196151140120840e-05 -1.5202800186177719e-06 0.0000000000000000e+00 -1.5202800186177719e-06 1.5917442324360777e-05 0.0000000000000000e+00 0.0000000000000000e+00 0.0000000000000000e+00 0.0000000000000000e+00  2.5854782404865336e-05 -7.7639440020985570e-07 0.0000000000000000e+00 -7.7639440020985570e-07 1.6479782106768901e-05 0.0000000000000000e+00 0.0000000000000000e+00 0.0000000000000000e+00 0.0000000000000000e+00  2.4884873469199806e-05 -1.6473236682988657e-07 0.0000000000000000e+00 -1.6473236682988657e-07 1.7069454416032755e-05 0.0000000000000000e+00 0.0000000000000000e+00 0.0000000000000000e+00 0.0000000000000000e+00  2.4165158728478444e-05 3.5415794021375430e-07 0.0000000000000000e+00 3.5415794021375430e-07 1.7712316197878830e-05 0.0000000000000000e+00 0.0000000000000000e+00 0.0000000000000000e+00 0.0000000000000000e+00  2.3608730109029937e-05 8.0318892681550612e-07 0.0000000000000000e+00 8.0318892681550612e-07 1.8455803069996464e-05 0.0000000000000000e+00 0.0000000000000000e+00 0.0000000000000000e+00 0.0000000000000000e+00  2.3141328696494299e-05 1.1935118244966266e-06 0.0000000000000000e+00 1.1935118244966266e-06 1.9366511257120627e-05 0.0000000000000000e+00 0.0000000000000000e+00 0.0000000000000000e+00 0.0000000000000000e+00  2.2689291101762571e-05 1.5200891668484870e-06 0.0000000000000000e+00 1.5200891668484870e-06 2.0538684204796171e-05 0.0000000000000000e+00 0.0000000000000000e+00 0.0000000000000000e+00 0.0000000000000000e+00  2.2156821836111662e-05 1.7527729154302045e-06 0.0000000000000000e+00 1.7527729154302045e-06 2.2117674285895001e-05 0.0000000000000000e+00 0.0000000000000000e+00 0.0000000000000000e+00 0.0000000000000000e+00  9.5839783944486681e-03 1.8430467127072674e-05 0.0000000000000000e+00 1.8430467127072674e-05 8.3824772606792327e-03 0.0000000000000000e+00 0.0000000000000000e+00 0.0000000000000000e+00 0.0000000000000000e+00  -5.2784120825336754e-02 6.0713234795867973e-06 0.0000000000000000e+00 6.0713234795867973e-06 -3.3224375154376602e-02 0.0000000000000000e+00 0.0000000000000000e+00 0.0000000000000000e+00 0.0000000000000000e+00  -1.0043840986213788e+00 -1.0181943975254571e-06 0.0000000000000000e+00 -1.0181943975254571e-06 -8.2085713307756480e-01 0.0000000000000000e+00 0.0000000000000000e+00 0.0000000000000000e+00 0.0000000000000000e+00  -1.1815952424834773e-01 1.5798267408983494e-07 0.0000000000000000e+00 1.5798267408983494e-07 -1.4110202306317432e-01 0.0000000000000000e+00 0.0000000000000000e+00 0.0000000000000000e+00 0.0000000000000000e+00  -1.6802435568891438e-01 -2.2684247984736220e-06 0.0000000000000000e+00 -2.2684247984736220e-06 -1.0725606551260872e-01 0.0000000000000000e+00 0.0000000000000000e+00 0.0000000000000000e+00 0.0000000000000000e+00  -1.1856572183626027e-01 -1.9627456743190364e-06 0.0000000000000000e+00 -1.9627456743190300e-06 -1.5977334903603721e-01 0.0000000000000000e+00 0.0000000000000000e+00 0.0000000000000000e+00 0.0000000000000000e+00  -1.2594902812850972e-01 -2.7049982625029904e-06 0.0000000000000000e+00 -2.7049982625030454e-06 -1.5003617970885808e-01 0.0000000000000000e+00 0.0000000000000000e+00 0.0000000000000000e+00 0.0000000000000000e+00  -9.9686323031371843e-02 -3.6844300250793782e-06 0.0000000000000000e+00 -3.6844300250793782e-06 -1.5289409610023788e-01 0.0000000000000000e+00 0.0000000000000000e+00 0.0000000000000000e+00 0.0000000000000000e+00  -7.8208703708087426e-02 -4.8201798632142158e-06 0.0000000000000000e+00 -4.8201798632142158e-06 -1.0804734490840971e-01 0.0000000000000000e+00 0.0000000000000000e+00 0.0000000000000000e+00 0.0000000000000000e+00  2.3597759852112030e-02 -1.2964792982687825e-05 0.0000000000000000e+00 -1.2964792982687825e-05 -7.2126521654576656e-02 0.0000000000000000e+00 0.0000000000000000e+00 0.0000000000000000e+00 0.0000000000000000e+00  -8.1057751250983978e-01 -3.4411261090135595e-05 0.0000000000000000e+00 -3.4411261090135575e-05 7.0048142361061938e-02 0.0000000000000000e+00 0.0000000000000000e+00 0.0000000000000000e+00 0.0000000000000000e+00  2.3580687934674882e-02 -3.3048583012228006e-05 0.0000000000000000e+00 -3.3048583012228006e-05 -7.2090306019311476e-02 0.0000000000000000e+00 0.0000000000000000e+00 0.0000000000000000e+00 0.0000000000000000e+00  -7.8236627135600034e-02 -2.1935318495693055e-05 0.0000000000000000e+00 -2.1935318495693055e-05 -1.0799455677184983e-01 0.0000000000000000e+00 0.0000000000000000e+00 0.0000000000000000e+00 0.0000000000000000e+00  -9.9724019524722957e-02 -1.4766584016936944e-05 0.0000000000000000e+00 -1.4766584016936944e-05 -1.5283793833752099e-01 0.0000000000000000e+00 0.0000000000000000e+00 0.0000000000000000e+00 0.0000000000000000e+00  -1.2599670651170633e-01 -1.1760283329762002e-05 0.0000000000000000e+00 -1.1760283329762002e-05 -1.4998436883880617e-01 0.0000000000000000e+00 0.0000000000000000e+00 0.0000000000000000e+00 0.0000000000000000e+00  -1.1861681517526865e-01 -1.0436741849410603e-05 0.0000000000000000e+00 -1.0436741849410603e-05 -1.5973456456784726e-01 0.0000000000000000e+00 0.0000000000000000e+00 0.0000000000000000e+00 0.0000000000000000e+00  -1.6806955174102522e-01 -8.0480186836673518e-06 0.0000000000000000e+00 -8.0480186836673518e-06 -1.0721355970361686e-01 0.0000000000000000e+00 0.0000000000000000e+00 0.0000000000000000e+00 0.0000000000000000e+00  -1.1819623329954089e-01 -3.8037677722908748e-06 0.0000000000000000e+00 -3.8037677722908748e-06 -1.4102270771070277e-01 0.0000000000000000e+00 0.0000000000000000e+00 0.0000000000000000e+00 0.0000000000000000e+00  -1.0045589644040116e+00 -3.6711006397557276e-07 0.0000000000000000e+00 -3.6711006397557276e-07 -8.2051574496030133e-01 0.0000000000000000e+00 0.0000000000000000e+00 0.0000000000000000e+00 0.0000000000000000e+00  -5.2727598987595631e-02 -6.6535962950074216e-08 0.0000000000000000e+00 -6.6535962950074216e-08 -3.3193289410853422e-02 0.0000000000000000e+00 0.0000000000000000e+00 0.0000000000000000e+00 0.0000000000000000e+00  4.5992558537137620e-03 7.0053348926862868e-08 0.0000000000000000e+00 7.0053348926862868e-08 4.0369825458336922e-03 0.0000000000000000e+00 0.0000000000000000e+00 0.0000000000000000e+00 0.0000000000000000e+00  -5.0492110107261282e-04 -5.5710204704666077e-08 0.0000000000000000e+00 -5.5710204704666077e-08 -4.4687256681663748e-04 0.0000000000000000e+00 0.0000000000000000e+00 0.0000000000000000e+00 0.0000000000000000e+00  1.3009527693498787e-04 -1.7837578352865583e-07 0.0000000000000000e+00 -1.7837578352865586e-07 7.5843772966230694e-05 0.0000000000000000e+00 0.0000000000000000e+00 0.0000000000000000e+00 0.0000000000000000e+00  3.2486906763118801e-05 -2.5457420990352804e-07 0.0000000000000000e+00 -2.5457420990352804e-07 7.3457625180856814e-06 0.0000000000000000e+00 0.0000000000000000e+00 0.0000000000000000e+00 0.0000000000000000e+00  3.8627525099374154e-05 -2.5182367673024498e-07 0.0000000000000000e+00 -2.5182367673024477e-07 1.4841543106506259e-05 0.0000000000000000e+00 0.0000000000000000e+00 0.0000000000000000e+00 0.0000000000000000e+00  3.2413131700850668e-05 -1.6408775106305536e-07 0.0000000000000000e+00 -1.6408775106305547e-07 1.4095137232753139e-05 0.0000000000000000e+00 0.0000000000000000e+00 0.0000000000000000e+00 0.0000000000000000e+00  2.9617721914373439e-05 -3.5790297228106425e-09 0.0000000000000000e+00 -3.5790297228106425e-09 1.4770810285439663e-05 0.0000000000000000e+00 0.0000000000000000e+00 0.0000000000000000e+00 0.0000000000000000e+00  2.7424043351787211e-05 2.1023139737213581e-07 0.0000000000000000e+00 2.1023139737213586e-07 1.5376431977777032e-05 0.0000000000000000e+00 0.0000000000000000e+00 0.0000000000000000e+00 0.0000000000000000e+00  2.5902341182860264e-05 4.5940807411087699e-07 0.0000000000000000e+00 4.5940807411087699e-07 1.6007019492989516e-05 0.0000000000000000e+00 0.0000000000000000e+00 0.0000000000000000e+00 0.0000000000000000e+00  2.4805855588367089e-05 7.3191679863164061e-07 0.0000000000000000e+00 7.3191679863164061e-07 1.6643357040231896e-05 0.0000000000000000e+00 0.0000000000000000e+00 0.0000000000000000e+00 0.0000000000000000e+00  2.4006415234746317e-05 1.0222816094498406e-06 0.0000000000000000e+00 1.0222816094498406e-06 1.7319014072566539e-05 0.0000000000000000e+00 0.0000000000000000e+00 0.0000000000000000e+00 0.0000000000000000e+00  2.3401046342358670e-05 1.3300464792864175e-06 0.0000000000000000e+00 1.3300464792864175e-06 1.8085466955643054e-05 0.0000000000000000e+00 0.0000000000000000e+00 0.0000000000000000e+00 0.0000000000000000e+00  2.2905496199526358e-05 1.6573597895144920e-06 0.0000000000000000e+00 1.6573597895144920e-06 1.9015821877029632e-05 0.0000000000000000e+00 0.0000000000000000e+00 0.0000000000000000e+00 0.0000000000000000e+00  2.2436499933458580e-05 2.0064845102783881e-06 0.0000000000000000e+00 2.0064845102783881e-06 2.0214559122541407e-05 0.0000000000000000e+00 0.0000000000000000e+00 0.0000000000000000e+00 0.0000000000000000e+00  2.1886265633828583e-05 2.3772100581840469e-06 0.0000000000000000e+00 2.3772100581840469e-06 2.1844330501044260e-05 0.0000000000000000e+00 0.0000000000000000e+00 0.0000000000000000e+00 0.0000000000000000e+00  -4.7428133625175787e-03 6.2489248593529270e-04 0.0000000000000000e+00 6.2489248593529270e-04 -3.8523290174869878e-03 0.0000000000000000e+00 0.0000000000000000e+00 0.0000000000000000e+00 0.0000000000000000e+00  5.3713310623324509e-03 1.0016750911850452e-02 0.0000000000000000e+00 1.0016750911850452e-02 1.7838193262815619e-02 0.0000000000000000e+00 0.0000000000000000e+00 0.0000000000000000e+00 0.0000000000000000e+00  -7.5156688058525400e-01 -3.8715354327536833e-03 0.0000000000000000e+00 -3.8715354327536833e-03 -7.6863430723367254e-01 0.0000000000000000e+00 0.0000000000000000e+00 0.0000000000000000e+00 0.0000000000000000e+00  -2.5674787898194007e-01 7.7361393749422244e-03 0.0000000000000000e+00 7.7361393749422244e-03 4.0210896526609932e-02 0.0000000000000000e+00 0.0000000000000000e+00 0.0000000000000000e+00 0.0000000000000000e+00  -8.9744018104231785e-02 -1.8513389116817401e-02 0.0000000000000000e+00 -1.8513389116817401e-02 -1.8379881734824596e-01 0.0000000000000000e+00 0.0000000000000000e+00 0.0000000000000000e+00 0.0000000000000000e+00  -1.4220135172377427e-01 1.3043019676361461e-02 0.0000000000000000e+00 1.3043019676361461e-02 -1.5359729346676151e-01 0.0000000000000000e+00 0.0000000000000000e+00 0.0000000000000000e+00 0.0000000000000000e+00  -1.4309592690313089e-01 -9.1184916504249147e-03 0.0000000000000000e+00 -9.1184916504249147e-03 -1.2973874667655486e-01 0.0000000000000000e+00 0.0000000000000000e+00 0.0000000000000000e+00 0.0000000000000000e+00  -1.2788725000958848e-01 -3.5029578334977989e-02 0.0000000000000000e+00 -3.5029578334977989e-02 -1.4498665414694253e-01 0.0000000000000000e+00 0.0000000000000000e+00 0.0000000000000000e+00 0.0000000000000000e+00  -8.9480936179699641e-02 -1.5419018722562553e-02 0.0000000000000000e+00 -1.5419018722562553e-02 -1.4741050021524935e-01 0.0000000000000000e+00 0.0000000000000000e+00 0.0000000000000000e+00 0.0000000000000000e+00  -1.0618149870131356e-01 -9.8346943724097025e-02 0.0000000000000000e+00 -9.8346943724097025e-02 6.5133499196354222e-02 0.0000000000000000e+00 0.0000000000000000e+00 0.0000000000000000e+00 0.0000000000000000e+00  -1.2293515521491198e+00 -2.4236160817176280e-05 0.0000000000000000e+00 -2.4236160817176277e-05 -9.4639497636879244e-01 0.0000000000000000e+00 0.0000000000000000e+00 0.0000000000000000e+00 0.0000000000000000e+00  -1.0620186942747248e-01 9.8318967744568470e-02 0.0000000000000000e+00 9.8318967744568470e-02 6.5147060041642696e-02 0.0000000000000000e+00 0.0000000000000000e+00 0.0000000000000000e+00 0.0000000000000000e+00  -8.9518490247653792e-02 1.5403213373295787e-02 0.0000000000000000e+00 1.5403213373295787e-02 -1.4736983675900456e-01 0.0000000000000000e+00 0.0000000000000000e+00 0.0000000000000000e+00 0.0000000000000000e+00  -1.2793587777273685e-01 3.5021791630530139e-02 0.0000000000000000e+00 3.5021791630530139e-02 -1.4493567843496682e-01 0.0000000000000000e+00 0.0000000000000000e+00 0.0000000000000000e+00 0.0000000000000000e+00  -1.4315696154811314e-01 9.1139940262064904e-03 0.0000000000000000e+00 9.1139940262064904e-03 -1.2968834711643773e-01 0.0000000000000000e+00 0.0000000000000000e+00 0.0000000000000000e+00 0.0000000000000000e+00  -1.4227788561354640e-01 -1.3051847432355854e-02 0.0000000000000000e+00 -1.3051847432355854e-02 -1.5355101752824252e-01 0.0000000000000000e+00 0.0000000000000000e+00 0.0000000000000000e+00 0.0000000000000000e+00  -8.9836867386177105e-02 1.8501453939998955e-02 0.0000000000000000e+00 1.8501453939998955e-02 -1.8376625266529897e-01 0.0000000000000000e+00 0.0000000000000000e+00 0.0000000000000000e+00 0.0000000000000000e+00  -2.5688898679700467e-01 -7.7919385663376669e-03 0.0000000000000000e+00 -7.7919385663376669e-03 4.0328198679622777e-02 0.0000000000000000e+00 0.0000000000000000e+00 0.0000000000000000e+00 0.0000000000000000e+00  -7.5190101839239243e-01 4.1753955365391206e-03 0.0000000000000000e+00 4.1753955365391206e-03 -7.6854026434428491e-01 0.0000000000000000e+00 0.0000000000000000e+00 0.0000000000000000e+00 0.0000000000000000e+00  4.6656466533218357e-03 -1.0019487010869316e-02 0.0000000000000000e+00 -1.0019487010869316e-02 1.7373374357683578e-02 0.0000000000000000e+00 0.0000000000000000e+00 0.0000000000000000e+00 0.0000000000000000e+00  -2.4854069197318323e-03 -3.5537437420910445e-04 0.0000000000000000e+00 -3.5537437420910445e-04 -2.0291987351329253e-03 0.0000000000000000e+00 0.0000000000000000e+00 0.0000000000000000e+00 0.0000000000000000e+00  4.3492019554047177e-04 1.4900499416865162e-04 0.0000000000000000e+00 1.4900499416865162e-04 2.9081996937065443e-04 0.0000000000000000e+00 0.0000000000000000e+00 0.0000000000000000e+00 0.0000000000000000e+00  -1.0338765983844199e-05 -1.6091858556375590e-05 0.0000000000000000e+00 -1.6091858556375590e-05 -1.3600303327463479e-05 0.0000000000000000e+00 0.0000000000000000e+00 0.0000000000000000e+00 0.0000000000000000e+00  4.7554459628786555e-05 1.0894615846302903e-05 0.0000000000000000e+00 1.0894615846302903e-05 2.0094399700126727e-05 0.0000000000000000e+00 0.0000000000000000e+00 0.0000000000000000e+00 0.0000000000000000e+00  3.3167052009618782e-05 3.9659614673573207e-06 0.0000000000000000e+00 3.9659614673573207e-06 1.4306985059475571e-05 0.0000000000000000e+00 0.0000000000000000e+00 0.0000000000000000e+00 0.0000000000000000e+00  3.1067114850023093e-05 3.3750366740055330e-06 0.0000000000000000e+00 3.3750366740055330e-06 1.4781437193868542e-05 0.0000000000000000e+00 0.0000000000000000e+00 0.0000000000000000e+00 0.0000000000000000e+00  2.8288453310273956e-05 2.4110784913671088e-06 0.0000000000000000e+00 2.4110784913671093e-06 1.4996398642466307e-05 0.0000000000000000e+00 0.0000000000000000e+00 0.0000000000000000e+00 0.0000000000000000e+00  2.6462556198311236e-05 1.9462845922513044e-06 0.0000000000000000e+00 1.9462845922513044e-06 1.5447323534837548e-05 0.0000000000000000e+00 0.0000000000000000e+00 0.0000000000000000e+00 0.0000000000000000e+00  2.5104196077939643e-05 1.7048037510582421e-06 0.0000000000000000e+00 1.7048037510582421e-06 1.5954746236738588e-05 0.0000000000000000e+00 0.0000000000000000e+00 0.0000000000000000e+00 0.0000000000000000e+00  2.4114677718259702e-05 1.6374021579156315e-06 0.0000000000000000e+00 1.6374021579156315e-06 1.6506375664899122e-05 0.0000000000000000e+00 0.0000000000000000e+00 0.0000000000000000e+00 0.0000000000000000e+00  2.3380552540797983e-05 1.6955098434584747e-06 0.0000000000000000e+00 1.6955098434584747e-06 1.7115854807223890e-05 0.0000000000000000e+00 0.0000000000000000e+00 0.0000000000000000e+00 0.0000000000000000e+00  2.2818792133605272e-05 1.8572136554775644e-06 0.0000000000000000e+00 1.8572136554775644e-06 1.7822921087048650e-05 0.0000000000000000e+00 0.0000000000000000e+00 0.0000000000000000e+00 0.0000000000000000e+00  2.2355514106194921e-05 2.1172177033194938e-06 0.0000000000000000e+00 2.1172177033194938e-06 1.8691605136552488e-05 0.0000000000000000e+00 0.0000000000000000e+00 0.0000000000000000e+00 0.0000000000000000e+00  2.1914761542737597e-05 2.4863050564039631e-06 0.0000000000000000e+00 2.4863050564039631e-06 1.9818353122939041e-05 0.0000000000000000e+00 0.0000000000000000e+00 0.0000000000000000e+00 0.0000000000000000e+00  2.1395713484359583e-05 2.9956134090279445e-06 0.0000000000000000e+00 2.9956134090279445e-06 2.1355847266643243e-05 0.0000000000000000e+00 0.0000000000000000e+00 0.0000000000000000e+00 0.0000000000000000e+00  -5.7833563839454504e-04 -4.8005304711752133e-03 0.0000000000000000e+00 -4.8005304711752133e-03 -3.0109905071881221e-03 0.0000000000000000e+00 0.0000000000000000e+00 0.0000000000000000e+00 0.0000000000000000e+00  7.4746548190604859e-04 2.5648511059317789e-02 0.0000000000000000e+00 2.5648511059317789e-02 1.5137767117143689e-02 0.0000000000000000e+00 0.0000000000000000e+00 0.0000000000000000e+00 0.0000000000000000e+00  -1.2923031817579922e-01 -2.1711745254340692e-01 0.0000000000000000e+00 -2.1711745254340692e-01 -3.8680803155288551e-01 0.0000000000000000e+00 0.0000000000000000e+00 0.0000000000000000e+00 0.0000000000000000e+00  -1.8280110193012009e-01 -7.0533767694524338e-02 0.0000000000000000e+00 -7.0533767694524338e-02 1.7781880877341893e-02 0.0000000000000000e+00 0.0000000000000000e+00 0.0000000000000000e+00 0.0000000000000000e+00  -2.1957082556548446e-01 3.6988252998184694e-02 0.0000000000000000e+00 3.6988252998184694e-02 -2.2308679985798743e-01 0.0000000000000000e+00 0.0000000000000000e+00 0.0000000000000000e+00 0.0000000000000000e+00  -1.7844782976250873e-01 -2.2217774887199712e-02 0.0000000000000000e+00 -2.2217774887199712e-02 -9.4866555260232785e-02 0.0000000000000000e+00 0.0000000000000000e+00 0.0000000000000000e+00 0.0000000000000000e+00  -1.0228801725769943e-01 -9.8014607088517409e-03 0.0000000000000000e+00 -9.8014607088517409e-03 -1.7018836510889254e-01 0.0000000000000000e+00 0.0000000000000000e+00 0.0000000000000000e+00 0.0000000000000000e+00  -1.8729427568524554e-01 3.3204286417520385e-03 0.0000000000000000e+00 3.3204286417520385e-03 -8.1594370776661720e-02 0.0000000000000000e+00 0.0000000000000000e+00 0.0000000000000000e+00 0.0000000000000000e+00  -2.4273169167704572e-01 -5.2492541696596937e-02 0.0000000000000000e+00 -5.2492541696596937e-02 -1.8412396938955913e-01 0.0000000000000000e+00 0.0000000000000000e+00 0.0000000000000000e+00 0.0000000000000000e+00  -2.5662612023792963e-01 1.3274205871132821e-01 0.0000000000000000e+00 1.3274205871132821e-01 -1.2604877357473367e-02 0.0000000000000000e+00 0.0000000000000000e+00 0.0000000000000000e+00 0.0000000000000000e+00  -8.8611521345888267e-01 -3.4807689222437942e-06 0.0000000000000000e+00 -3.4807689222437950e-06 -9.4047843194952163e-01 0.0000000000000000e+00 0.0000000000000000e+00 0.0000000000000000e+00 0.0000000000000000e+00  -2.5665576648949234e-01 -1.3275921109294378e-01 0.0000000000000000e+00 -1.3275921109294378e-01 -1.2607819817855640e-02 0.0000000000000000e+00 0.0000000000000000e+00 0.0000000000000000e+00 0.0000000000000000e+00  -2.4276734622665644e-01 5.2487578278667735e-02 0.0000000000000000e+00 5.2487578278667735e-02 -1.8409099713216681e-01 0.0000000000000000e+00 0.0000000000000000e+00 0.0000000000000000e+00 0.0000000000000000e+00  -1.8734010466330922e-01 -3.3151927155024631e-03 0.0000000000000000e+00 -3.3151927155024631e-03 -8.1551354126422157e-02 0.0000000000000000e+00 0.0000000000000000e+00 0.0000000000000000e+00 0.0000000000000000e+00  -1.0235202790958206e-01 9.8155091020618018e-03 0.0000000000000000e+00 9.8155091020618018e-03 -1.7014031416899311e-01 0.0000000000000000e+00 0.0000000000000000e+00 0.0000000000000000e+00 0.0000000000000000e+00  -1.7854074131591835e-01 2.2240576219761398e-02 0.0000000000000000e+00 2.2240576219761398e-02 -9.4823631135889666e-02 0.0000000000000000e+00 0.0000000000000000e+00 0.0000000000000000e+00 0.0000000000000000e+00  -2.1971720534854919e-01 -3.6958585286461516e-02 0.0000000000000000e+00 -3.6958585286461516e-02 -2.2304593008945287e-01 0.0000000000000000e+00 0.0000000000000000e+00 0.0000000000000000e+00 0.0000000000000000e+00  -1.8308002900739168e-01 7.0690794783959232e-02 0.0000000000000000e+00 7.0690794783959232e-02 1.7722902356829398e-02 0.0000000000000000e+00 0.0000000000000000e+00 0.0000000000000000e+00 0.0000000000000000e+00  -1.2938955202772967e-01 2.1718390706459664e-01 0.0000000000000000e+00 2.1718390706459664e-01 -3.8678051914962291e-01 0.0000000000000000e+00 0.0000000000000000e+00 0.0000000000000000e+00 0.0000000000000000e+00  7.5404316488591550e-04 -2.5248511288733719e-02 0.0000000000000000e+00 -2.5248511288733719e-02 1.4970044583637692e-02 0.0000000000000000e+00 0.0000000000000000e+00 0.0000000000000000e+00 0.0000000000000000e+00  -2.9005639459864625e-04 2.3659416373388543e-03 0.0000000000000000e+00 2.3659416373388543e-03 -1.5191728048628277e-03 0.0000000000000000e+00 0.0000000000000000e+00 0.0000000000000000e+00 0.0000000000000000e+00  2.5863845129863233e-06 -3.1321305685852864e-04 0.0000000000000000e+00 -3.1321305685852864e-04 1.9239221838751716e-04 0.0000000000000000e+00 0.0000000000000000e+00 0.0000000000000000e+00 0.0000000000000000e+00  4.2069073504280706e-05 6.2242748414558711e-05 0.0000000000000000e+00 6.2242748414558711e-05 3.7712217124778329e-06 0.0000000000000000e+00 0.0000000000000000e+00 0.0000000000000000e+00 0.0000000000000000e+00  2.7297164461514519e-05 2.6178292745140934e-06 0.0000000000000000e+00 2.6178292745140934e-06 2.1185063752896054e-05 0.0000000000000000e+00 0.0000000000000000e+00 0.0000000000000000e+00 0.0000000000000000e+00  2.8858470627350056e-05 8.6854368761482903e-06 0.0000000000000000e+00 8.6854368761482903e-06 1.6657632982579854e-05 0.0000000000000000e+00 0.0000000000000000e+00 0.0000000000000000e+00 0.0000000000000000e+00  2.6807298581629808e-05 5.3517691001719505e-06 0.0000000000000000e+00 5.3517691001719505e-06 1.6214056370561547e-05 0.0000000000000000e+00 0.0000000000000000e+00 0.0000000000000000e+00 0.0000000000000000e+00  2.5569175334632056e-05 4.1885207368166919e-06 0.0000000000000000e+00 4.1885207368166919e-06 1.5924877089629582e-05 0.0000000000000000e+00 0.0000000000000000e+00 0.0000000000000000e+00 0.0000000000000000e+00  2.4445417984036574e-05 3.2492377631520564e-06 0.0000000000000000e+00 3.2492377631520564e-06 1.6009261221502059e-05 0.0000000000000000e+00 0.0000000000000000e+00 0.0000000000000000e+00 0.0000000000000000e+00  2.3562970217766142e-05 2.6907282131936869e-06 0.0000000000000000e+00 2.6907282131936869e-06 1.6257354258229929e-05 0.0000000000000000e+00 0.0000000000000000e+00 0.0000000000000000e+00 0.0000000000000000e+00  2.2867730139266443e-05 2.3790199613970216e-06 0.0000000000000000e+00 2.3790199613970216e-06 1.6620552326048179e-05 0.0000000000000000e+00 0.0000000000000000e+00 0.0000000000000000e+00 0.0000000000000000e+00  2.2323214333511595e-05 2.2635404097226088e-06 0.0000000000000000e+00 2.2635404097226088e-06 1.7081788770365410e-05 0.0000000000000000e+00 0.0000000000000000e+00 0.0000000000000000e+00 0.0000000000000000e+00  2.1885790833195301e-05 2.3133436695179825e-06 0.0000000000000000e+00 2.3133436695179825e-06 1.7657399081228825e-05 0.0000000000000000e+00 0.0000000000000000e+00 0.0000000000000000e+00 0.0000000000000000e+00  2.1509105054753589e-05 2.5237610773841943e-06 0.0000000000000000e+00 2.5237610773841943e-06 1.8390036961302131e-05 0.0000000000000000e+00 0.0000000000000000e+00 0.0000000000000000e+00 0.0000000000000000e+00  2.1138381320810878e-05 2.9165282934544920e-06 0.0000000000000000e+00 2.9165282934544920e-06 1.9352509913007181e-05 0.0000000000000000e+00 0.0000000000000000e+00 0.0000000000000000e+00 0.0000000000000000e+00  2.0696484620104527e-05 3.5510630867785333e-06 0.0000000000000000e+00 3.5510630867785333e-06 2.0663228206872370e-05 0.0000000000000000e+00 0.0000000000000000e+00 0.0000000000000000e+00 0.0000000000000000e+00  2.9590276126234107e-03 5.6364244727446491e-03 0.0000000000000000e+00 5.6364244727446491e-03 6.4394206917207635e-03 0.0000000000000000e+00 0.0000000000000000e+00 0.0000000000000000e+00 0.0000000000000000e+00  -1.4977421068601228e-02 -1.8941016342821380e-02 0.0000000000000000e+00 -1.8941016342821380e-02 -2.8646005668957610e-02 0.0000000000000000e+00 0.0000000000000000e+00 0.0000000000000000e+00 0.0000000000000000e+00  1.0973504830690804e-01 1.0032225943197792e-01 0.0000000000000000e+00 1.0032225943197792e-01 1.4872749398423452e-01 0.0000000000000000e+00 0.0000000000000000e+00 0.0000000000000000e+00 0.0000000000000000e+00  -6.3112225697156465e-01 -2.3580213560439720e-01 0.0000000000000000e+00 -2.3580213560439720e-01 -6.3108370246359247e-01 0.0000000000000000e+00 0.0000000000000000e+00 0.0000000000000000e+00 0.0000000000000000e+00  1.7792298175143405e-02 -7.1616916678444248e-02 0.0000000000000000e+00 -7.1616916678444248e-02 -1.8423624971924710e-01 0.0000000000000000e+00 0.0000000000000000e+00 0.0000000000000000e+00 0.0000000000000000e+00  3.9574409756206907e-02 4.7053073769570426e-03 0.0000000000000000e+00 4.7053073769570426e-03 -2.5815073166744407e-01 0.0000000000000000e+00 0.0000000000000000e+00 0.0000000000000000e+00 0.0000000000000000e+00  -1.4518350174216932e-01 -4.7733523808863258e-03 0.0000000000000000e+00 -4.7733523808863258e-03 -1.1678460772550205e-01 0.0000000000000000e+00 0.0000000000000000e+00 0.0000000000000000e+00 0.0000000000000000e+00  2.7390187943987867e-02 -9.8518901836752715e-03 0.0000000000000000e+00 -9.8518901836752715e-03 -2.4989755267997080e-01 0.0000000000000000e+00 0.0000000000000000e+00 0.0000000000000000e+00 0.0000000000000000e+00  -1.0341715381560368e-04 8.7862268621067247e-02 0.0000000000000000e+00 8.7862268621067247e-02 -1.8400566865326182e-01 0.0000000000000000e+00 0.0000000000000000e+00 0.0000000000000000e+00 0.0000000000000000e+00  -6.3866941345084427e-01 2.2442737842904875e-01 0.0000000000000000e+00 2.2442737842904875e-01 -6.6947048901755857e-01 0.0000000000000000e+00 0.0000000000000000e+00 0.0000000000000000e+00 0.0000000000000000e+00  3.0277063366822760e-01 2.7184288206299141e-07 0.0000000000000000e+00 2.7184288206299199e-07 3.3147716909263458e-01 0.0000000000000000e+00 0.0000000000000000e+00 0.0000000000000000e+00 0.0000000000000000e+00  -6.3866878967036833e-01 -2.2442771027579869e-01 0.0000000000000000e+00 -2.2442771027579869e-01 -6.6946967288264103e-01 0.0000000000000000e+00 0.0000000000000000e+00 0.0000000000000000e+00 0.0000000000000000e+00  -1.1574159658773362e-04 -8.7858292544608224e-02 0.0000000000000000e+00 -8.7858292544608224e-02 -1.8398426301311949e-01 0.0000000000000000e+00 0.0000000000000000e+00 0.0000000000000000e+00 0.0000000000000000e+00  2.7365176506123457e-02 9.8674773507258194e-03 0.0000000000000000e+00 9.8674773507258194e-03 -2.4986749788730175e-01 0.0000000000000000e+00 0.0000000000000000e+00 0.0000000000000000e+00 0.0000000000000000e+00  -1.4522493372629064e-01 4.8128703127745332e-03 0.0000000000000000e+00 4.8128703127745332e-03 -1.1674988819847282e-01 0.0000000000000000e+00 0.0000000000000000e+00 0.0000000000000000e+00 0.0000000000000000e+00  3.9509348990353250e-02 -4.6512263759287756e-03 0.0000000000000000e+00 -4.6512263759287756e-03 -2.5812710515262094e-01 0.0000000000000000e+00 0.0000000000000000e+00 0.0000000000000000e+00 0.0000000000000000e+00  1.7700962496038860e-02 7.1721297300229830e-02 0.0000000000000000e+00 7.1721297300229830e-02 -1.8428901252731827e-01 0.0000000000000000e+00 0.0000000000000000e+00 0.0000000000000000e+00 0.0000000000000000e+00  -6.3110709319430103e-01 2.3584672710677682e-01 0.0000000000000000e+00 2.3584672710677682e-01 -6.3111587706012251e-01 0.0000000000000000e+00 0.0000000000000000e+00 0.0000000000000000e+00 0.0000000000000000e+00  1.0981504326793844e-01 -1.0025415173591339e-01 0.0000000000000000e+00 -1.0025415173591339e-01 1.4875816447078610e-01 0.0000000000000000e+00 0.0000000000000000e+00 0.0000000000000000e+00 0.0000000000000000e+00  -1.4671044840746951e-02 1.8590543604246831e-02 0.0000000000000000e+00 1.8590543604246831e-02 -2.8199523502895025e-02 0.0000000000000000e+00 0.0000000000000000e+00 0.0000000000000000e+00 0.0000000000000000e+00  1.5334916488000448e-03 -2.8240874060667409e-03 0.0000000000000000e+00 -2.8240874060667409e-03 3.2759949339812148e-03 0.0000000000000000e+00 0.0000000000000000e+00 0.0000000000000000e+00 0.0000000000000000e+00  -1.8044073085314027e-04 4.0117305700274004e-04 0.0000000000000000e+00 4.0117305700274004e-04 -3.8554566802235173e-04 0.0000000000000000e+00 0.0000000000000000e+00 0.0000000000000000e+00 0.0000000000000000e+00  3.7854999726025637e-05 -4.7196294870416435e-05 0.0000000000000000e+00 -4.7196294870416435e-05 7.7946497036946881e-05 0.0000000000000000e+00 0.0000000000000000e+00 0.0000000000000000e+00 0.0000000000000000e+00  1.7279777820372762e-05 1.8060084682255575e-05 0.0000000000000000e+00 1.8060084682255575e-05 1.3904525871275478e-05 0.0000000000000000e+00 0.0000000000000000e+00 0.0000000000000000e+00 0.0000000000000000e+00  2.1650555654730087e-05 6.3259214235419895e-06 0.0000000000000000e+00 6.3259214235419895e-06 2.0118937158516649e-05 0.0000000000000000e+00 0.0000000000000000e+00 0.0000000000000000e+00 0.0000000000000000e+00  2.1976173029613808e-05 6.3063230564873767e-06 0.0000000000000000e+00 6.3063230564873767e-06 1.7646344808250027e-05 0.0000000000000000e+00 0.0000000000000000e+00 0.0000000000000000e+00 0.0000000000000000e+00  2.2039344429278095e-05 4.7887885438563023e-06 0.0000000000000000e+00 4.7887885438563023e-06 1.7113985871961237e-05 0.0000000000000000e+00 0.0000000000000000e+00 0.0000000000000000e+00 0.0000000000000000e+00  2.1830177692353459e-05 3.8888060045650761e-06 0.0000000000000000e+00 3.8888060045650761e-06 1.6788284730143542e-05 0.0000000000000000e+00 0.0000000000000000e+00 0.0000000000000000e+00 0.0000000000000000e+00  2.1535292410466371e-05 3.2374958251810185e-06 0.0000000000000000e+00 3.2374958251810185e-06 1.6749954949542116e-05 0.0000000000000000e+00 0.0000000000000000e+00 0.0000000000000000e+00 0.0000000000000000e+00  2.1229735841809515e-05 2.8382063969566281e-06 0.0000000000000000e+00 2.8382063969566281e-06 1.6883433068424394e-05 0.0000000000000000e+00 0.0000000000000000e+00 0.0000000000000000e+00 0.0000000000000000e+00  2.0943132666967170e-05 2.6458365224146602e-06 0.0000000000000000e+00 2.6458365224146602e-06 1.7153954607002146e-05 0.0000000000000000e+00 0.0000000000000000e+00 0.0000000000000000e+00 0.0000000000000000e+00  2.0679332874848010e-05 2.6437875446070424e-06 0.0000000000000000e+00 2.6437875446070424e-06 1.7552247212705866e-05 0.0000000000000000e+00 0.0000000000000000e+00 0.0000000000000000e+00 0.0000000000000000e+00  2.0425482569339572e-05 2.8371229147926045e-06 0.0000000000000000e+00 2.8371229147926045e-06 1.8094966739916154e-05 0.0000000000000000e+00 0.0000000000000000e+00 0.0000000000000000e+00 0.0000000000000000e+00  2.0155371965114172e-05 3.2606828945762699e-06 0.0000000000000000e+00 3.2606828945762699e-06 1.8822204070129248e-05 0.0000000000000000e+00 0.0000000000000000e+00 0.0000000000000000e+00 0.0000000000000000e+00  1.9825860513735413e-05 3.9949816686304024e-06 0.0000000000000000e+00 3.9949816686304024e-06 1.9802567298483957e-05 0.0000000000000000e+00 0.0000000000000000e+00 0.0000000000000000e+00 0.0000000000000000e+00  -3.0030234065033029e-03 -3.0740264812664877e-03 0.0000000000000000e+00 -3.0740264812664877e-03 -4.6036424694629458e-03 0.0000000000000000e+00 0.0000000000000000e+00 0.0000000000000000e+00 0.0000000000000000e+00  8.8333080123547663e-03 7.6733470675045164e-03 0.0000000000000000e+00 7.6733470675045164e-03 1.1420302416654067e-02 0.0000000000000000e+00 0.0000000000000000e+00 0.0000000000000000e+00 0.0000000000000000e+00  -4.1631501185024088e-02 -2.5288443905840043e-02 0.0000000000000000e+00 -2.5288443905840043e-02 -4.1626779868322347e-02 0.0000000000000000e+00 0.0000000000000000e+00 0.0000000000000000e+00 0.0000000000000000e+00  1.4869423120787240e-01 1.0026291185644673e-01 0.0000000000000000e+00 1.0026291185644673e-01 1.0977331326507105e-01 0.0000000000000000e+00 0.0000000000000000e+00 0.0000000000000000e+00 0.0000000000000000e+00  -3.8685912735194294e-01 -2.1715806308406882e-01 0.0000000000000000e+00 -2.1715806308406882e-01 -1.2937306696989812e-01 0.0000000000000000e+00 0.0000000000000000e+00 0.0000000000000000e+00 0.0000000000000000e+00  -7.6995146085324939e-01 -4.6478440098564559e-03 0.0000000000000000e+00 -4.6478440098564559e-03 -7.5186462730584214e-01 0.0000000000000000e+00 0.0000000000000000e+00 0.0000000000000000e+00 0.0000000000000000e+00  -8.2435821247108221e-01 -3.4081883704704615e-04 0.0000000000000000e+00 -3.4081883704704615e-04 -1.0040161623089983e+00 0.0000000000000000e+00 0.0000000000000000e+00 0.0000000000000000e+00 0.0000000000000000e+00  -7.7242696033486713e-01 5.5623421518926240e-03 0.0000000000000000e+00 5.5623421518926240e-03 -7.5181888508524219e-01 0.0000000000000000e+00 0.0000000000000000e+00 0.0000000000000000e+00 0.0000000000000000e+00  -3.8659384426560384e-01 2.1588319528069974e-01 0.0000000000000000e+00 2.1588319528069974e-01 -1.3225476279951104e-01 0.0000000000000000e+00 0.0000000000000000e+00 0.0000000000000000e+00 0.0000000000000000e+00  1.6013382423254224e-01 -9.3631462154286180e-02 0.0000000000000000e+00 -9.3631462154286180e-02 1.2400572299739673e-01 0.0000000000000000e+00 0.0000000000000000e+00 0.0000000000000000e+00 0.0000000000000000e+00  -9.0407633110974411e-02 7.0487847689698118e-07 0.0000000000000000e+00 7.0487847689698298e-07 -8.7063958413624742e-02 0.0000000000000000e+00 0.0000000000000000e+00 0.0000000000000000e+00 0.0000000000000000e+00  1.6012971108789364e-01 9.3632709768289440e-02 0.0000000000000000e+00 9.3632709768289440e-02 1.2400389245731448e-01 0.0000000000000000e+00 0.0000000000000000e+00 0.0000000000000000e+00 0.0000000000000000e+00  -3.8659337315238201e-01 -2.1587739609742576e-01 0.0000000000000000e+00 -2.1587739609742576e-01 -1.3224614958841777e-01 0.0000000000000000e+00 0.0000000000000000e+00 0.0000000000000000e+00 0.0000000000000000e+00  -7.7241969294981949e-01 -5.5400046346533545e-03 0.0000000000000000e+00 -5.5400046346533545e-03 -7.5180246538516815e-01 0.0000000000000000e+00 0.0000000000000000e+00 0.0000000000000000e+00 0.0000000000000000e+00  -8.2433868956786227e-01 3.7918780280246222e-04 0.0000000000000000e+00 3.7918780280246222e-04 -1.0040002226834286e+00 0.0000000000000000e+00 0.0000000000000000e+00 0.0000000000000000e+00 0.0000000000000000e+00  -7.6992489919808205e-01 4.7020203508234305e-03 0.0000000000000000e+00 4.7020203508234305e-03 -7.5188162530257874e-01 0.0000000000000000e+00 0.0000000000000000e+00 0.0000000000000000e+00 0.0000000000000000e+00  -3.8679532195452271e-01 2.1718745514437079e-01 0.0000000000000000e+00 2.1718745514437079e-01 -1.2940884284124493e-01 0.0000000000000000e+00 0.0000000000000000e+00 0.0000000000000000e+00 0.0000000000000000e+00  1.4878397917355191e-01 -1.0024624245808979e-01 0.0000000000000000e+00 -1.0024624245808979e-01 1.0979080336949347e-01 0.0000000000000000e+00 0.0000000000000000e+00 0.0000000000000000e+00 0.0000000000000000e+00  -4.1507773107141419e-02 2.5262131001068760e-02 0.0000000000000000e+00 2.5262131001068760e-02 -4.1512687978175714e-02 0.0000000000000000e+00 0.0000000000000000e+00 0.0000000000000000e+00 0.0000000000000000e+00  8.7265943175560187e-03 -7.3723320724021282e-03 0.0000000000000000e+00 -7.3723320724021282e-03 1.1119240697942109e-02 0.0000000000000000e+00 0.0000000000000000e+00 0.0000000000000000e+00 0.0000000000000000e+00  -1.4533583875964763e-03 1.5453328128602116e-03 0.0000000000000000e+00 1.5453328128602116e-03 -2.2453494124998231e-03 0.0000000000000000e+00 0.0000000000000000e+00 0.0000000000000000e+00 0.0000000000000000e+00  2.1165497243076314e-04 -2.7580769385498891e-04 0.0000000000000000e+00 -2.7580769385498891e-04 3.7757173159365143e-04 0.0000000000000000e+00 0.0000000000000000e+00 0.0000000000000000e+00 0.0000000000000000e+00  -2.2940674504092927e-05 4.9820053106549161e-05 0.0000000000000000e+00 4.9820053106549161e-05 -3.1373380369736670e-05 0.0000000000000000e+00 0.0000000000000000e+00 0.0000000000000000e+00 0.0000000000000000e+00  1.6729386986940724e-05 -1.4954345592440997e-06 0.0000000000000000e+00 -1.4954345592440999e-06 2.9804967099967154e-05 0.0000000000000000e+00 0.0000000000000000e+00 0.0000000000000000e+00 0.0000000000000000e+00  1.5043287964086483e-05 6.9785993111024784e-06 0.0000000000000000e+00 6.9785993111024784e-06 1.8967481502518832e-05 0.0000000000000000e+00 0.0000000000000000e+00 0.0000000000000000e+00 0.0000000000000000e+00  1.7613497236926379e-05 5.0036237546876546e-06 0.0000000000000000e+00 5.0036237546876546e-06 1.9085784392692402e-05 0.0000000000000000e+00 0.0000000000000000e+00 0.0000000000000000e+00 0.0000000000000000e+00  1.8567621713626273e-05 4.5012578447456579e-06 0.0000000000000000e+00 4.5012578447456579e-06 1.7998809796313715e-05 0.0000000000000000e+00 0.0000000000000000e+00 0.0000000000000000e+00 0.0000000000000000e+00  1.9114092256647123e-05 3.8142463733536784e-06 0.0000000000000000e+00 3.8142463733536784e-06 1.7502916630734975e-05 0.0000000000000000e+00 0.0000000000000000e+00 0.0000000000000000e+00 0.0000000000000000e+00  1.9348068283836778e-05 3.3153463940233919e-06 0.0000000000000000e+00 3.3153463940233919e-06 1.7234981302468647e-05 0.0000000000000000e+00 0.0000000000000000e+00 0.0000000000000000e+00 0.0000000000000000e+00  1.9416033166655503e-05 2.9764491019072436e-06 0.0000000000000000e+00 2.9764491019072436e-06 1.7168154579972533e-05 0.0000000000000000e+00 0.0000000000000000e+00 0.0000000000000000e+00 0.0000000000000000e+00  1.9390229075111204e-05 2.8098934805215940e-06 0.0000000000000000e+00 2.8098934805215940e-06 1.7250160993647297e-05 0.0000000000000000e+00 0.0000000000000000e+00 0.0000000000000000e+00 0.0000000000000000e+00  1.9309932463920566e-05 2.8217255748880461e-06 0.0000000000000000e+00 2.8217255748880461e-06 1.7457927782288532e-05 0.0000000000000000e+00 0.0000000000000000e+00 0.0000000000000000e+00 0.0000000000000000e+00  1.9191559498139055e-05 3.0341412898471245e-06 0.0000000000000000e+00 3.0341412898471245e-06 1.7784534570818626e-05 0.0000000000000000e+00 0.0000000000000000e+00 0.0000000000000000e+00 0.0000000000000000e+00  1.9037084976449231e-05 3.4946253629549935e-06 0.0000000000000000e+00 3.4946253629549935e-06 1.8236309238670206e-05 0.0000000000000000e+00 0.0000000000000000e+00 0.0000000000000000e+00 0.0000000000000000e+00  1.8839586851134823e-05 4.2948288907067206e-06 0.0000000000000000e+00 4.2948288907067206e-06 1.8827902933493631e-05 0.0000000000000000e+00 0.0000000000000000e+00 0.0000000000000000e+00 0.0000000000000000e+00  1.3392778713484583e-03 1.2060184459740501e-03 0.0000000000000000e+00 1.2060184459740501e-03 1.6338431571908936e-03 0.0000000000000000e+00 0.0000000000000000e+00 0.0000000000000000e+00 0.0000000000000000e+00  -3.3671817110821275e-03 -2.2627132548944328e-03 0.0000000000000000e+00 -2.2627132548944328e-03 -3.4040365534766383e-03 0.0000000000000000e+00 0.0000000000000000e+00 0.0000000000000000e+00 0.0000000000000000e+00  1.1078997546996164e-02 7.4092402697795998e-03 0.0000000000000000e+00 7.4092402697795998e-03 8.7067256391350975e-03 0.0000000000000000e+00 0.0000000000000000e+00 0.0000000000000000e+00 0.0000000000000000e+00  -2.8261181071109625e-02 -1.8590408122258650e-02 0.0000000000000000e+00 -1.8590408122258650e-02 -1.4720156310208997e-02 0.0000000000000000e+00 0.0000000000000000e+00 0.0000000000000000e+00 0.0000000000000000e+00  1.4891778162821790e-02 2.5251206099646366e-02 0.0000000000000000e+00 2.5251206099646366e-02 7.4431256101404057e-04 0.0000000000000000e+00 0.0000000000000000e+00 0.0000000000000000e+00 0.0000000000000000e+00  1.7388385261659409e-02 1.0073324494593734e-02 0.0000000000000000e+00 1.0073324494593734e-02 4.6900998013405344e-03 0.0000000000000000e+00 0.0000000000000000e+00 0.0000000000000000e+00 0.0000000000000000e+00  -3.2993343958381750e-02 7.9576464042429169e-05 0.0000000000000000e+00 7.9576464042429169e-05 -5.2741309005774263e-02 0.0000000000000000e+00 0.0000000000000000e+00 0.0000000000000000e+00 0.0000000000000000e+00  1.7553409514789134e-02 -1.0246632232547471e-02 0.0000000000000000e+00 -1.0246632232547471e-02 4.5060615422968528e-03 0.0000000000000000e+00 0.0000000000000000e+00 0.0000000000000000e+00 0.0000000000000000e+00  1.5526488477526426e-02 -2.4703246866160006e-02 0.0000000000000000e+00 -2.4703246866160006e-02 1.8122845769190036e-03 0.0000000000000000e+00 0.0000000000000000e+00 0.0000000000000000e+00 0.0000000000000000e+00  -3.1875120461366903e-02 1.6524407053783777e-02 0.0000000000000000e+00 1.6524407053783777e-02 -1.8331757225770934e-02 0.0000000000000000e+00 0.0000000000000000e+00 0.0000000000000000e+00 0.0000000000000000e+00  2.2980703649929060e-02 3.3743164849208109e-06 0.0000000000000000e+00 3.3743164849208088e-06 1.7972937421447049e-02 0.0000000000000000e+00 0.0000000000000000e+00 0.0000000000000000e+00 0.0000000000000000e+00  -3.1878978851378283e-02 -1.6517973836109971e-02 0.0000000000000000e+00 -1.6517973836109971e-02 -1.8333816811549761e-02 0.0000000000000000e+00 0.0000000000000000e+00 0.0000000000000000e+00 0.0000000000000000e+00  1.5519208144380873e-02 2.4712375903206414e-02 0.0000000000000000e+00 2.4712375903206414e-02 1.8131896243243257e-03 0.0000000000000000e+00 0.0000000000000000e+00 0.0000000000000000e+00 0.0000000000000000e+00  1.7549070272919791e-02 1.0260159576158473e-02 0.0000000000000000e+00 1.0260159576158473e-02 4.5104391674972112e-03 0.0000000000000000e+00 0.0000000000000000e+00 0.0000000000000000e+00 0.0000000000000000e+00  -3.2992812223759341e-02 -6.7600264269773236e-05 0.0000000000000000e+00 -6.7600264269773236e-05 -5.2742085359574808e-02 0.0000000000000000e+00 0.0000000000000000e+00 0.0000000000000000e+00 0.0000000000000000e+00  1.7409091875274754e-02 -1.0051268102872955e-02 0.0000000000000000e+00 -1.0051268102872955e-02 4.6822533651768765e-03 0.0000000000000000e+00 0.0000000000000000e+00 0.0000000000000000e+00 0.0000000000000000e+00  1.4938499055118456e-02 -2.5229191003902994e-02 0.0000000000000000e+00 -2.5229191003902994e-02 7.4128016326017825e-04 0.0000000000000000e+00 0.0000000000000000e+00 0.0000000000000000e+00 0.0000000000000000e+00  -2.8194583597049128e-02 1.8591645390852896e-02 0.0000000000000000e+00 1.8591645390852896e-02 -1.4678492642265499e-02 0.0000000000000000e+00 0.0000000000000000e+00 0.0000000000000000e+00 0.0000000000000000e+00  1.1123452355568006e-02 -7.3708871636296962e-03 0.0000000000000000e+00 -7.3708871636296962e-03 8.7192640883571367e-03 0.0000000000000000e+00 0.0000000000000000e+00 0.0000000000000000e+00 0.0000000000000000e+00  -3.1581482637561614e-03 2.1506155160430861e-03 0.0000000000000000e+00 2.1506155160430861e-03 -3.1609023577000043e-03 0.0000000000000000e+00 0.0000000000000000e+00 0.0000000000000000e+00 0.0000000000000000e+00  7.0684925915518880e-04 -5.9033228348985621e-04 0.0000000000000000e+00 -5.9033228348985621e-04 8.6108378312951383e-04 0.0000000000000000e+00 0.0000000000000000e+00 0.0000000000000000e+00 0.0000000000000000e+00  -1.3204135253872118e-04 1.2592046684169859e-04 0.0000000000000000e+00 1.2592046684169859e-04 -1.7010076981261994e-04 0.0000000000000000e+00 0.0000000000000000e+00 0.0000000000000000e+00 0.0000000000000000e+00  2.7837261640458185e-05 -2.6160943072250138e-05 0.0000000000000000e+00 -2.6160943072250142e-05 5.3765223729793709e-05 0.0000000000000000e+00 0.0000000000000000e+00 0.0000000000000000e+00 0.0000000000000000e+00  5.2949555338250868e-06 6.6126295561972173e-06 0.0000000000000000e+00 6.6126295561972173e-06 1.4622192743773443e-05 0.0000000000000000e+00 0.0000000000000000e+00 0.0000000000000000e+00 0.0000000000000000e+00  1.2631633953548836e-05 2.3444345288640277e-06 0.0000000000000000e+00 2.3444345288640277e-06 2.0965905941904160e-05 0.0000000000000000e+00 0.0000000000000000e+00 0.0000000000000000e+00 0.0000000000000000e+00  1.4171375405680560e-05 3.6582647217973494e-06 0.0000000000000000e+00 3.6582647217973494e-06 1.9044184162505706e-05 0.0000000000000000e+00 0.0000000000000000e+00 0.0000000000000000e+00 0.0000000000000000e+00  1.5759126579715279e-05 3.4361615471555074e-06 0.0000000000000000e+00 3.4361615471555074e-06 1.8494528286408162e-05 0.0000000000000000e+00 0.0000000000000000e+00 0.0000000000000000e+00 0.0000000000000000e+00  1.6697137429853562e-05 3.2442497865978826e-06 0.0000000000000000e+00 3.2442497865978826e-06 1.7917003053592221e-05 0.0000000000000000e+00 0.0000000000000000e+00 0.0000000000000000e+00 0.0000000000000000e+00  1.7287703050267142e-05 3.0050490233394430e-06 0.0000000000000000e+00 3.0050490233394430e-06 1.7562449920293410e-05 0.0000000000000000e+00 0.0000000000000000e+00 0.0000000000000000e+00 0.0000000000000000e+00  1.7632206208446240e-05 2.8343410281859643e-06 0.0000000000000000e+00 2.8343410281859643e-06 1.7363624679622035e-05 0.0000000000000000e+00 0.0000000000000000e+00 0.0000000000000000e+00 0.0000000000000000e+00  1.7817043653802818e-05 2.7708268474375487e-06 0.0000000000000000e+00 2.7708268474375487e-06 1.7294653035213020e-05 0.0000000000000000e+00 0.0000000000000000e+00 0.0000000000000000e+00 0.0000000000000000e+00  1.7895940321236285e-05 2.8499088952648526e-06 0.0000000000000000e+00 2.8499088952648526e-06 1.7327193571404035e-05 0.0000000000000000e+00 0.0000000000000000e+00 0.0000000000000000e+00 0.0000000000000000e+00  1.7903645098232487e-05 3.1104441773200446e-06 0.0000000000000000e+00 3.1104441773200446e-06 1.7439025331728225e-05 0.0000000000000000e+00 0.0000000000000000e+00 0.0000000000000000e+00 0.0000000000000000e+00  1.7864030832545508e-05 3.6090986893195670e-06 0.0000000000000000e+00 3.6090986893195670e-06 1.7608024626669869e-05 0.0000000000000000e+00 0.0000000000000000e+00 0.0000000000000000e+00 0.0000000000000000e+00  1.7801416656020125e-05 4.4377209808143478e-06 0.0000000000000000e+00 4.4377209808143478e-06 1.7801210444243640e-05 0.0000000000000000e+00 0.0000000000000000e+00 0.0000000000000000e+00 0.0000000000000000e+00  -5.3427408927516262e-04 -3.1200419368995817e-04 0.0000000000000000e+00 -3.1200419368995817e-04 -5.3503862850034849e-04 0.0000000000000000e+00 0.0000000000000000e+00 0.0000000000000000e+00 0.0000000000000000e+00  8.7258762415481103e-04 6.5182937763072436e-04 0.0000000000000000e+00 6.5182937763072436e-04 7.2305988412225714e-04 0.0000000000000000e+00 0.0000000000000000e+00 0.0000000000000000e+00 0.0000000000000000e+00  -2.3009259451875290e-03 -1.5509257818061958e-03 0.0000000000000000e+00 -1.5509257818061958e-03 -1.5154808845659873e-03 0.0000000000000000e+00 0.0000000000000000e+00 0.0000000000000000e+00 0.0000000000000000e+00  3.2371140257976103e-03 2.8250968954640272e-03 0.0000000000000000e+00 2.8250968954640272e-03 1.4987015403238465e-03 0.0000000000000000e+00 0.0000000000000000e+00 0.0000000000000000e+00 0.0000000000000000e+00  -1.5532152083097112e-03 -2.3661391127581975e-03 0.0000000000000000e+00 -2.3661391127581975e-03 -3.1304873486741254e-04 0.0000000000000000e+00 0.0000000000000000e+00 0.0000000000000000e+00 0.0000000000000000e+00  -2.0568813188081656e-03 3.5688850151135737e-04 0.0000000000000000e+00 3.5688850151135737e-04 -2.5018555267723014e-03 0.0000000000000000e+00 0.0000000000000000e+00 0.0000000000000000e+00 0.0000000000000000e+00  3.9980100802045216e-03 -1.3393831019742414e-05 0.0000000000000000e+00 -1.3393831019742414e-05 4.5775434535313035e-03 0.0000000000000000e+00 0.0000000000000000e+00 0.0000000000000000e+00 0.0000000000000000e+00  -2.0222783175689561e-03 -2.9325956216019863e-04 0.0000000000000000e+00 -2.9325956216019863e-04 -2.4209787991770581e-03 0.0000000000000000e+00 0.0000000000000000e+00 0.0000000000000000e+00 0.0000000000000000e+00  -1.7986467909062108e-03 2.2038223483359116e-03 0.0000000000000000e+00 2.2038223483359116e-03 -5.8738329744124982e-04 0.0000000000000000e+00 0.0000000000000000e+00 0.0000000000000000e+00 0.0000000000000000e+00  4.1649092978967451e-03 -2.2280926452748406e-03 0.0000000000000000e+00 -2.2280926452748406e-03 2.2762569669606200e-03 0.0000000000000000e+00 0.0000000000000000e+00 0.0000000000000000e+00 0.0000000000000000e+00  -4.6247744597796760e-03 3.9525983493457367e-06 0.0000000000000000e+00 3.9525983493457367e-06 -3.0432488917476186e-03 0.0000000000000000e+00 0.0000000000000000e+00 0.0000000000000000e+00 0.0000000000000000e+00  4.1659167795793312e-03 2.2360223282582338e-03 0.0000000000000000e+00 2.2360223282582338e-03 2.2746689763127222e-03 0.0000000000000000e+00 0.0000000000000000e+00 0.0000000000000000e+00 0.0000000000000000e+00  -1.7960109119539089e-03 -2.1960133313059967e-03 0.0000000000000000e+00 -2.1960133313059967e-03 -5.8865018420347791e-04 0.0000000000000000e+00 0.0000000000000000e+00 0.0000000000000000e+00 0.0000000000000000e+00  -2.0165235460154044e-03 3.0114652541448641e-04 0.0000000000000000e+00 3.0114652541448641e-04 -2.4217277810056402e-03 0.0000000000000000e+00 0.0000000000000000e+00 0.0000000000000000e+00 0.0000000000000000e+00  4.0111888176949835e-03 2.2976770443407021e-05 0.0000000000000000e+00 2.2976770443407004e-05 4.5778050722961993e-03 0.0000000000000000e+00 0.0000000000000000e+00 0.0000000000000000e+00 0.0000000000000000e+00  -2.0338441326074887e-03 -3.5137253523253746e-04 0.0000000000000000e+00 -3.5137253523253746e-04 -2.4986844630627944e-03 0.0000000000000000e+00 0.0000000000000000e+00 0.0000000000000000e+00 0.0000000000000000e+00  -1.5200388296820265e-03 2.3669391345162534e-03 0.0000000000000000e+00 2.3669391345162534e-03 -3.0015904987657334e-04 0.0000000000000000e+00 0.0000000000000000e+00 0.0000000000000000e+00 0.0000000000000000e+00  3.2722649609618613e-03 -2.8215986550889621e-03 0.0000000000000000e+00 -2.8215986550889621e-03 1.5257682476708570e-03 0.0000000000000000e+00 0.0000000000000000e+00 0.0000000000000000e+00 0.0000000000000000e+00  -2.2458507653741063e-03 1.5458697178104845e-03 0.0000000000000000e+00 1.5458697178104845e-03 -1.4582660787008784e-03 0.0000000000000000e+00 0.0000000000000000e+00 0.0000000000000000e+00 0.0000000000000000e+00  8.6106342555502342e-04 -5.9023964846353515e-04 0.0000000000000000e+00 -5.9023964846353515e-04 7.0423709621495140e-04 0.0000000000000000e+00 0.0000000000000000e+00 0.0000000000000000e+00 0.0000000000000000e+00  -2.4047252767666274e-04 1.6871028621522259e-04 0.0000000000000000e+00 1.6871028621522259e-04 -2.4060889755071800e-04 0.0000000000000000e+00 0.0000000000000000e+00 0.0000000000000000e+00 0.0000000000000000e+00  6.2849153731382951e-05 -5.3682599044080642e-05 0.0000000000000000e+00 -5.3682599044080642e-05 7.9258334752775188e-05 0.0000000000000000e+00 0.0000000000000000e+00 0.0000000000000000e+00 0.0000000000000000e+00  -5.6897078511005900e-06 7.6154701542202380e-06 0.0000000000000000e+00 7.6154701542202397e-06 1.0054187636067605e-06 0.0000000000000000e+00 0.0000000000000000e+00 0.0000000000000000e+00 0.0000000000000000e+00  1.0521891131455850e-05 -3.2142227959676084e-06 0.0000000000000000e+00 -3.2142227959676088e-06 2.1535229074009988e-05 0.0000000000000000e+00 0.0000000000000000e+00 0.0000000000000000e+00 0.0000000000000000e+00  1.0062600642808793e-05 1.2389313188440220e-06 0.0000000000000000e+00 1.2389313188440220e-06 1.8366633226418580e-05 0.0000000000000000e+00 0.0000000000000000e+00 0.0000000000000000e+00 0.0000000000000000e+00  1.2378729048101259e-05 1.6661889708582994e-06 0.0000000000000000e+00 1.6661889708582994e-06 1.8887156516547174e-05 0.0000000000000000e+00 0.0000000000000000e+00 0.0000000000000000e+00 0.0000000000000000e+00  1.3740151994662435e-05 2.2326245125028860e-06 0.0000000000000000e+00 2.2326245125028860e-06 1.8374603421973413e-05 0.0000000000000000e+00 0.0000000000000000e+00 0.0000000000000000e+00 0.0000000000000000e+00  1.4803995403152526e-05 2.4017274953102857e-06 0.0000000000000000e+00 2.4017274953102857e-06 1.7990427187797356e-05 0.0000000000000000e+00 0.0000000000000000e+00 0.0000000000000000e+00 0.0000000000000000e+00  1.5536084895795941e-05 2.4646233840635345e-06 0.0000000000000000e+00 2.4646233840635345e-06 1.7650912440550967e-05 0.0000000000000000e+00 0.0000000000000000e+00 0.0000000000000000e+00 0.0000000000000000e+00  1.6030099943002852e-05 2.4987975991976704e-06 0.0000000000000000e+00 2.4987975991976704e-06 1.7404020041435150e-05 0.0000000000000000e+00 0.0000000000000000e+00 0.0000000000000000e+00 0.0000000000000000e+00  1.6347959947003013e-05 2.5777912286116798e-06 0.0000000000000000e+00 2.5777912286116798e-06 1.7236184425758047e-05 0.0000000000000000e+00 0.0000000000000000e+00 0.0000000000000000e+00 0.0000000000000000e+00  1.6541129413015341e-05 2.7538839642395454e-06 0.0000000000000000e+00 2.7538839642395454e-06 1.7127068487434105e-05 0.0000000000000000e+00 0.0000000000000000e+00 0.0000000000000000e+00 0.0000000000000000e+00  1.6650197875594760e-05 3.0777426123674643e-06 0.0000000000000000e+00 3.0777426123674643e-06 1.7047020277626622e-05 0.0000000000000000e+00 0.0000000000000000e+00 0.0000000000000000e+00 0.0000000000000000e+00  1.6712009709956098e-05 3.6089276973366883e-06 0.0000000000000000e+00 3.6089276973366883e-06 1.6954562190926320e-05 0.0000000000000000e+00 0.0000000000000000e+00 0.0000000000000000e+00 0.0000000000000000e+00  1.6772627512821508e-05 4.4296694718404143e-06 0.0000000000000000e+00 4.4296694718404143e-06 1.6782310649135667e-05 0.0000000000000000e+00 0.0000000000000000e+00 0.0000000000000000e+00 0.0000000000000000e+00  1.1540727511621959e-04 1.2955029367445976e-04 0.0000000000000000e+00 1.2955029367445976e-04 9.5081809321033930e-05 0.0000000000000000e+00 0.0000000000000000e+00 0.0000000000000000e+00 0.0000000000000000e+00  -2.1793670094921001e-04 -1.2717029950651938e-04 0.0000000000000000e+00 -1.2717029950651938e-04 -1.9007724320168628e-04 0.0000000000000000e+00 0.0000000000000000e+00 0.0000000000000000e+00 0.0000000000000000e+00  3.5408964392654954e-04 2.8331659475564814e-04 0.0000000000000000e+00 2.8331659475564814e-04 1.7775934681789262e-04 0.0000000000000000e+00 0.0000000000000000e+00 0.0000000000000000e+00 0.0000000000000000e+00  -4.1490986629928462e-04 -4.0396154842081179e-04 0.0000000000000000e+00 -4.0396154842081179e-04 -2.1551656531793706e-04 0.0000000000000000e+00 0.0000000000000000e+00 0.0000000000000000e+00 0.0000000000000000e+00  1.6354178523152933e-04 3.0985503942625452e-04 0.0000000000000000e+00 3.0985503942625452e-04 -2.2814344373134774e-05 0.0000000000000000e+00 0.0000000000000000e+00 0.0000000000000000e+00 0.0000000000000000e+00  2.6132176784300680e-04 -1.5149411708023788e-04 0.0000000000000000e+00 -1.5149411708023788e-04 4.1571061086489173e-04 0.0000000000000000e+00 0.0000000000000000e+00 0.0000000000000000e+00 0.0000000000000000e+00  -4.7057265223925267e-04 7.0270132061050775e-06 0.0000000000000000e+00 7.0270132061050775e-06 -5.1468122139350586e-04 0.0000000000000000e+00 0.0000000000000000e+00 0.0000000000000000e+00 0.0000000000000000e+00  2.4623795622888558e-04 1.4094167824560991e-04 0.0000000000000000e+00 1.4094167824560991e-04 3.9778865970151959e-04 0.0000000000000000e+00 0.0000000000000000e+00 0.0000000000000000e+00 0.0000000000000000e+00  2.3785367504986548e-04 -2.5384039742304664e-04 0.0000000000000000e+00 -2.5384039742304664e-04 4.5364925600425090e-05 0.0000000000000000e+00 0.0000000000000000e+00 0.0000000000000000e+00 0.0000000000000000e+00  -5.9737071274618885e-04 2.8309289976369739e-04 0.0000000000000000e+00 2.8309289976369739e-04 -3.5871380449207547e-04 0.0000000000000000e+00 0.0000000000000000e+00 0.0000000000000000e+00 0.0000000000000000e+00  7.3911772301013523e-04 3.0424490828676551e-06 0.0000000000000000e+00 3.0424490828676551e-06 3.9706020173896827e-04 0.0000000000000000e+00 0.0000000000000000e+00 0.0000000000000000e+00 0.0000000000000000e+00  -5.9473262847836868e-04 -2.7736307567018809e-04 0.0000000000000000e+00 -2.7736307567018809e-04 -3.5977282303765361e-04 0.0000000000000000e+00 0.0000000000000000e+00 0.0000000000000000e+00 0.0000000000000000e+00  2.4333837921952390e-04 2.5871480206903841e-04 0.0000000000000000e+00 2.5871480206903841e-04 4.4071126212924130e-05 0.0000000000000000e+00 0.0000000000000000e+00 0.0000000000000000e+00 0.0000000000000000e+00  2.5542555667084943e-04 -1.3708798068863811e-04 0.0000000000000000e+00 -1.3708798068863811e-04 3.9752762449838096e-04 0.0000000000000000e+00 0.0000000000000000e+00 0.0000000000000000e+00 0.0000000000000000e+00  -4.5668322058590511e-04 -5.0518461938082107e-06 0.0000000000000000e+00 -5.0518461938082073e-06 -5.1264493837272298e-04 0.0000000000000000e+00 0.0000000000000000e+00 0.0000000000000000e+00 0.0000000000000000e+00  2.8024467992173938e-04 1.5065983094678020e-04 0.0000000000000000e+00 1.5065983094678020e-04 4.2292458095890612e-04 0.0000000000000000e+00 0.0000000000000000e+00 0.0000000000000000e+00 0.0000000000000000e+00  1.8567131849390049e-04 -3.1277159868326810e-04 0.0000000000000000e+00 -3.1277159868326810e-04 -6.8352693651958842e-06 0.0000000000000000e+00 0.0000000000000000e+00 0.0000000000000000e+00 0.0000000000000000e+00  -3.8989494730835676e-04 4.0090419386431148e-04 0.0000000000000000e+00 4.0090419386431148e-04 -1.8738240370466894e-04 0.0000000000000000e+00 0.0000000000000000e+00 0.0000000000000000e+00 0.0000000000000000e+00  3.7422004740876255e-04 -2.7613395349050234e-04 0.0000000000000000e+00 -2.7613395349050234e-04 2.0706578606017109e-04 0.0000000000000000e+00 0.0000000000000000e+00 0.0000000000000000e+00 0.0000000000000000e+00  -1.7246111608370173e-04 1.2542935186009581e-04 0.0000000000000000e+00 1.2542935186009581e-04 -1.3439683014046131e-04 0.0000000000000000e+00 0.0000000000000000e+00 0.0000000000000000e+00 0.0000000000000000e+00  7.7457751308298087e-05 -5.4031117929900198e-05 0.0000000000000000e+00 -5.4031117929900198e-05 6.2486919763259354e-05 0.0000000000000000e+00 0.0000000000000000e+00 0.0000000000000000e+00 0.0000000000000000e+00  -1.0869842565121557e-05 8.3483614357267885e-06 0.0000000000000000e+00 8.3483614357267868e-06 -9.5086912073275901e-06 0.0000000000000000e+00 0.0000000000000000e+00 0.0000000000000000e+00 0.0000000000000000e+00  1.3112874243152158e-05 -8.3094934793820656e-06 0.0000000000000000e+00 -8.3094934793820639e-06 1.9393690711191939e-05 0.0000000000000000e+00 0.0000000000000000e+00 0.0000000000000000e+00 0.0000000000000000e+00  7.9665948228588822e-06 -1.5305127940280159e-06 0.0000000000000000e+00 -1.5305127940280159e-06 1.5116141699030274e-05 0.0000000000000000e+00 0.0000000000000000e+00 0.0000000000000000e+00 0.0000000000000000e+00  1.0369605468866836e-05 -1.0533989110205875e-06 0.0000000000000000e+00 -1.0533989110205875e-06 1.7836610274227806e-05 0.0000000000000000e+00 0.0000000000000000e+00 0.0000000000000000e+00 0.0000000000000000e+00  1.1364915621855853e-05 3.5568238994698183e-07 0.0000000000000000e+00 3.5568238994698183e-07 1.7888379497817505e-05 0.0000000000000000e+00 0.0000000000000000e+00 0.0000000000000000e+00 0.0000000000000000e+00  1.2536661668161505e-05 1.0628527143204499e-06 0.0000000000000000e+00 1.0628527143204499e-06 1.7937402834313559e-05 0.0000000000000000e+00 0.0000000000000000e+00 0.0000000000000000e+00 0.0000000000000000e+00  1.3452004920403641e-05 1.5447630450598551e-06 0.0000000000000000e+00 1.5447630450598551e-06 1.7738403718033710e-05 0.0000000000000000e+00 0.0000000000000000e+00 0.0000000000000000e+00 0.0000000000000000e+00  1.4166132530875341e-05 1.8449107696855850e-06 0.0000000000000000e+00 1.8449107696855850e-06 1.7504484362819297e-05 0.0000000000000000e+00 0.0000000000000000e+00 0.0000000000000000e+00 0.0000000000000000e+00  1.4690983345053232e-05 2.0709942873941345e-06 0.0000000000000000e+00 2.0709942873941345e-06 1.7271387765844355e-05 0.0000000000000000e+00 0.0000000000000000e+00 0.0000000000000000e+00 0.0000000000000000e+00  1.5063617243754021e-05 2.2932520212247734e-06 0.0000000000000000e+00 2.2932520212247734e-06 1.7055257198899878e-05 0.0000000000000000e+00 0.0000000000000000e+00 0.0000000000000000e+00 0.0000000000000000e+00  1.5320732748931460e-05 2.5711604061607751e-06 0.0000000000000000e+00 2.5711604061607751e-06 1.6844195150839875e-05 0.0000000000000000e+00 0.0000000000000000e+00 0.0000000000000000e+00 0.0000000000000000e+00  1.5499747790703473e-05 2.9581183325001540e-06 0.0000000000000000e+00 2.9581183325001540e-06 1.6608130295701790e-05 0.0000000000000000e+00 0.0000000000000000e+00 0.0000000000000000e+00 0.0000000000000000e+00  1.5641816491384227e-05 3.5097102413377076e-06 0.0000000000000000e+00 3.5097102413377076e-06 1.6295728569381375e-05 0.0000000000000000e+00 0.0000000000000000e+00 0.0000000000000000e+00 0.0000000000000000e+00  1.5803920110777602e-05 4.2914036205638166e-06 0.0000000000000000e+00 4.2914036205638166e-06 1.5821001158530591e-05 0.0000000000000000e+00 0.0000000000000000e+00 0.0000000000000000e+00 0.0000000000000000e+00  -3.4611330068463092e-05 3.8925745490949462e-06 0.0000000000000000e+00 3.8925745490949462e-06 -2.8957357872415723e-05 0.0000000000000000e+00 0.0000000000000000e+00 0.0000000000000000e+00 0.0000000000000000e+00  4.1781989129326099e-05 4.2661277715857002e-05 0.0000000000000000e+00 4.2661277715857002e-05 4.9147959209073802e-06 0.0000000000000000e+00 0.0000000000000000e+00 0.0000000000000000e+00 0.0000000000000000e+00  -5.0920049164668979e-05 -4.6510078126794944e-05 0.0000000000000000e+00 -4.6510078126794944e-05 -5.6637227919425595e-05 0.0000000000000000e+00 0.0000000000000000e+00 0.0000000000000000e+00 0.0000000000000000e+00  5.8661957352096842e-05 4.6864077514446146e-05 0.0000000000000000e+00 4.6864077514446146e-05 7.9875530810131154e-06 0.0000000000000000e+00 0.0000000000000000e+00 0.0000000000000000e+00 0.0000000000000000e+00  -1.7794171388249397e-05 -6.4930180067724312e-05 0.0000000000000000e+00 -6.4930180067724312e-05 1.6243007906426558e-05 0.0000000000000000e+00 0.0000000000000000e+00 0.0000000000000000e+00 0.0000000000000000e+00  -3.5684499333951031e-05 1.4896027938090558e-05 0.0000000000000000e+00 1.4896027938090558e-05 -3.1137044928953119e-05 0.0000000000000000e+00 0.0000000000000000e+00 0.0000000000000000e+00 0.0000000000000000e+00  5.2290734886808527e-05 1.3072438719402015e-07 0.0000000000000000e+00 1.3072438719402015e-07 1.0934226438679083e-04 0.0000000000000000e+00 0.0000000000000000e+00 0.0000000000000000e+00 0.0000000000000000e+00  -2.8529972935075523e-05 -7.2129574918028994e-06 0.0000000000000000e+00 -7.2129574918028994e-06 -2.4571317597109784e-05 0.0000000000000000e+00 0.0000000000000000e+00 0.0000000000000000e+00 0.0000000000000000e+00  -2.8318454171224459e-05 5.7857670190580358e-05 0.0000000000000000e+00 5.7857670190580358e-05 5.4979140162594694e-06 0.0000000000000000e+00 0.0000000000000000e+00 0.0000000000000000e+00 0.0000000000000000e+00  1.0337880332460788e-04 -1.7228508866304107e-05 0.0000000000000000e+00 -1.7228508866304107e-05 3.4104579494482149e-05 0.0000000000000000e+00 0.0000000000000000e+00 0.0000000000000000e+00 0.0000000000000000e+00  -9.1974814426495167e-05 1.6224897299318314e-06 0.0000000000000000e+00 1.6224897299318314e-06 -8.3608453283926456e-05 0.0000000000000000e+00 0.0000000000000000e+00 0.0000000000000000e+00 0.0000000000000000e+00  1.0625109522925608e-04 2.0092388851149187e-05 0.0000000000000000e+00 2.0092388851149187e-05 3.3740631978209631e-05 0.0000000000000000e+00 0.0000000000000000e+00 0.0000000000000000e+00 0.0000000000000000e+00  -2.2573443332798412e-05 -5.6040753645237497e-05 0.0000000000000000e+00 -5.6040753645237497e-05 5.4426709884971937e-06 0.0000000000000000e+00 0.0000000000000000e+00 0.0000000000000000e+00 0.0000000000000000e+00  -1.9903500607127176e-05 7.4636974630740756e-06 0.0000000000000000e+00 7.4636974630740756e-06 -2.3189632647275097e-05 0.0000000000000000e+00 0.0000000000000000e+00 0.0000000000000000e+00 0.0000000000000000e+00  6.3700905932481095e-05 -1.8039174288947352e-06 0.0000000000000000e+00 -1.8039174288947352e-06 1.1374058464122789e-04 0.0000000000000000e+00 0.0000000000000000e+00 0.0000000000000000e+00 0.0000000000000000e+00  -2.2242452903599964e-05 -1.8472806308186551e-05 0.0000000000000000e+00 -1.8472806308186551e-05 -2.1696264492071040e-05 0.0000000000000000e+00 0.0000000000000000e+00 0.0000000000000000e+00 0.0000000000000000e+00  -3.4747136773158699e-06 6.0609740032534833e-05 0.0000000000000000e+00 6.0609740032534833e-05 3.2750008997384235e-05 0.0000000000000000e+00 0.0000000000000000e+00 0.0000000000000000e+00 0.0000000000000000e+00  7.2141317670744405e-05 -4.8749343376581343e-05 0.0000000000000000e+00 -4.8749343376581343e-05 3.0987177758122010e-05 0.0000000000000000e+00 0.0000000000000000e+00 0.0000000000000000e+00 0.0000000000000000e+00  -3.6052807915908538e-05 4.8386559539033753e-05 0.0000000000000000e+00 4.8386559539033753e-05 -2.7532785948210458e-05 0.0000000000000000e+00 0.0000000000000000e+00 0.0000000000000000e+00 0.0000000000000000e+00  4.9885036776360319e-05 -2.7362663632986295e-05 0.0000000000000000e+00 -2.7362663632986295e-05 2.5318655931842703e-05 0.0000000000000000e+00 0.0000000000000000e+00 0.0000000000000000e+00 0.0000000000000000e+00  -2.2342417782565577e-06 6.7247184807782643e-06 0.0000000000000000e+00 6.7247184807782643e-06 -6.3555860202190532e-06 0.0000000000000000e+00 0.0000000000000000e+00 0.0000000000000000e+00 0.0000000000000000e+00  1.6682027004238957e-05 -8.7854029398007913e-06 0.0000000000000000e+00 -8.7854029398007929e-06 1.4033912536261996e-05 0.0000000000000000e+00 0.0000000000000000e+00 0.0000000000000000e+00 0.0000000000000000e+00  8.7149785875213191e-06 -3.0161693671941458e-06 0.0000000000000000e+00 -3.0161693671941450e-06 1.0934178562162739e-05 0.0000000000000000e+00 0.0000000000000000e+00 0.0000000000000000e+00 0.0000000000000000e+00  1.0502785545154373e-05 -3.3181408691910355e-06 0.0000000000000000e+00 -3.3181408691910355e-06 1.5267818546092254e-05 0.0000000000000000e+00 0.0000000000000000e+00 0.0000000000000000e+00 0.0000000000000000e+00  1.0392074164569663e-05 -1.6460668967828130e-06 0.0000000000000000e+00 -1.6460668967828130e-06 1.6134565414433144e-05 0.0000000000000000e+00 0.0000000000000000e+00 0.0000000000000000e+00 0.0000000000000000e+00  1.1161068025356383e-05 -6.6164654663274633e-07 0.0000000000000000e+00 -6.6164654663274633e-07 1.6994950286507101e-05 0.0000000000000000e+00 0.0000000000000000e+00 0.0000000000000000e+00 0.0000000000000000e+00  1.1874312296507685e-05 1.9536212386360448e-07 0.0000000000000000e+00 1.9536212386360448e-07 1.7249185151456809e-05 0.0000000000000000e+00 0.0000000000000000e+00 0.0000000000000000e+00 0.0000000000000000e+00  1.2570495369802322e-05 8.0659600542291291e-07 0.0000000000000000e+00 8.0659600542291291e-07 1.7281551788266110e-05 0.0000000000000000e+00 0.0000000000000000e+00 0.0000000000000000e+00 0.0000000000000000e+00  1.3160260502899397e-05 1.2666194605749481e-06 0.0000000000000000e+00 1.2666194605749481e-06 1.7169592048541134e-05 0.0000000000000000e+00 0.0000000000000000e+00 0.0000000000000000e+00 0.0000000000000000e+00  1.3634580188709249e-05 1.6356041558146382e-06 0.0000000000000000e+00 1.6356041558146382e-06 1.6987601986912171e-05 0.0000000000000000e+00 0.0000000000000000e+00 0.0000000000000000e+00 0.0000000000000000e+00  1.4000003082993585e-05 1.9758077196800907e-06 0.0000000000000000e+00 1.9758077196800907e-06 1.6759883762838718e-05 0.0000000000000000e+00 0.0000000000000000e+00 0.0000000000000000e+00 0.0000000000000000e+00  1.4277268649761720e-05 2.3404181581878000e-06 0.0000000000000000e+00 2.3404181581878000e-06 1.6483824804032549e-05 0.0000000000000000e+00 0.0000000000000000e+00 0.0000000000000000e+00 0.0000000000000000e+00  1.4495593975505732e-05 2.7776896896253139e-06 0.0000000000000000e+00 2.7776896896253139e-06 1.6132123451243406e-05 0.0000000000000000e+00 0.0000000000000000e+00 0.0000000000000000e+00 0.0000000000000000e+00  1.4694054604190546e-05 3.3333301255135127e-06 0.0000000000000000e+00 3.3333301255135127e-06 1.5651743709003815e-05 0.0000000000000000e+00 0.0000000000000000e+00 0.0000000000000000e+00 0.0000000000000000e+00  1.4930944260503020e-05 4.0524511202718572e-06 0.0000000000000000e+00 4.0524511202718572e-06 1.4952626801414346e-05 0.0000000000000000e+00 0.0000000000000000e+00 0.0000000000000000e+00 0.0000000000000000e+00  1.0438780708709027e-05 2.2797351986274473e-05 0.0000000000000000e+00 2.2797351986274473e-05 7.7165376547570994e-06 0.0000000000000000e+00 0.0000000000000000e+00 0.0000000000000000e+00 0.0000000000000000e+00  1.7854773534366161e-06 4.3098881893009782e-06 0.0000000000000000e+00 4.3098881893009782e-06 -1.5511464724225381e-05 0.0000000000000000e+00 0.0000000000000000e+00 0.0000000000000000e+00 0.0000000000000000e+00  1.8470315070132450e-05 7.5661841480499268e-06 0.0000000000000000e+00 7.5661841480499268e-06 -8.8834453690598633e-06 0.0000000000000000e+00 0.0000000000000000e+00 0.0000000000000000e+00 0.0000000000000000e+00  4.1360541438792822e-07 -1.6895243185960315e-05 0.0000000000000000e+00 -1.6895243185960315e-05 -9.6851771848908367e-06 0.0000000000000000e+00 0.0000000000000000e+00 0.0000000000000000e+00 0.0000000000000000e+00  6.0631702268117320e-06 -3.5044550349733902e-06 0.0000000000000000e+00 -3.5044550349733902e-06 2.4010123186768809e-06 0.0000000000000000e+00 0.0000000000000000e+00 0.0000000000000000e+00 0.0000000000000000e+00  3.6130396725326104e-06 -1.2033861091686035e-05 0.0000000000000000e+00 -1.2033861091686035e-05 2.4781241154369405e-05 0.0000000000000000e+00 0.0000000000000000e+00 0.0000000000000000e+00 0.0000000000000000e+00  -8.4780038523017927e-06 8.0429555322442078e-07 0.0000000000000000e+00 8.0429555322442078e-07 1.1427310341826318e-05 0.0000000000000000e+00 0.0000000000000000e+00 0.0000000000000000e+00 0.0000000000000000e+00  4.2289557790515380e-06 1.2018852020094303e-05 0.0000000000000000e+00 1.2018852020094303e-05 2.4991740873079728e-05 0.0000000000000000e+00 0.0000000000000000e+00 0.0000000000000000e+00 0.0000000000000000e+00  1.3116118659378612e-05 7.0116379989039035e-06 0.0000000000000000e+00 7.0116379989039035e-06 6.9060207300774841e-06 0.0000000000000000e+00 0.0000000000000000e+00 0.0000000000000000e+00 0.0000000000000000e+00  5.4217835964846495e-07 1.2876231643881873e-05 0.0000000000000000e+00 1.2876231643881873e-05 -1.0428265010529918e-05 0.0000000000000000e+00 0.0000000000000000e+00 0.0000000000000000e+00 0.0000000000000000e+00  3.3740988564404068e-05 2.7401919537716980e-07 0.0000000000000000e+00 2.7401919537716980e-07 3.3802668316208177e-07 0.0000000000000000e+00 0.0000000000000000e+00 0.0000000000000000e+00 0.0000000000000000e+00  2.9675295470014667e-06 -1.2659483713947442e-05 0.0000000000000000e+00 -1.2659483713947442e-05 -1.0076275677120312e-05 0.0000000000000000e+00 0.0000000000000000e+00 0.0000000000000000e+00 0.0000000000000000e+00  1.7807504218214911e-05 -7.7149687398888163e-06 0.0000000000000000e+00 -7.7149687398888163e-06 8.1269700176438808e-06 0.0000000000000000e+00 0.0000000000000000e+00 0.0000000000000000e+00 0.0000000000000000e+00  1.0868761017274046e-05 -1.4027972897865024e-05 0.0000000000000000e+00 -1.4027972897865024e-05 2.8022833437829551e-05 0.0000000000000000e+00 0.0000000000000000e+00 0.0000000000000000e+00 0.0000000000000000e+00  -4.4306806028303861e-07 -4.1887999977951881e-06 0.0000000000000000e+00 -4.1887999977951881e-06 1.7492094041528916e-05 0.0000000000000000e+00 0.0000000000000000e+00 0.0000000000000000e+00 0.0000000000000000e+00  1.2220844261607666e-05 7.7617259035228677e-06 0.0000000000000000e+00 7.7617259035228677e-06 3.5164810183795883e-05 0.0000000000000000e+00 0.0000000000000000e+00 0.0000000000000000e+00 0.0000000000000000e+00  1.4243507696771509e-05 -2.9534463210018437e-07 0.0000000000000000e+00 -2.9534463210018437e-07 1.7771157835224497e-05 0.0000000000000000e+00 0.0000000000000000e+00 0.0000000000000000e+00 0.0000000000000000e+00  7.7581968776639460e-06 1.5489531146628148e-05 0.0000000000000000e+00 1.5489531146628148e-05 1.0165248753177634e-05 0.0000000000000000e+00 0.0000000000000000e+00 0.0000000000000000e+00 0.0000000000000000e+00  2.4395403239347196e-05 -3.7368634956445523e-06 0.0000000000000000e+00 -3.7368634956445523e-06 1.1855017784963915e-05 0.0000000000000000e+00 0.0000000000000000e+00 0.0000000000000000e+00 0.0000000000000000e+00  9.8560889015038802e-06 4.7437361986919423e-06 0.0000000000000000e+00 4.7437361986919423e-06 2.4349185090029836e-06 0.0000000000000000e+00 0.0000000000000000e+00 0.0000000000000000e+00 0.0000000000000000e+00  1.7324122347958295e-05 -4.6583969919708750e-06 0.0000000000000000e+00 -4.6583969919708750e-06 9.4415747078144563e-06 0.0000000000000000e+00 0.0000000000000000e+00 0.0000000000000000e+00 0.0000000000000000e+00  1.1408833070948063e-05 -2.5079624513545979e-06 0.0000000000000000e+00 -2.5079624513545979e-06 8.4189436702690882e-06 0.0000000000000000e+00 0.0000000000000000e+00 0.0000000000000000e+00 0.0000000000000000e+00  1.2040860189714508e-05 -3.8048983794864725e-06 0.0000000000000000e+00 -3.8048983794864734e-06 1.2230813223041683e-05 0.0000000000000000e+00 0.0000000000000000e+00 0.0000000000000000e+00 0.0000000000000000e+00  1.0918669199002716e-05 -2.7848731243325292e-06 0.0000000000000000e+00 -2.7848731243325292e-06 1.3669804047056241e-05 0.0000000000000000e+00 0.0000000000000000e+00 0.0000000000000000e+00 0.0000000000000000e+00  1.0992323712792483e-05 -2.0564767600385774e-06 0.0000000000000000e+00 -2.0564767600385774e-06 1.5229540362358508e-05 0.0000000000000000e+00 0.0000000000000000e+00 0.0000000000000000e+00 0.0000000000000000e+00  1.1178272102907064e-05 -1.1504909464235345e-06 0.0000000000000000e+00 -1.1504909464235345e-06 1.6054391527941350e-05 0.0000000000000000e+00 0.0000000000000000e+00 0.0000000000000000e+00 0.0000000000000000e+00  1.1580669416000262e-05 -3.8492147456500812e-07 0.0000000000000000e+00 -3.8492147456500812e-07 1.6531953144479055e-05 0.0000000000000000e+00 0.0000000000000000e+00 0.0000000000000000e+00 0.0000000000000000e+00  1.2025445264101117e-05 2.6232146390704422e-07 0.0000000000000000e+00 2.6232146390704422e-07 1.6715547463219261e-05 0.0000000000000000e+00 0.0000000000000000e+00 0.0000000000000000e+00 0.0000000000000000e+00  1.2457159600909452e-05 7.9420583012988597e-07 0.0000000000000000e+00 7.9420583012988597e-07 1.6717482625224002e-05 0.0000000000000000e+00 0.0000000000000000e+00 0.0000000000000000e+00 0.0000000000000000e+00  1.2837826558212067e-05 1.2495070203570116e-06 0.0000000000000000e+00 1.2495070203570116e-06 1.6594514682852571e-05 0.0000000000000000e+00 0.0000000000000000e+00 0.0000000000000000e+00 0.0000000000000000e+00  1.3157824683414844e-05 1.6691875955426248e-06 0.0000000000000000e+00 1.6691875955426248e-06 1.6376306999859745e-05 0.0000000000000000e+00 0.0000000000000000e+00 0.0000000000000000e+00 0.0000000000000000e+00  1.3423989244404064e-05 2.0940743482617871e-06 0.0000000000000000e+00 2.0940743482617871e-06 1.6064374508484619e-05 0.0000000000000000e+00 0.0000000000000000e+00 0.0000000000000000e+00 0.0000000000000000e+00  1.3656573515031889e-05 2.5614090333080047e-06 0.0000000000000000e+00 2.5614090333080047e-06 1.5635612594665274e-05 0.0000000000000000e+00 0.0000000000000000e+00 0.0000000000000000e+00 0.0000000000000000e+00  1.3888834375717940e-05 3.1035796323686402e-06 0.0000000000000000e+00 3.1035796323686402e-06 1.5040911357799240e-05 0.0000000000000000e+00 0.0000000000000000e+00 0.0000000000000000e+00 0.0000000000000000e+00  1.4173459141242871e-05 3.7451705998759264e-06 0.0000000000000000e+00 3.7451705998759264e-06 1.4197136528270280e-05 0.0000000000000000e+00 0.0000000000000000e+00 0.0000000000000000e+00 0.0000000000000000e+00  6.9229734316546560e-06 1.1664806978745361e-05 0.0000000000000000e+00 1.1664806978745361e-05 6.7381149204609628e-06 0.0000000000000000e+00 0.0000000000000000e+00 0.0000000000000000e+00 0.0000000000000000e+00  1.2630803007640452e-05 8.5916510719135889e-06 0.0000000000000000e+00 8.5916510719135889e-06 -1.8465158242703454e-06 0.0000000000000000e+00 0.0000000000000000e+00 0.0000000000000000e+00 0.0000000000000000e+00  1.0562993721511461e-05 -5.3704918499203621e-07 0.0000000000000000e+00 -5.3704918499203621e-07 -6.2295721482460663e-06 0.0000000000000000e+00 0.0000000000000000e+00 0.0000000000000000e+00 0.0000000000000000e+00  1.0908930411985811e-05 -3.4626635219319628e-06 0.0000000000000000e+00 -3.4626635219319628e-06 -1.9059594034989641e-06 0.0000000000000000e+00 0.0000000000000000e+00 0.0000000000000000e+00 0.0000000000000000e+00  6.0538263096599073e-06 -8.1990826064425592e-06 0.0000000000000000e+00 -8.1990826064425592e-06 5.2316171694079047e-06 0.0000000000000000e+00 0.0000000000000000e+00 0.0000000000000000e+00 0.0000000000000000e+00  2.7993874059519001e-06 -4.3727429866973719e-06 0.0000000000000000e+00 -4.3727429866973719e-06 1.0422934374334510e-05 0.0000000000000000e+00 0.0000000000000000e+00 0.0000000000000000e+00 0.0000000000000000e+00  3.1448412572843511e-06 -3.3831405967987250e-07 0.0000000000000000e+00 -3.3831405967987250e-07 1.6285073686275009e-05 0.0000000000000000e+00 0.0000000000000000e+00 0.0000000000000000e+00 0.0000000000000000e+00  4.1789775116861386e-06 4.1300475315446989e-06 0.0000000000000000e+00 4.1300475315446989e-06 1.1759357367539187e-05 0.0000000000000000e+00 0.0000000000000000e+00 0.0000000000000000e+00 0.0000000000000000e+00  7.7279122637104441e-06 7.2786062460570876e-06 0.0000000000000000e+00 7.2786062460570876e-06 7.0542454901219818e-06 0.0000000000000000e+00 0.0000000000000000e+00 0.0000000000000000e+00 0.0000000000000000e+00  1.4992399894746723e-05 3.8656166820658331e-06 0.0000000000000000e+00 3.8656166820658331e-06 2.0558035619465889e-06 0.0000000000000000e+00 0.0000000000000000e+00 0.0000000000000000e+00 0.0000000000000000e+00  1.2846976183762719e-05 -7.8465216533432390e-07 0.0000000000000000e+00 -7.8465216533432390e-07 -2.2620128089705464e-06 0.0000000000000000e+00 0.0000000000000000e+00 0.0000000000000000e+00 0.0000000000000000e+00  1.6737400584795853e-05 -5.6707532827465280e-06 0.0000000000000000e+00 -5.6707532827465280e-06 2.9678736594806059e-06 0.0000000000000000e+00 0.0000000000000000e+00 0.0000000000000000e+00 0.0000000000000000e+00  1.1011825051535755e-05 -9.7201833278143619e-06 0.0000000000000000e+00 -9.7201833278143619e-06 9.2542362740345695e-06 0.0000000000000000e+00 0.0000000000000000e+00 0.0000000000000000e+00 0.0000000000000000e+00  8.5975982434228763e-06 -7.4029706156615987e-06 0.0000000000000000e+00 -7.4029706156615987e-06 1.5914989104391724e-05 0.0000000000000000e+00 0.0000000000000000e+00 0.0000000000000000e+00 0.0000000000000000e+00  8.1174889926773524e-06 -3.6205796447232450e-06 0.0000000000000000e+00 -3.6205796447232450e-06 2.3194842557408789e-05 0.0000000000000000e+00 0.0000000000000000e+00 0.0000000000000000e+00 0.0000000000000000e+00  7.6327396130684261e-06 3.5074375261964630e-07 0.0000000000000000e+00 3.5074375261964630e-07 2.0727565850337042e-05 0.0000000000000000e+00 0.0000000000000000e+00 0.0000000000000000e+00 0.0000000000000000e+00  1.0161903525291672e-05 5.2544331150426295e-06 0.0000000000000000e+00 5.2544331150426295e-06 1.9001567476864619e-05 0.0000000000000000e+00 0.0000000000000000e+00 0.0000000000000000e+00 0.0000000000000000e+00  1.4006982398670608e-05 3.1642464456296787e-06 0.0000000000000000e+00 3.1642464456296787e-06 1.4207633198899741e-05 0.0000000000000000e+00 0.0000000000000000e+00 0.0000000000000000e+00 0.0000000000000000e+00  1.3279501631107271e-05 4.1788844976679108e-06 0.0000000000000000e+00 4.1788844976679108e-06 9.7849761421036865e-06 0.0000000000000000e+00 0.0000000000000000e+00 0.0000000000000000e+00 0.0000000000000000e+00  1.5711566355929293e-05 -3.7262384767772398e-08 0.0000000000000000e+00 -3.7262384767772398e-08 9.3425257516746226e-06 0.0000000000000000e+00 0.0000000000000000e+00 0.0000000000000000e+00 0.0000000000000000e+00  1.3540947754481263e-05 -6.8311679820243052e-07 0.0000000000000000e+00 -6.8311679820243052e-07 8.5154987454162032e-06 0.0000000000000000e+00 0.0000000000000000e+00 0.0000000000000000e+00 0.0000000000000000e+00  1.3435057499772377e-05 -2.4896378234283953e-06 0.0000000000000000e+00 -2.4896378234283953e-06 1.0331080210400923e-05 0.0000000000000000e+00 0.0000000000000000e+00 0.0000000000000000e+00 0.0000000000000000e+00  1.2160004645590794e-05 -2.5882265710678232e-06 0.0000000000000000e+00 -2.5882265710678228e-06 1.1626254866533140e-05 0.0000000000000000e+00 0.0000000000000000e+00 0.0000000000000000e+00 0.0000000000000000e+00  1.1689213050527391e-05 -2.5146403543796144e-06 0.0000000000000000e+00 -2.5146403543796144e-06 1.3268169587494999e-05 0.0000000000000000e+00 0.0000000000000000e+00 0.0000000000000000e+00 0.0000000000000000e+00  1.1342741448429357e-05 -1.9735896793475245e-06 0.0000000000000000e+00 -1.9735896793475245e-06 1.4442709503815806e-05 0.0000000000000000e+00 0.0000000000000000e+00 0.0000000000000000e+00 0.0000000000000000e+00  1.1319974432779125e-05 -1.3460921057811539e-06 0.0000000000000000e+00 -1.3460921057811539e-06 1.5318430427605757e-05 0.0000000000000000e+00 0.0000000000000000e+00 0.0000000000000000e+00 0.0000000000000000e+00  1.1459385879956804e-05 -6.9366986902786685e-07 0.0000000000000000e+00 -6.9366986902786685e-07 1.5853001104151830e-05 0.0000000000000000e+00 0.0000000000000000e+00 0.0000000000000000e+00 0.0000000000000000e+00  1.1701421640963994e-05 -9.1485065138424016e-08 0.0000000000000000e+00 -9.1485065138424016e-08 1.6132213012085463e-05 0.0000000000000000e+00 0.0000000000000000e+00 0.0000000000000000e+00 0.0000000000000000e+00  1.1979697260179187e-05 4.4997451632073281e-07 0.0000000000000000e+00 4.4997451632073281e-07 1.6212077262403710e-05 0.0000000000000000e+00 0.0000000000000000e+00 0.0000000000000000e+00 0.0000000000000000e+00  1.2257092801680806e-05 9.3956524672377303e-07 0.0000000000000000e+00 9.3956524672377303e-07 1.6139428524371504e-05 0.0000000000000000e+00 0.0000000000000000e+00 0.0000000000000000e+00 0.0000000000000000e+00  1.2515197459661442e-05 1.3993763262604914e-06 0.0000000000000000e+00 1.3993763262604914e-06 1.5938112350567525e-05 0.0000000000000000e+00 0.0000000000000000e+00 0.0000000000000000e+00 0.0000000000000000e+00  1.2752566619931606e-05 1.8548294319484481e-06 0.0000000000000000e+00 1.8548294319484481e-06 1.5610659540650489e-05 0.0000000000000000e+00 0.0000000000000000e+00 0.0000000000000000e+00 0.0000000000000000e+00  1.2981802466765905e-05 2.3298830075209869e-06 0.0000000000000000e+00 2.3298830075209869e-06 1.5137849364516356e-05 0.0000000000000000e+00 0.0000000000000000e+00 0.0000000000000000e+00 0.0000000000000000e+00  1.3228972089904014e-05 2.8427429152171892e-06 0.0000000000000000e+00 2.8427429152171892e-06 1.4477759225246223e-05 0.0000000000000000e+00 0.0000000000000000e+00 0.0000000000000000e+00 0.0000000000000000e+00  1.3537250543403946e-05 3.3999633865905306e-06 0.0000000000000000e+00 3.3999633865905306e-06 1.3560820109871632e-05 0.0000000000000000e+00 0.0000000000000000e+00 0.0000000000000000e+00 0.0000000000000000e+00  1.0051613817600745e-05 9.0010323001186199e-06 0.0000000000000000e+00 9.0010323001186199e-06 9.6800388795716801e-06 0.0000000000000000e+00 0.0000000000000000e+00 0.0000000000000000e+00 0.0000000000000000e+00  1.1876334181240136e-05 5.7534836993139887e-06 0.0000000000000000e+00 5.7534836993139887e-06 2.4642805564549800e-06 0.0000000000000000e+00 0.0000000000000000e+00 0.0000000000000000e+00 0.0000000000000000e+00  1.2669251329509090e-05 1.6902989870635571e-06 0.0000000000000000e+00 1.6902989870635571e-06 2.4012648244426873e-08 0.0000000000000000e+00 0.0000000000000000e+00 0.0000000000000000e+00 0.0000000000000000e+00  1.0868974040564956e-05 -2.5404984331200523e-06 0.0000000000000000e+00 -2.5404984331200523e-06 1.2467947709865288e-06 0.0000000000000000e+00 0.0000000000000000e+00 0.0000000000000000e+00 0.0000000000000000e+00  8.6767877737667530e-06 -3.8305957318141114e-06 0.0000000000000000e+00 -3.8305957318141114e-06 4.9489820935699106e-06 0.0000000000000000e+00 0.0000000000000000e+00 0.0000000000000000e+00 0.0000000000000000e+00  6.5590150973630504e-06 -3.3105002327145429e-06 0.0000000000000000e+00 -3.3105002327145429e-06 9.0630190801777753e-06 0.0000000000000000e+00 0.0000000000000000e+00 0.0000000000000000e+00 0.0000000000000000e+00  5.7352181627041150e-06 -6.4720522078383403e-07 0.0000000000000000e+00 -6.4720522078383403e-07 1.0599104984099989e-05 0.0000000000000000e+00 0.0000000000000000e+00 0.0000000000000000e+00 0.0000000000000000e+00  7.0410113408833479e-06 1.9785469080414535e-06 0.0000000000000000e+00 1.9785469080414535e-06 1.0110655228701396e-05 0.0000000000000000e+00 0.0000000000000000e+00 0.0000000000000000e+00 0.0000000000000000e+00  9.7509399124795020e-06 2.7975728135416937e-06 0.0000000000000000e+00 2.7975728135416937e-06 7.1322142110814203e-06 0.0000000000000000e+00 0.0000000000000000e+00 0.0000000000000000e+00 0.0000000000000000e+00  1.1935510371435327e-05 1.6240833344044868e-06 0.0000000000000000e+00 1.6240833344044868e-06 4.1898044482757585e-06 0.0000000000000000e+00 0.0000000000000000e+00 0.0000000000000000e+00 0.0000000000000000e+00  1.4055578639817802e-05 -1.5019467168926440e-06 0.0000000000000000e+00 -1.5019467168926440e-06 3.6559551846761321e-06 0.0000000000000000e+00 0.0000000000000000e+00 0.0000000000000000e+00 0.0000000000000000e+00  1.3018148199493384e-05 -4.7616603856594425e-06 0.0000000000000000e+00 -4.7616603856594425e-06 5.4588688234608694e-06 0.0000000000000000e+00 0.0000000000000000e+00 0.0000000000000000e+00 0.0000000000000000e+00  1.1726676441143116e-05 -6.2746902976589612e-06 0.0000000000000000e+00 -6.2746902976589612e-06 9.9133602706026876e-06 0.0000000000000000e+00 0.0000000000000000e+00 0.0000000000000000e+00 0.0000000000000000e+00  9.5554207600038506e-06 -5.8218369468316100e-06 0.0000000000000000e+00 -5.8218369468316100e-06 1.4814991257908469e-05 0.0000000000000000e+00 0.0000000000000000e+00 0.0000000000000000e+00 0.0000000000000000e+00  8.3234911845117479e-06 -3.3086832691662289e-06 0.0000000000000000e+00 -3.3086832691662289e-06 1.7653378560294140e-05 0.0000000000000000e+00 0.0000000000000000e+00 0.0000000000000000e+00 0.0000000000000000e+00  8.7521073544243447e-06 -1.6389384320753619e-07 0.0000000000000000e+00 -1.6389384320753619e-07 1.8678529605057346e-05 0.0000000000000000e+00 0.0000000000000000e+00 0.0000000000000000e+00 0.0000000000000000e+00  1.0156347510576397e-05 1.7490715456230968e-06 0.0000000000000000e+00 1.7490715456230968e-06 1.6811476494034661e-05 0.0000000000000000e+00 0.0000000000000000e+00 0.0000000000000000e+00 0.0000000000000000e+00  1.1689724519454957e-05 2.8745820188899057e-06 0.0000000000000000e+00 2.8745820188899057e-06 1.4238843892208656e-05 0.0000000000000000e+00 0.0000000000000000e+00 0.0000000000000000e+00 0.0000000000000000e+00  1.3329377236443618e-05 1.8762083101732907e-06 0.0000000000000000e+00 1.8762083101732907e-06 1.1976237069281046e-05 0.0000000000000000e+00 0.0000000000000000e+00 0.0000000000000000e+00 0.0000000000000000e+00  1.3547466083067851e-05 9.2221877755553478e-07 0.0000000000000000e+00 9.2221877755553478e-07 1.0445086643368499e-05 0.0000000000000000e+00 0.0000000000000000e+00 0.0000000000000000e+00 0.0000000000000000e+00  1.3691044908693839e-05 -6.2634499028655853e-07 0.0000000000000000e+00 -6.2634499028655853e-07 1.0359430257779837e-05 0.0000000000000000e+00 0.0000000000000000e+00 0.0000000000000000e+00 0.0000000000000000e+00  1.3024229288175626e-05 -1.4658911325414038e-06 0.0000000000000000e+00 -1.4658911325414038e-06 1.0838361001036834e-05 0.0000000000000000e+00 0.0000000000000000e+00 0.0000000000000000e+00 0.0000000000000000e+00  1.2489351135180836e-05 -2.0045611603802254e-06 0.0000000000000000e+00 -2.0045611603802254e-06 1.1909154086714432e-05 0.0000000000000000e+00 0.0000000000000000e+00 0.0000000000000000e+00 0.0000000000000000e+00  1.1929952111618954e-05 -2.0231446792461661e-06 0.0000000000000000e+00 -2.0231446792461661e-06 1.2985484751950896e-05 0.0000000000000000e+00 0.0000000000000000e+00 0.0000000000000000e+00 0.0000000000000000e+00  1.1591974878209300e-05 -1.7688151015752963e-06 0.0000000000000000e+00 -1.7688151015752963e-06 1.3979723136289675e-05 0.0000000000000000e+00 0.0000000000000000e+00 0.0000000000000000e+00 0.0000000000000000e+00  1.1423277134063850e-05 -1.3265388862358440e-06 0.0000000000000000e+00 -1.3265388862358440e-06 1.4742796629234623e-05 0.0000000000000000e+00 0.0000000000000000e+00 0.0000000000000000e+00 0.0000000000000000e+00  1.1411858118141899e-05 -8.1291952102490633e-07 0.0000000000000000e+00 -8.1291952102490633e-07 1.5272936073529022e-05 0.0000000000000000e+00 0.0000000000000000e+00 0.0000000000000000e+00 0.0000000000000000e+00  1.1504416469041799e-05 -2.8540462202607695e-07 0.0000000000000000e+00 -2.8540462202607695e-07 1.5582293965614239e-05 0.0000000000000000e+00 0.0000000000000000e+00 0.0000000000000000e+00 0.0000000000000000e+00  1.1659246970687497e-05 2.2460308715484960e-07 0.0000000000000000e+00 2.2460308715484960e-07 1.5703546810528709e-05 0.0000000000000000e+00 0.0000000000000000e+00 0.0000000000000000e+00 0.0000000000000000e+00  1.1843779630673152e-05 7.1007933475912520e-07 0.0000000000000000e+00 7.1007933475912520e-07 1.5663504342614603e-05 0.0000000000000000e+00 0.0000000000000000e+00 0.0000000000000000e+00 0.0000000000000000e+00  1.2039643190555625e-05 1.1766469664046723e-06 0.0000000000000000e+00 1.1766469664046723e-06 1.5478053715648547e-05 0.0000000000000000e+00 0.0000000000000000e+00 0.0000000000000000e+00 0.0000000000000000e+00  1.2241656781131951e-05 1.6356606276468819e-06 0.0000000000000000e+00 1.6356606276468819e-06 1.5147856908570037e-05 0.0000000000000000e+00 0.0000000000000000e+00 0.0000000000000000e+00 0.0000000000000000e+00  1.2457067614824836e-05 2.0981538891733190e-06 0.0000000000000000e+00 2.0981538891733190e-06 1.4657005213972663e-05 0.0000000000000000e+00 0.0000000000000000e+00 0.0000000000000000e+00 0.0000000000000000e+00  1.2704916889800897e-05 2.5694881691589651e-06 0.0000000000000000e+00 2.5694881691589651e-06 1.3972013337062607e-05 0.0000000000000000e+00 0.0000000000000000e+00 0.0000000000000000e+00 0.0000000000000000e+00  1.3017573033690729e-05 3.0422268485447733e-06 0.0000000000000000e+00 3.0422268485447733e-06 1.3039563660198447e-05 0.0000000000000000e+00 0.0000000000000000e+00 0.0000000000000000e+00 0.0000000000000000e+00  1.0635692768153758e-05 6.4032135764949705e-06 0.0000000000000000e+00 6.4032135764949705e-06 1.0493912783389879e-05 0.0000000000000000e+00 0.0000000000000000e+00 0.0000000000000000e+00 0.0000000000000000e+00  1.2220117941124077e-05 4.7824742428005079e-06 0.0000000000000000e+00 4.7824742428005079e-06 5.8348936861896100e-06 0.0000000000000000e+00 0.0000000000000000e+00 0.0000000000000000e+00 0.0000000000000000e+00  1.2517808732394364e-05 1.8874469833104623e-06 0.0000000000000000e+00 1.8874469833104623e-06 3.5180670585397556e-06 0.0000000000000000e+00 0.0000000000000000e+00 0.0000000000000000e+00 0.0000000000000000e+00  1.1735717815170558e-05 -6.2677962623956344e-07 0.0000000000000000e+00 -6.2677962623956344e-07 3.7490400255024153e-06 0.0000000000000000e+00 0.0000000000000000e+00 0.0000000000000000e+00 0.0000000000000000e+00  1.0202123565904255e-05 -2.0719998493396920e-06 0.0000000000000000e+00 -2.0719998493396920e-06 5.5668701558801675e-06 0.0000000000000000e+00 0.0000000000000000e+00 0.0000000000000000e+00 0.0000000000000000e+00  8.8501125904001650e-06 -1.9256312121704658e-06 0.0000000000000000e+00 -1.9256312121704658e-06 7.6027025542942404e-06 0.0000000000000000e+00 0.0000000000000000e+00 0.0000000000000000e+00 0.0000000000000000e+00  8.3616594755719213e-06 -8.2714094149562434e-07 0.0000000000000000e+00 -8.2714094149562434e-07 8.8298105407608840e-06 0.0000000000000000e+00 0.0000000000000000e+00 0.0000000000000000e+00 0.0000000000000000e+00  8.9758403641213891e-06 3.7300367997293325e-07 0.0000000000000000e+00 3.7300367997293325e-07 8.5527871999790374e-06 0.0000000000000000e+00 0.0000000000000000e+00 0.0000000000000000e+00 0.0000000000000000e+00  1.0368125057464191e-05 7.6072771771410684e-07 0.0000000000000000e+00 7.6072771771410684e-07 7.3559630024813153e-06 0.0000000000000000e+00 0.0000000000000000e+00 0.0000000000000000e+00 0.0000000000000000e+00  1.1926556546417796e-05 -1.3704450087689229e-07 0.0000000000000000e+00 -1.3704450087689229e-07 6.1897716044029864e-06 0.0000000000000000e+00 0.0000000000000000e+00 0.0000000000000000e+00 0.0000000000000000e+00  1.2618597646904886e-05 -1.9146828380495585e-06 0.0000000000000000e+00 -1.9146828380495585e-06 6.0719583986841787e-06 0.0000000000000000e+00 0.0000000000000000e+00 0.0000000000000000e+00 0.0000000000000000e+00  1.2471057238122934e-05 -3.7401501227494017e-06 0.0000000000000000e+00 -3.7401501227494017e-06 7.6263948899081616e-06 0.0000000000000000e+00 0.0000000000000000e+00 0.0000000000000000e+00 0.0000000000000000e+00  1.1312747803243805e-05 -4.7335399634544780e-06 0.0000000000000000e+00 -4.7335399634544780e-06 1.0363284490474188e-05 0.0000000000000000e+00 0.0000000000000000e+00 0.0000000000000000e+00 0.0000000000000000e+00  1.0061453130021451e-05 -4.3530228265298319e-06 0.0000000000000000e+00 -4.3530228265298319e-06 1.3336963474611021e-05 0.0000000000000000e+00 0.0000000000000000e+00 0.0000000000000000e+00 0.0000000000000000e+00  9.2763274359235549e-06 -2.8711692695382674e-06 0.0000000000000000e+00 -2.8711692695382674e-06 1.5548431134526877e-05 0.0000000000000000e+00 0.0000000000000000e+00 0.0000000000000000e+00 0.0000000000000000e+00  9.3242793085383434e-06 -9.8374005019217485e-07 0.0000000000000000e+00 -9.8374005019217485e-07 1.6194005807816323e-05 0.0000000000000000e+00 0.0000000000000000e+00 0.0000000000000000e+00 0.0000000000000000e+00  1.0133287171514556e-05 6.1414788735745112e-07 0.0000000000000000e+00 6.1414788735745112e-07 1.5560086338400615e-05 0.0000000000000000e+00 0.0000000000000000e+00 0.0000000000000000e+00 0.0000000000000000e+00  1.1300072992457385e-05 1.2742631411818239e-06 0.0000000000000000e+00 1.2742631411818239e-06 1.4102882748010567e-05 0.0000000000000000e+00 0.0000000000000000e+00 0.0000000000000000e+00 0.0000000000000000e+00  1.2249052933856106e-05 1.2114707724508174e-06 0.0000000000000000e+00 1.2114707724508174e-06 1.2607937905537978e-05 0.0000000000000000e+00 0.0000000000000000e+00 0.0000000000000000e+00 0.0000000000000000e+00  1.2883323693327920e-05 4.7736050229765929e-07 0.0000000000000000e+00 4.7736050229765929e-07 1.1634606885527324e-05 0.0000000000000000e+00 0.0000000000000000e+00 0.0000000000000000e+00 0.0000000000000000e+00  1.2963303717639237e-05 -3.2969529679300567e-07 0.0000000000000000e+00 -3.2969529679300567e-07 1.1278816485497401e-05 0.0000000000000000e+00 0.0000000000000000e+00 0.0000000000000000e+00 0.0000000000000000e+00  1.2777461786569726e-05 -1.0673329908699970e-06 0.0000000000000000e+00 -1.0673329908699970e-06 1.1548232880962039e-05 0.0000000000000000e+00 0.0000000000000000e+00 0.0000000000000000e+00 0.0000000000000000e+00  1.2383909495609843e-05 -1.4887661194712068e-06 0.0000000000000000e+00 -1.4887661194712068e-06 1.2158876652543141e-05 0.0000000000000000e+00 0.0000000000000000e+00 0.0000000000000000e+00 0.0000000000000000e+00  1.1996855218825780e-05 -1.6247603798320998e-06 0.0000000000000000e+00 -1.6247603798320998e-06 1.2936166108216391e-05 0.0000000000000000e+00 0.0000000000000000e+00 0.0000000000000000e+00 0.0000000000000000e+00  1.1675161080284124e-05 -1.5015583531032221e-06 0.0000000000000000e+00 -1.5015583531032221e-06 1.3687915698172751e-05 0.0000000000000000e+00 0.0000000000000000e+00 0.0000000000000000e+00 0.0000000000000000e+00  1.1470219040296731e-05 -1.2070334582465102e-06 0.0000000000000000e+00 -1.2070334582465102e-06 1.4324409341374734e-05 0.0000000000000000e+00 0.0000000000000000e+00 0.0000000000000000e+00 0.0000000000000000e+00  1.1376447684642457e-05 -8.0963229456074999e-07 0.0000000000000000e+00 -8.0963229456074999e-07 1.4795520781090625e-05 0.0000000000000000e+00 0.0000000000000000e+00 0.0000000000000000e+00 0.0000000000000000e+00  1.1375785560238689e-05 -3.6476746379234369e-07 0.0000000000000000e+00 -3.6476746379234369e-07 1.5092839356167018e-05 0.0000000000000000e+00 0.0000000000000000e+00 0.0000000000000000e+00 0.0000000000000000e+00  1.1442379478554040e-05 9.4450806097993216e-08 0.0000000000000000e+00 9.4450806097993216e-08 1.5223059977679434e-05 0.0000000000000000e+00 0.0000000000000000e+00 0.0000000000000000e+00 0.0000000000000000e+00  1.1554234455708294e-05 5.5125583286573607e-07 0.0000000000000000e+00 5.5125583286573607e-07 1.5197514740952655e-05 0.0000000000000000e+00 0.0000000000000000e+00 0.0000000000000000e+00 0.0000000000000000e+00  1.1696686501649701e-05 1.0003057467530454e-06 0.0000000000000000e+00 1.0003057467530454e-06 1.5023004766444999e-05 0.0000000000000000e+00 0.0000000000000000e+00 0.0000000000000000e+00 0.0000000000000000e+00  1.1864289036886529e-05 1.4417534404223368e-06 0.0000000000000000e+00 1.4417534404223368e-06 1.4697466846541526e-05 0.0000000000000000e+00 0.0000000000000000e+00 0.0000000000000000e+00 0.0000000000000000e+00  1.2061013172723786e-05 1.8759270889910441e-06 0.0000000000000000e+00 1.8759270889910441e-06 1.4207668565789141e-05 0.0000000000000000e+00 0.0000000000000000e+00 0.0000000000000000e+00 0.0000000000000000e+00  1.2299873470553545e-05 2.2979912704922623e-06 0.0000000000000000e+00 2.2979912704922623e-06 1.3528471041080532e-05 0.0000000000000000e+00 0.0000000000000000e+00 0.0000000000000000e+00 0.0000000000000000e+00  1.2602975067189030e-05 2.6910338939219070e-06 0.0000000000000000e+00 2.6910338939219070e-06 1.2622527981017504e-05 0.0000000000000000e+00 0.0000000000000000e+00 0.0000000000000000e+00 0.0000000000000000e+00  1.1104215490212186e-05 4.8839975804889119e-06 0.0000000000000000e+00 4.8839975804889119e-06 1.1021664794125492e-05 0.0000000000000000e+00 0.0000000000000000e+00 0.0000000000000000e+00 0.0000000000000000e+00  1.2136697707846767e-05 3.8679088137251122e-06 0.0000000000000000e+00 3.8679088137251122e-06 7.7797247890213345e-06 0.0000000000000000e+00 0.0000000000000000e+00 0.0000000000000000e+00 0.0000000000000000e+00  1.2515249359531016e-05 2.0806176384408534e-06 0.0000000000000000e+00 2.0806176384408534e-06 5.8987311518414366e-06 0.0000000000000000e+00 0.0000000000000000e+00 0.0000000000000000e+00 0.0000000000000000e+00  1.2104894790300727e-05 2.9735259509759947e-07 0.0000000000000000e+00 2.9735259509759947e-07 5.5299912042312132e-06 0.0000000000000000e+00 0.0000000000000000e+00 0.0000000000000000e+00 0.0000000000000000e+00  1.1251860300673422e-05 -8.2786090311305084e-07 0.0000000000000000e+00 -8.2786090311305084e-07 6.2322818513680391e-06 0.0000000000000000e+00 0.0000000000000000e+00 0.0000000000000000e+00 0.0000000000000000e+00  1.0424114731077451e-05 -1.1333079430986727e-06 0.0000000000000000e+00 -1.1333079430986727e-06 7.2718016630432438e-06 0.0000000000000000e+00 0.0000000000000000e+00 0.0000000000000000e+00 0.0000000000000000e+00  1.0057071367377749e-05 -8.2065444810873613e-07 0.0000000000000000e+00 -8.2065444810873613e-07 7.9583116487399760e-06 0.0000000000000000e+00 0.0000000000000000e+00 0.0000000000000000e+00 0.0000000000000000e+00  1.0315569843091308e-05 -4.1226902879323772e-07 0.0000000000000000e+00 -4.1226902879323772e-07 8.0257208495242166e-06 0.0000000000000000e+00 0.0000000000000000e+00 0.0000000000000000e+00 0.0000000000000000e+00  1.1032456725952155e-05 -4.0835265151504024e-07 0.0000000000000000e+00 -4.0835265151504024e-07 7.6304378827046169e-06 0.0000000000000000e+00 0.0000000000000000e+00 0.0000000000000000e+00 0.0000000000000000e+00  1.1773459550880162e-05 -1.0224893122490454e-06 0.0000000000000000e+00 -1.0224893122490454e-06 7.3079350878982224e-06 0.0000000000000000e+00 0.0000000000000000e+00 0.0000000000000000e+00 0.0000000000000000e+00  1.2161086694570179e-05 -2.0923545190040026e-06 0.0000000000000000e+00 -2.0923545190040030e-06 7.6096614294740317e-06 0.0000000000000000e+00 0.0000000000000000e+00 0.0000000000000000e+00 0.0000000000000000e+00  1.1928670752410723e-05 -3.1483574515594497e-06 0.0000000000000000e+00 -3.1483574515594497e-06 8.7662385968784154e-06 0.0000000000000000e+00 0.0000000000000000e+00 0.0000000000000000e+00 0.0000000000000000e+00  1.1247831035115602e-05 -3.6874926327154657e-06 0.0000000000000000e+00 -3.6874926327154657e-06 1.0601241371559891e-05 0.0000000000000000e+00 0.0000000000000000e+00 0.0000000000000000e+00 0.0000000000000000e+00  1.0428454766608402e-05 -3.4548597943326059e-06 0.0000000000000000e+00 -3.4548597943326059e-06 1.2571127932793274e-05 0.0000000000000000e+00 0.0000000000000000e+00 0.0000000000000000e+00 0.0000000000000000e+00  9.8907131548400899e-06 -2.5360621733260154e-06 0.0000000000000000e+00 -2.5360621733260154e-06 1.4061508197969261e-05 0.0000000000000000e+00 0.0000000000000000e+00 0.0000000000000000e+00 0.0000000000000000e+00  9.8625951724148328e-06 -1.3098386529082694e-06 0.0000000000000000e+00 -1.3098386529082694e-06 1.4724381314052302e-05 0.0000000000000000e+00 0.0000000000000000e+00 0.0000000000000000e+00 0.0000000000000000e+00  1.0321879688113848e-05 -2.4255389683607929e-07 0.0000000000000000e+00 -2.4255389683607929e-07 1.4522606989864949e-05 0.0000000000000000e+00 0.0000000000000000e+00 0.0000000000000000e+00 0.0000000000000000e+00  1.1040839208936973e-05 3.8354951357305929e-07 0.0000000000000000e+00 3.8354951357305929e-07 1.3780363125873480e-05 0.0000000000000000e+00 0.0000000000000000e+00 0.0000000000000000e+00 0.0000000000000000e+00  1.1759140000347280e-05 4.5864960390366931e-07 0.0000000000000000e+00 4.5864960390366931e-07 1.2905182143292679e-05 0.0000000000000000e+00 0.0000000000000000e+00 0.0000000000000000e+00 0.0000000000000000e+00  1.2244578052531172e-05 1.5151171328606937e-07 0.0000000000000000e+00 1.5151171328606937e-07 1.2234619808063269e-05 0.0000000000000000e+00 0.0000000000000000e+00 0.0000000000000000e+00 0.0000000000000000e+00  1.2454442196988483e-05 -3.5474205395368429e-07 0.0000000000000000e+00 -3.5474205395368429e-07 1.1951283315976473e-05 0.0000000000000000e+00 0.0000000000000000e+00 0.0000000000000000e+00 0.0000000000000000e+00  1.2398168794688937e-05 -8.3183122790311903e-07 0.0000000000000000e+00 -8.3183122790311903e-07 1.2044534534266681e-05 0.0000000000000000e+00 0.0000000000000000e+00 0.0000000000000000e+00 0.0000000000000000e+00  1.2189103122273895e-05 -1.1681775047390704e-06 0.0000000000000000e+00 -1.1681775047390704e-06 1.2426819505317586e-05 0.0000000000000000e+00 0.0000000000000000e+00 0.0000000000000000e+00 0.0000000000000000e+00  1.1914524967576699e-05 -1.3037889916493726e-06 0.0000000000000000e+00 -1.3037889916493726e-06 1.2956182870269081e-05 0.0000000000000000e+00 0.0000000000000000e+00 0.0000000000000000e+00 0.0000000000000000e+00  1.1656938503511155e-05 -1.2519230686086786e-06 0.0000000000000000e+00 -1.2519230686086786e-06 1.3516477708560327e-05 0.0000000000000000e+00 0.0000000000000000e+00 0.0000000000000000e+00 0.0000000000000000e+00  1.1457269426569624e-05 -1.0486873359814129e-06 0.0000000000000000e+00 -1.0486873359814129e-06 1.4018349097465732e-05 0.0000000000000000e+00 0.0000000000000000e+00 0.0000000000000000e+00 0.0000000000000000e+00  1.1332975460249018e-05 -7.4144791265363834e-07 0.0000000000000000e+00 -7.4144791265363834e-07 1.4411095987865969e-05 0.0000000000000000e+00 0.0000000000000000e+00 0.0000000000000000e+00 0.0000000000000000e+00  1.1281613364276673e-05 -3.7104513755454063e-07 0.0000000000000000e+00 -3.7104513755454063e-07 1.4669837865197998e-05 0.0000000000000000e+00 0.0000000000000000e+00 0.0000000000000000e+00 0.0000000000000000e+00  1.1292577250259894e-05 3.1808186133581618e-08 0.0000000000000000e+00 3.1808186133581618e-08 1.4786781989270865e-05 0.0000000000000000e+00 0.0000000000000000e+00 0.0000000000000000e+00 0.0000000000000000e+00  1.1353489840379716e-05 4.4726962253948234e-07 0.0000000000000000e+00 4.4726962253948234e-07 1.4761070551852746e-05 0.0000000000000000e+00 0.0000000000000000e+00 0.0000000000000000e+00 0.0000000000000000e+00  1.1455002664824031e-05 8.6353992995885799e-07 0.0000000000000000e+00 8.6353992995885799e-07 1.4592144584083885e-05 0.0000000000000000e+00 0.0000000000000000e+00 0.0000000000000000e+00 0.0000000000000000e+00  1.1593115300565613e-05 1.2731213928396500e-06 0.0000000000000000e+00 1.2731213928396500e-06 1.4275346184022720e-05 0.0000000000000000e+00 0.0000000000000000e+00 0.0000000000000000e+00 0.0000000000000000e+00  1.1770070194262850e-05 1.6685705943265730e-06 0.0000000000000000e+00 1.6685705943265730e-06 1.3799725506410046e-05 0.0000000000000000e+00 0.0000000000000000e+00 0.0000000000000000e+00 0.0000000000000000e+00  1.1994124694386578e-05 2.0379878278219021e-06 0.0000000000000000e+00 2.0379878278219021e-06 1.3147587859725750e-05 0.0000000000000000e+00 0.0000000000000000e+00 0.0000000000000000e+00 0.0000000000000000e+00  1.2278708260446980e-05 2.3591597961640280e-06 0.0000000000000000e+00 2.3591597961640280e-06 1.2295469281748879e-05 0.0000000000000000e+00 0.0000000000000000e+00 0.0000000000000000e+00 0.0000000000000000e+00  1.1358717630773388e-05 3.8350023942049546e-06 0.0000000000000000e+00 3.8350023942049546e-06 1.1316257615203021e-05 0.0000000000000000e+00 0.0000000000000000e+00 0.0000000000000000e+00 0.0000000000000000e+00  1.2110738750069318e-05 3.2049720145439101e-06 0.0000000000000000e+00 3.2049720145439101e-06 9.0080678954386550e-06 0.0000000000000000e+00 0.0000000000000000e+00 0.0000000000000000e+00 0.0000000000000000e+00  1.2463748251510815e-05 2.0342959051270024e-06 0.0000000000000000e+00 2.0342959051270024e-06 7.4599324755914514e-06 0.0000000000000000e+00 0.0000000000000000e+00 0.0000000000000000e+00 0.0000000000000000e+00  1.2338454919804505e-05 7.9646574415984439e-07 0.0000000000000000e+00 7.9646574415984439e-07 6.8438037372476537e-06 0.0000000000000000e+00 0.0000000000000000e+00 0.0000000000000000e+00 0.0000000000000000e+00  1.1892956474709269e-05 -1.3945138127783496e-07 0.0000000000000000e+00 -1.3945138127783496e-07 6.9533642042163080e-06 0.0000000000000000e+00 0.0000000000000000e+00 0.0000000000000000e+00 0.0000000000000000e+00  1.1412944604043956e-05 -6.1695574092887734e-07 0.0000000000000000e+00 -6.1695574092887734e-07 7.3911865205808095e-06 0.0000000000000000e+00 0.0000000000000000e+00 0.0000000000000000e+00 0.0000000000000000e+00  1.1150286842523553e-05 -7.4007332660009693e-07 0.0000000000000000e+00 -7.4007332660009693e-07 7.7849591929509395e-06 0.0000000000000000e+00 0.0000000000000000e+00 0.0000000000000000e+00 0.0000000000000000e+00  1.1211067669608437e-05 -7.6575624695680708e-07 0.0000000000000000e+00 -7.6575624695680708e-07 7.9464423925233032e-06 0.0000000000000000e+00 0.0000000000000000e+00 0.0000000000000000e+00 0.0000000000000000e+00  1.1509075984576224e-05 -9.5755619905756985e-07 0.0000000000000000e+00 -9.5755619905756985e-07 7.9497006518354237e-06 0.0000000000000000e+00 0.0000000000000000e+00 0.0000000000000000e+00 0.0000000000000000e+00  1.1830010740285550e-05 -1.4350032597699475e-06 0.0000000000000000e+00 -1.4350032597699475e-06 8.0443175437492599e-06 0.0000000000000000e+00 0.0000000000000000e+00 0.0000000000000000e+00 0.0000000000000000e+00  1.1938110442708954e-05 -2.1065892883037358e-06 0.0000000000000000e+00 -2.1065892883037358e-06 8.4972615667257392e-06 0.0000000000000000e+00 0.0000000000000000e+00 0.0000000000000000e+00 0.0000000000000000e+00  1.1729444268894550e-05 -2.7259685068634600e-06 0.0000000000000000e+00 -2.7259685068634600e-06 9.4272253251310373e-06 0.0000000000000000e+00 0.0000000000000000e+00 0.0000000000000000e+00 0.0000000000000000e+00  1.1254828442855169e-05 -3.0258617246161815e-06 0.0000000000000000e+00 -3.0258617246161815e-06 1.0717139123078051e-05 0.0000000000000000e+00 0.0000000000000000e+00 0.0000000000000000e+00 0.0000000000000000e+00  1.0718629743121983e-05 -2.8586036465362480e-06 0.0000000000000000e+00 -2.8586036465362480e-06 1.2069925735153972e-05 0.0000000000000000e+00 0.0000000000000000e+00 0.0000000000000000e+00 0.0000000000000000e+00  1.0344246348955237e-05 -2.2722097891040943e-06 0.0000000000000000e+00 -2.2722097891040943e-06 1.3148835058885814e-05 0.0000000000000000e+00 0.0000000000000000e+00 0.0000000000000000e+00 0.0000000000000000e+00  1.0278916739795059e-05 -1.4754918915208954e-06 0.0000000000000000e+00 -1.4754918915208954e-06 1.3724102405833013e-05 0.0000000000000000e+00 0.0000000000000000e+00 0.0000000000000000e+00 0.0000000000000000e+00  1.0527743642155396e-05 -7.2850679392203567e-07 0.0000000000000000e+00 -7.2850679392203567e-07 1.3771462667361705e-05 0.0000000000000000e+00 0.0000000000000000e+00 0.0000000000000000e+00 0.0000000000000000e+00  1.0976978463671524e-05 -2.3647624199792248e-07 0.0000000000000000e+00 -2.3647624199792248e-07 1.3436836661351912e-05 0.0000000000000000e+00 0.0000000000000000e+00 0.0000000000000000e+00 0.0000000000000000e+00  1.1458766594533112e-05 -6.6867662423907345e-08 0.0000000000000000e+00 -6.6867662423907345e-08 1.2957630249046316e-05 0.0000000000000000e+00 0.0000000000000000e+00 0.0000000000000000e+00 0.0000000000000000e+00  1.1838122892937074e-05 -1.7746504027754090e-07 0.0000000000000000e+00 -1.7746504027754090e-07 1.2551962302584826e-05 0.0000000000000000e+00 0.0000000000000000e+00 0.0000000000000000e+00 0.0000000000000000e+00  1.2038647475839578e-05 -4.4345750366265661e-07 0.0000000000000000e+00 -4.4345750366265661e-07 1.2350934210451192e-05 0.0000000000000000e+00 0.0000000000000000e+00 0.0000000000000000e+00 0.0000000000000000e+00  1.2063380564615368e-05 -7.4021830435309482e-07 0.0000000000000000e+00 -7.4021830435309482e-07 1.2391344101978125e-05 0.0000000000000000e+00 0.0000000000000000e+00 0.0000000000000000e+00 0.0000000000000000e+00  1.1953712202225538e-05 -9.6640894214136219e-07 0.0000000000000000e+00 -9.6640894214136219e-07 1.2631739989421376e-05 0.0000000000000000e+00 0.0000000000000000e+00 0.0000000000000000e+00 0.0000000000000000e+00  1.1773275493707940e-05 -1.0711196961034427e-06 0.0000000000000000e+00 -1.0711196961034427e-06 1.2997249780752550e-05 0.0000000000000000e+00 0.0000000000000000e+00 0.0000000000000000e+00 0.0000000000000000e+00  1.1576804504074206e-05 -1.0409529812781892e-06 0.0000000000000000e+00 -1.0409529812781892e-06 1.3405562911646186e-05 0.0000000000000000e+00 0.0000000000000000e+00 0.0000000000000000e+00 0.0000000000000000e+00  1.1404642323003796e-05 -8.9059683139391239e-07 0.0000000000000000e+00 -8.9059683139391239e-07 1.3789217525337862e-05 0.0000000000000000e+00 0.0000000000000000e+00 0.0000000000000000e+00 0.0000000000000000e+00  1.1278442846517057e-05 -6.4646967654560111e-07 0.0000000000000000e+00 -6.4646967654560111e-07 1.4100108228358952e-05 0.0000000000000000e+00 0.0000000000000000e+00 0.0000000000000000e+00 0.0000000000000000e+00  1.1206114307834978e-05 -3.3732746183972079e-07 0.0000000000000000e+00 -3.3732746183972074e-07 1.4308993802788068e-05 0.0000000000000000e+00 0.0000000000000000e+00 0.0000000000000000e+00 0.0000000000000000e+00  1.1186716812586577e-05 1.1858181602411123e-08 0.0000000000000000e+00 1.1858181602411118e-08 1.4399915172951256e-05 0.0000000000000000e+00 0.0000000000000000e+00 0.0000000000000000e+00 0.0000000000000000e+00  1.1215709455402285e-05 3.8161521178212920e-07 0.0000000000000000e+00 3.8161521178212920e-07 1.4364538318508613e-05 0.0000000000000000e+00 0.0000000000000000e+00 0.0000000000000000e+00 0.0000000000000000e+00  1.1288647521593242e-05 7.5731987957709259e-07 0.0000000000000000e+00 7.5731987957709259e-07 1.4197178948291164e-05 0.0000000000000000e+00 0.0000000000000000e+00 0.0000000000000000e+00 0.0000000000000000e+00  1.1403522870399744e-05 1.1269951707147042e-06 0.0000000000000000e+00 1.1269951707147042e-06 1.3891425491188438e-05 0.0000000000000000e+00 0.0000000000000000e+00 0.0000000000000000e+00 0.0000000000000000e+00  1.1561771589033817e-05 1.4783500044109649e-06 0.0000000000000000e+00 1.4783500044109649e-06 1.3438367270863714e-05 0.0000000000000000e+00 0.0000000000000000e+00 0.0000000000000000e+00 0.0000000000000000e+00  1.1768124221742537e-05 1.7953843757586797e-06 0.0000000000000000e+00 1.7953843757586797e-06 1.2826483494976100e-05 0.0000000000000000e+00 0.0000000000000000e+00 0.0000000000000000e+00 0.0000000000000000e+00  1.2029316281969786e-05 2.0539502518416858e-06 0.0000000000000000e+00 2.0539502518416858e-06 1.2043293500908752e-05 0.0000000000000000e+00 0.0000000000000000e+00 0.0000000000000000e+00 0.0000000000000000e+00  1.1548039473160636e-05 3.0993855934879385e-06 0.0000000000000000e+00 3.0993855934879385e-06 1.1523121774437622e-05 0.0000000000000000e+00 0.0000000000000000e+00 0.0000000000000000e+00 0.0000000000000000e+00  1.2111847083321308e-05 2.6771389552557609e-06 0.0000000000000000e+00 2.6771389552557609e-06 9.7973647546650668e-06 0.0000000000000000e+00 0.0000000000000000e+00 0.0000000000000000e+00 0.0000000000000000e+00  1.2442239614979514e-05 1.8903860290621034e-06 0.0000000000000000e+00 1.8903860290621034e-06 8.5219491410698437e-06 0.0000000000000000e+00 0.0000000000000000e+00 0.0000000000000000e+00 0.0000000000000000e+00  1.2469427147410733e-05 9.9784718759313881e-07 0.0000000000000000e+00 9.9784718759313881e-07 7.8298545817984104e-06 0.0000000000000000e+00 0.0000000000000000e+00 0.0000000000000000e+00 0.0000000000000000e+00  1.2273299082931277e-05 2.3034355530867547e-07 0.0000000000000000e+00 2.3034355530867547e-07 7.6399942179191106e-06 0.0000000000000000e+00 0.0000000000000000e+00 0.0000000000000000e+00 0.0000000000000000e+00  1.2009012452107228e-05 -3.0282591468909282e-07 0.0000000000000000e+00 -3.0282591468909282e-07 7.7488822238639000e-06 0.0000000000000000e+00 0.0000000000000000e+00 0.0000000000000000e+00 0.0000000000000000e+00  1.1823973372225654e-05 -6.2983319600895284e-07 0.0000000000000000e+00 -6.2983319600895284e-07 7.9479825778339926e-06 0.0000000000000000e+00 0.0000000000000000e+00 0.0000000000000000e+00 0.0000000000000000e+00  1.1786243554795496e-05 -8.7345647372287788e-07 0.0000000000000000e+00 -8.7345647372287788e-07 8.1231135067739872e-06 0.0000000000000000e+00 0.0000000000000000e+00 0.0000000000000000e+00 0.0000000000000000e+00  1.1860686464074595e-05 -1.1644801622595354e-06 0.0000000000000000e+00 -1.1644801622595354e-06 8.2892450288639402e-06 0.0000000000000000e+00 0.0000000000000000e+00 0.0000000000000000e+00 0.0000000000000000e+00  1.1936621092090090e-05 -1.5619161996224259e-06 0.0000000000000000e+00 -1.5619161996224259e-06 8.5575519731804360e-06 0.0000000000000000e+00 0.0000000000000000e+00 0.0000000000000000e+00 0.0000000000000000e+00  1.1897572813851693e-05 -2.0176460663467164e-06 0.0000000000000000e+00 -2.0176460663467164e-06 9.0495882602917536e-06 0.0000000000000000e+00 0.0000000000000000e+00 0.0000000000000000e+00 0.0000000000000000e+00  1.1684405971590538e-05 -2.4014575957663698e-06 0.0000000000000000e+00 -2.4014575957663698e-06 9.8100427856448807e-06 0.0000000000000000e+00 0.0000000000000000e+00 0.0000000000000000e+00 0.0000000000000000e+00  1.1333977130118226e-05 -2.5716805477720508e-06 0.0000000000000000e+00 -2.5716805477720508e-06 1.0765120230801205e-05 0.0000000000000000e+00 0.0000000000000000e+00 0.0000000000000000e+00 0.0000000000000000e+00  1.0955908883332392e-05 -2.4509324686254730e-06 0.0000000000000000e+00 -2.4509324686254730e-06 1.1744193251505928e-05 0.0000000000000000e+00 0.0000000000000000e+00 0.0000000000000000e+00 0.0000000000000000e+00  1.0681606936598668e-05 -2.0659440381907258e-06 0.0000000000000000e+00 -2.0659440381907258e-06 1.2552658298959030e-05 0.0000000000000000e+00 0.0000000000000000e+00 0.0000000000000000e+00 0.0000000000000000e+00  1.0599701244580712e-05 -1.5347221330661594e-06 0.0000000000000000e+00 -1.5347221330661594e-06 1.3054746289087561e-05 0.0000000000000000e+00 0.0000000000000000e+00 0.0000000000000000e+00 0.0000000000000000e+00  1.0722457231663814e-05 -1.0125849812580527e-06 0.0000000000000000e+00 -1.0125849812580527e-06 1.3220256112506657e-05 0.0000000000000000e+00 0.0000000000000000e+00 0.0000000000000000e+00 0.0000000000000000e+00  1.0989432622227321e-05 -6.2693960357705111e-07 0.0000000000000000e+00 -6.2693960357705111e-07 1.3124099279704957e-05 0.0000000000000000e+00 0.0000000000000000e+00 0.0000000000000000e+00 0.0000000000000000e+00  1.1303826524295278e-05 -4.3914987582635082e-07 0.0000000000000000e+00 -4.3914987582635082e-07 1.2899834469970635e-05 0.0000000000000000e+00 0.0000000000000000e+00 0.0000000000000000e+00 0.0000000000000000e+00  1.1572828004389552e-05 -4.3547301730872578e-07 0.0000000000000000e+00 -4.3547301730872578e-07 1.2683616159247236e-05 0.0000000000000000e+00 0.0000000000000000e+00 0.0000000000000000e+00 0.0000000000000000e+00  1.1739409303347409e-05 -5.5405683431383124e-07 0.0000000000000000e+00 -5.5405683431383124e-07 1.2571578742649091e-05 0.0000000000000000e+00 0.0000000000000000e+00 0.0000000000000000e+00 0.0000000000000000e+00  1.1787254954818538e-05 -7.1431936831343453e-07 0.0000000000000000e+00 -7.1431936831343453e-07 1.2602795033447380e-05 0.0000000000000000e+00 0.0000000000000000e+00 0.0000000000000000e+00 0.0000000000000000e+00  1.1734776902406951e-05 -8.4717418182881598e-07 0.0000000000000000e+00 -8.4717418182881598e-07 1.2767460857263935e-05 0.0000000000000000e+00 0.0000000000000000e+00 0.0000000000000000e+00 0.0000000000000000e+00  1.1616951972273277e-05 -9.0687601431022875e-07 0.0000000000000000e+00 -9.0687601431022875e-07 1.3024286645064197e-05 0.0000000000000000e+00 0.0000000000000000e+00 0.0000000000000000e+00 0.0000000000000000e+00  1.1472238564292164e-05 -8.7422779739946801e-07 0.0000000000000000e+00 -8.7422779739946801e-07 1.3320918919186862e-05 0.0000000000000000e+00 0.0000000000000000e+00 0.0000000000000000e+00 0.0000000000000000e+00  1.1332258497949780e-05 -7.5013670050150847e-07 0.0000000000000000e+00 -7.5013670050150847e-07 1.3607387671188335e-05 0.0000000000000000e+00 0.0000000000000000e+00 0.0000000000000000e+00 0.0000000000000000e+00  1.1218677833479334e-05 -5.4802614100171540e-07 0.0000000000000000e+00 -5.4802614100171540e-07 1.3843694593568137e-05 0.0000000000000000e+00 0.0000000000000000e+00 0.0000000000000000e+00 0.0000000000000000e+00  1.1143389732150400e-05 -2.8650973293691942e-07 0.0000000000000000e+00 -2.8650973293691942e-07 1.4001250907321695e-05 0.0000000000000000e+00 0.0000000000000000e+00 0.0000000000000000e+00 0.0000000000000000e+00  1.1111179172832022e-05 1.5299513373650031e-08 0.0000000000000000e+00 1.5299513373650034e-08 1.4061252127191793e-05 0.0000000000000000e+00 0.0000000000000000e+00 0.0000000000000000e+00 0.0000000000000000e+00  1.1122756744829734e-05 3.4013523803664012e-07 0.0000000000000000e+00 3.4013523803664012e-07 1.4011569183545822e-05 0.0000000000000000e+00 0.0000000000000000e+00 0.0000000000000000e+00 0.0000000000000000e+00  1.1177448512709663e-05 6.7289062814867243e-07 0.0000000000000000e+00 6.7289062814867243e-07 1.3843699004899740e-05 0.0000000000000000e+00 0.0000000000000000e+00 0.0000000000000000e+00 0.0000000000000000e+00  1.1275027624706231e-05 9.9959360309521700e-07 0.0000000000000000e+00 9.9959360309521700e-07 1.3550457838647505e-05 0.0000000000000000e+00 0.0000000000000000e+00 0.0000000000000000e+00 0.0000000000000000e+00  1.1416580173730705e-05 1.3055573401058021e-06 0.0000000000000000e+00 1.3055573401058021e-06 1.3124815639646020e-05 0.0000000000000000e+00 0.0000000000000000e+00 0.0000000000000000e+00 0.0000000000000000e+00  1.1604350496604431e-05 1.5731093434012843e-06 0.0000000000000000e+00 1.5731093434012843e-06 1.2560073508547307e-05 0.0000000000000000e+00 0.0000000000000000e+00 0.0000000000000000e+00 0.0000000000000000e+00  1.1840320749477602e-05 1.7785639241959401e-06 0.0000000000000000e+00 1.7785639241959401e-06 1.1851746375553365e-05 0.0000000000000000e+00 0.0000000000000000e+00 0.0000000000000000e+00 0.0000000000000000e+00  1.1695217825350533e-05 2.5484005582057851e-06 0.0000000000000000e+00 2.5484005582057851e-06 1.1679202136371644e-05 0.0000000000000000e+00 0.0000000000000000e+00 0.0000000000000000e+00 0.0000000000000000e+00  1.2138456350925112e-05 2.2510938982252828e-06 0.0000000000000000e+00 2.2510938982252828e-06 1.0331413011249014e-05 0.0000000000000000e+00 0.0000000000000000e+00 0.0000000000000000e+00 0.0000000000000000e+00  1.2437480036130103e-05 1.6983824305509997e-06 0.0000000000000000e+00 1.6983824305509997e-06 9.2681522052020095e-06 0.0000000000000000e+00 0.0000000000000000e+00 0.0000000000000000e+00 0.0000000000000000e+00  1.2542100825299586e-05 1.0362615897952888e-06 0.0000000000000000e+00 1.0362615897952888e-06 8.5859139994660815e-06 0.0000000000000000e+00 0.0000000000000000e+00 0.0000000000000000e+00 0.0000000000000000e+00  1.2486004454717781e-05 4.0481553242157056e-07 0.0000000000000000e+00 4.0481553242157056e-07 8.2610677890736905e-06 0.0000000000000000e+00 0.0000000000000000e+00 0.0000000000000000e+00 0.0000000000000000e+00  1.2351839870475334e-05 -1.1517857675840548e-07 0.0000000000000000e+00 -1.1517857675840548e-07 8.1935962428835989e-06 0.0000000000000000e+00 0.0000000000000000e+00 0.0000000000000000e+00 0.0000000000000000e+00  1.2223180443527670e-05 -5.1915310649029706e-07 0.0000000000000000e+00 -5.1915310649029706e-07 8.2702372429281552e-06 0.0000000000000000e+00 0.0000000000000000e+00 0.0000000000000000e+00 0.0000000000000000e+00  1.2144465280142494e-05 -8.5637948042641403e-07 0.0000000000000000e+00 -8.5637948042641403e-07 8.4188225607507442e-06 0.0000000000000000e+00 0.0000000000000000e+00 0.0000000000000000e+00 0.0000000000000000e+00  1.2105174671780749e-05 -1.1858576181724095e-06 0.0000000000000000e+00 -1.1858576181724095e-06 8.6315859193777478e-06 0.0000000000000000e+00 0.0000000000000000e+00 0.0000000000000000e+00 0.0000000000000000e+00  1.2054587188815142e-05 -1.5331875437550810e-06 0.0000000000000000e+00 -1.5331875437550810e-06 8.9491507614691828e-06 0.0000000000000000e+00 0.0000000000000000e+00 0.0000000000000000e+00 0.0000000000000000e+00  1.1936218244593483e-05 -1.8706923314390802e-06 0.0000000000000000e+00 -1.8706923314390802e-06 9.4183036427503937e-06 0.0000000000000000e+00 0.0000000000000000e+00 0.0000000000000000e+00 0.0000000000000000e+00  1.1724770260832115e-05 -2.1296759863218285e-06 0.0000000000000000e+00 -2.1296759863218285e-06 1.0047433870797083e-05 0.0000000000000000e+00 0.0000000000000000e+00 0.0000000000000000e+00 0.0000000000000000e+00  1.1443509804446961e-05 -2.2364892709572522e-06 0.0000000000000000e+00 -2.2364892709572522e-06 1.0783971981199471e-05 0.0000000000000000e+00 0.0000000000000000e+00 0.0000000000000000e+00 0.0000000000000000e+00  1.1156852288607612e-05 -2.1521766232273296e-06 0.0000000000000000e+00 -2.1521766232273296e-06 1.1525541253734920e-05 0.0000000000000000e+00 0.0000000000000000e+00 0.0000000000000000e+00 0.0000000000000000e+00  1.0940529042405194e-05 -1.8948299170348108e-06 0.0000000000000000e+00 -1.8948299170348108e-06 1.2157409989775261e-05 0.0000000000000000e+00 0.0000000000000000e+00 0.0000000000000000e+00 0.0000000000000000e+00  1.0848605560729626e-05 -1.5342092635319016e-06 0.0000000000000000e+00 -1.5342092635319016e-06 1.2595902583232059e-05 0.0000000000000000e+00 0.0000000000000000e+00 0.0000000000000000e+00 0.0000000000000000e+00  1.0892131707768564e-05 -1.1636042661368915e-06 0.0000000000000000e+00 -1.1636042661368915e-06 1.2816923999172772e-05 0.0000000000000000e+00 0.0000000000000000e+00 0.0000000000000000e+00 0.0000000000000000e+00  1.1039196039676653e-05 -8.6521564807801184e-07 0.0000000000000000e+00 -8.6521564807801184e-07 1.2857180817439427e-05 0.0000000000000000e+00 0.0000000000000000e+00 0.0000000000000000e+00 0.0000000000000000e+00  1.1231956317287115e-05 -6.8442623682681528e-07 0.0000000000000000e+00 -6.8442623682681528e-07 1.2792957529336054e-05 0.0000000000000000e+00 0.0000000000000000e+00 0.0000000000000000e+00 0.0000000000000000e+00  1.1410648864780993e-05 -6.2344748480907710e-07 0.0000000000000000e+00 -6.2344748480907710e-07 1.2708698218484878e-05 0.0000000000000000e+00 0.0000000000000000e+00 0.0000000000000000e+00 0.0000000000000000e+00  1.1531948288649652e-05 -6.5022176533213369e-07 0.0000000000000000e+00 -6.5022176533213369e-07 1.2670506526394940e-05 0.0000000000000000e+00 0.0000000000000000e+00 0.0000000000000000e+00 0.0000000000000000e+00  1.1577543229291248e-05 -7.1679583681730452e-07 0.0000000000000000e+00 -7.1679583681730452e-07 1.2712800044846828e-05 0.0000000000000000e+00 0.0000000000000000e+00 0.0000000000000000e+00 0.0000000000000000e+00  1.1551589252903597e-05 -7.7587342608513042e-07 0.0000000000000000e+00 -7.7587342608513042e-07 1.2838040604824256e-05 0.0000000000000000e+00 0.0000000000000000e+00 0.0000000000000000e+00 0.0000000000000000e+00  1.1473168119214078e-05 -7.9221284647311737e-07 0.0000000000000000e+00 -7.9221284647311737e-07 1.3025472258233962e-05 0.0000000000000000e+00 0.0000000000000000e+00 0.0000000000000000e+00 0.0000000000000000e+00  1.1367017697438985e-05 -7.4630217238385002e-07 0.0000000000000000e+00 -7.4630217238385002e-07 1.3242202746787012e-05 0.0000000000000000e+00 0.0000000000000000e+00 0.0000000000000000e+00 0.0000000000000000e+00  1.1256764370451130e-05 -6.3314191712008432e-07 0.0000000000000000e+00 -6.3314191712008432e-07 1.3452967926092959e-05 0.0000000000000000e+00 0.0000000000000000e+00 0.0000000000000000e+00 0.0000000000000000e+00  1.1161012843327940e-05 -4.5815785515966340e-07 0.0000000000000000e+00 -4.5815785515966351e-07 1.3626229042792358e-05 0.0000000000000000e+00 0.0000000000000000e+00 0.0000000000000000e+00 0.0000000000000000e+00  1.1092373356122138e-05 -2.3284031445522093e-07 0.0000000000000000e+00 -2.3284031445522093e-07 1.3736886028239220e-05 0.0000000000000000e+00 0.0000000000000000e+00 0.0000000000000000e+00 0.0000000000000000e+00  1.1058222117501029e-05 2.8764021444680322e-08 0.0000000000000000e+00 2.8764021444680322e-08 1.3766396284904419e-05 0.0000000000000000e+00 0.0000000000000000e+00 0.0000000000000000e+00 0.0000000000000000e+00  1.1062306558332381e-05 3.1213658415592599e-07 0.0000000000000000e+00 3.1213658415592599e-07 1.3701552934089601e-05 0.0000000000000000e+00 0.0000000000000000e+00 0.0000000000000000e+00 0.0000000000000000e+00  1.1106393591688189e-05 6.0303821703024228e-07 0.0000000000000000e+00 6.0303821703024228e-07 1.3532865139983766e-05 0.0000000000000000e+00 0.0000000000000000e+00 0.0000000000000000e+00 0.0000000000000000e+00  1.1191518687929989e-05 8.8720924975782412e-07 0.0000000000000000e+00 8.8720924975782412e-07 1.3253237065303106e-05 0.0000000000000000e+00 0.0000000000000000e+00 0.0000000000000000e+00 0.0000000000000000e+00  1.1318580582872459e-05 1.1493854912416790e-06 0.0000000000000000e+00 1.1493854912416790e-06 1.2857362837188255e-05 0.0000000000000000e+00 0.0000000000000000e+00 0.0000000000000000e+00 0.0000000000000000e+00  1.1488151541890885e-05 1.3719781408112183e-06 0.0000000000000000e+00 1.3719781408112183e-06 1.2342109396475189e-05 0.0000000000000000e+00 0.0000000000000000e+00 0.0000000000000000e+00 0.0000000000000000e+00  1.1699120778804973e-05 1.5332478175154849e-06 0.0000000000000000e+00 1.5332478175154849e-06 1.1708338378135511e-05 0.0000000000000000e+00 0.0000000000000000e+00 0.0000000000000000e+00 0.0000000000000000e+00  1.1812475084624676e-05 2.1156986803426801e-06 0.0000000000000000e+00 2.1156986803426801e-06 1.1800983468510438e-05 0.0000000000000000e+00 0.0000000000000000e+00 0.0000000000000000e+00 0.0000000000000000e+00  1.2172939907812266e-05 1.8981112494478339e-06 0.0000000000000000e+00 1.8981112494478339e-06 1.0709416338080384e-05 0.0000000000000000e+00 0.0000000000000000e+00 0.0000000000000000e+00 0.0000000000000000e+00  1.2439464063939319e-05 1.4944732733529281e-06 0.0000000000000000e+00 1.4944732733529281e-06 9.8124433524925954e-06 0.0000000000000000e+00 0.0000000000000000e+00 0.0000000000000000e+00 0.0000000000000000e+00  1.2576121109918783e-05 9.8884342804647728e-07 0.0000000000000000e+00 9.8884342804647728e-07 9.1772114358388117e-06 0.0000000000000000e+00 0.0000000000000000e+00 0.0000000000000000e+00 0.0000000000000000e+00  1.2594309926270562e-05 4.6862052648329648e-07 0.0000000000000000e+00 4.6862052648329648e-07 8.8046432032808495e-06 0.0000000000000000e+00 0.0000000000000000e+00 0.0000000000000000e+00 0.0000000000000000e+00  1.2535771588999393e-05 -7.2729127232100993e-09 0.0000000000000000e+00 -7.2729127232100993e-09 8.6486058337616901e-06 0.0000000000000000e+00 0.0000000000000000e+00 0.0000000000000000e+00 0.0000000000000000e+00  1.2447190280353800e-05 -4.2019516102949664e-07 0.0000000000000000e+00 -4.2019516102949664e-07 8.6483304551799664e-06 0.0000000000000000e+00 0.0000000000000000e+00 0.0000000000000000e+00 0.0000000000000000e+00  1.2357344589489008e-05 -7.8259603912452746e-07 0.0000000000000000e+00 -7.8259603912452746e-07 8.7584636139438405e-06 0.0000000000000000e+00 0.0000000000000000e+00 0.0000000000000000e+00 0.0000000000000000e+00  1.2267398065701208e-05 -1.1155463187316942e-06 0.0000000000000000e+00 -1.1155463187316942e-06 8.9631141999651535e-06 0.0000000000000000e+00 0.0000000000000000e+00 0.0000000000000000e+00 0.0000000000000000e+00  1.2157306941301730e-05 -1.4262065562544879e-06 0.0000000000000000e+00 -1.4262065562544879e-06 9.2697523784083838e-06 0.0000000000000000e+00 0.0000000000000000e+00 0.0000000000000000e+00 0.0000000000000000e+00  1.2003724909349282e-05 -1.6968878412300114e-06 0.0000000000000000e+00 -1.6968878412300114e-06 9.6886700028278353e-06 0.0000000000000000e+00 0.0000000000000000e+00 0.0000000000000000e+00 0.0000000000000000e+00  1.1798798955608164e-05 -1.8907023533919322e-06 0.0000000000000000e+00 -1.8907023533919322e-06 1.0210727745623745e-05 0.0000000000000000e+00 0.0000000000000000e+00 0.0000000000000000e+00 0.0000000000000000e+00  1.1560182555446030e-05 -1.9698731609147770e-06 0.0000000000000000e+00 -1.9698731609147770e-06 1.0796008806965036e-05 0.0000000000000000e+00 0.0000000000000000e+00 0.0000000000000000e+00 0.0000000000000000e+00  1.1326843644612314e-05 -1.9163609789413718e-06 0.0000000000000000e+00 -1.9163609789413718e-06 1.1379482660652962e-05 0.0000000000000000e+00 0.0000000000000000e+00 0.0000000000000000e+00 0.0000000000000000e+00  1.1143915467894667e-05 -1.7438768807827759e-06 0.0000000000000000e+00 -1.7438768807827759e-06 1.1890594774013870e-05 0.0000000000000000e+00 0.0000000000000000e+00 0.0000000000000000e+00 0.0000000000000000e+00  1.1044336188884421e-05 -1.4955543641071280e-06 0.0000000000000000e+00 -1.4955543641071280e-06 1.2276721811297543e-05 0.0000000000000000e+00 0.0000000000000000e+00 0.0000000000000000e+00 0.0000000000000000e+00  1.1036606417693181e-05 -1.2292480697290527e-06 0.0000000000000000e+00 -1.2292480697290527e-06 1.2519221106971287e-05 0.0000000000000000e+00 0.0000000000000000e+00 0.0000000000000000e+00 0.0000000000000000e+00  1.1103353243276013e-05 -9.9808253127792027e-07 0.0000000000000000e+00 -9.9808253127792027e-07 1.2635837040904703e-05 0.0000000000000000e+00 0.0000000000000000e+00 0.0000000000000000e+00 0.0000000000000000e+00  1.1209942481012568e-05 -8.3520257601598774e-07 0.0000000000000000e+00 -8.3520257601598774e-07 1.2670049268952742e-05 0.0000000000000000e+00 0.0000000000000000e+00 0.0000000000000000e+00 0.0000000000000000e+00  1.1317655373229099e-05 -7.4772159572840084e-07 0.0000000000000000e+00 -7.4772159572840084e-07 1.2673869698112608e-05 0.0000000000000000e+00 0.0000000000000000e+00 0.0000000000000000e+00 0.0000000000000000e+00  1.1395571736641868e-05 -7.2039142837318562e-07 0.0000000000000000e+00 -7.2039142837318562e-07 1.2691639324390744e-05 0.0000000000000000e+00 0.0000000000000000e+00 0.0000000000000000e+00 0.0000000000000000e+00  1.1426998092975756e-05 -7.2485981812267734e-07 0.0000000000000000e+00 -7.2485981812267734e-07 1.2750068483183388e-05 0.0000000000000000e+00 0.0000000000000000e+00 0.0000000000000000e+00 0.0000000000000000e+00  1.1410117811176033e-05 -7.3013159537101573e-07 0.0000000000000000e+00 -7.3013159537101573e-07 1.2855900918662953e-05 0.0000000000000000e+00 0.0000000000000000e+00 0.0000000000000000e+00 0.0000000000000000e+00  1.1354333376460418e-05 -7.1037608323019705e-07 0.0000000000000000e+00 -7.1037608323019705e-07 1.2999302037319704e-05 0.0000000000000000e+00 0.0000000000000000e+00 0.0000000000000000e+00 0.0000000000000000e+00  1.1275111471912113e-05 -6.4897560115385544e-07 0.0000000000000000e+00 -6.4897560115385544e-07 1.3160048465764838e-05 0.0000000000000000e+00 0.0000000000000000e+00 0.0000000000000000e+00 0.0000000000000000e+00  1.1189217356399607e-05 -5.3904003976529228e-07 0.0000000000000000e+00 -5.3904003976529228e-07 1.3313720295074204e-05 0.0000000000000000e+00 0.0000000000000000e+00 0.0000000000000000e+00 0.0000000000000000e+00  1.1111541865505752e-05 -3.8178615729200367e-07 0.0000000000000000e+00 -3.8178615729200367e-07 1.3436393917532404e-05 0.0000000000000000e+00 0.0000000000000000e+00 0.0000000000000000e+00 0.0000000000000000e+00  1.1053607219570087e-05 -1.8406415664052484e-07 0.0000000000000000e+00 -1.8406415664052484e-07 1.3507319480342339e-05 0.0000000000000000e+00 0.0000000000000000e+00 0.0000000000000000e+00 0.0000000000000000e+00  1.1023419022583795e-05 4.3946426923327903e-08 0.0000000000000000e+00 4.3946426923327903e-08 1.3509894207115889e-05 0.0000000000000000e+00 0.0000000000000000e+00 0.0000000000000000e+00 0.0000000000000000e+00  1.1026078733983266e-05 2.9037281566444760e-07 0.0000000000000000e+00 2.9037281566444760e-07 1.3431519371533661e-05 0.0000000000000000e+00 0.0000000000000000e+00 0.0000000000000000e+00 0.0000000000000000e+00  1.1064645373870352e-05 5.4247110706815873e-07 0.0000000000000000e+00 5.4247110706815873e-07 1.3262981854988113e-05 0.0000000000000000e+00 0.0000000000000000e+00 0.0000000000000000e+00 0.0000000000000000e+00  1.1140853110221279e-05 7.8673732498425673e-07 0.0000000000000000e+00 7.8673732498425673e-07 1.2997874633571312e-05 0.0000000000000000e+00 0.0000000000000000e+00 0.0000000000000000e+00 0.0000000000000000e+00  1.1255433421102515e-05 1.0085252825475145e-06 0.0000000000000000e+00 1.0085252825475145e-06 1.2632428878097348e-05 0.0000000000000000e+00 0.0000000000000000e+00 0.0000000000000000e+00 0.0000000000000000e+00  1.1407889723997454e-05 1.1914443038035817e-06 0.0000000000000000e+00 1.1914443038035817e-06 1.2166005411573753e-05 0.0000000000000000e+00 0.0000000000000000e+00 0.0000000000000000e+00 0.0000000000000000e+00  1.1595309152377128e-05 1.3164443691362202e-06 0.0000000000000000e+00 1.3164443691362202e-06 1.1602693317607720e-05 0.0000000000000000e+00 0.0000000000000000e+00 0.0000000000000000e+00 0.0000000000000000e+00  1.1903287519688111e-05 1.7628893991641834e-06 0.0000000000000000e+00 1.7628893991641834e-06 1.1894406867898559e-05 0.0000000000000000e+00 0.0000000000000000e+00 0.0000000000000000e+00 0.0000000000000000e+00  1.2203765621284514e-05 1.6008262262061530e-06 0.0000000000000000e+00 1.6008262262061530e-06 1.0987140518363545e-05 0.0000000000000000e+00 0.0000000000000000e+00 0.0000000000000000e+00 0.0000000000000000e+00  1.2438907379314852e-05 1.2967179632989546e-06 0.0000000000000000e+00 1.2967179632989546e-06 1.0222583876393170e-05 0.0000000000000000e+00 0.0000000000000000e+00 0.0000000000000000e+00 0.0000000000000000e+00  1.2583119852032261e-05 9.0171981092055716e-07 0.0000000000000000e+00 9.0171981092055716e-07 9.6474169738823252e-06 0.0000000000000000e+00 0.0000000000000000e+00 0.0000000000000000e+00 0.0000000000000000e+00  1.2637326666608995e-05 4.7218229257813804e-07 0.0000000000000000e+00 4.7218229257813804e-07 9.2715500016545427e-06 0.0000000000000000e+00 0.0000000000000000e+00 0.0000000000000000e+00 0.0000000000000000e+00  1.2621360798182866e-05 5.1744556237131673e-08 0.0000000000000000e+00 5.1744556237131673e-08 9.0758815570967427e-06 0.0000000000000000e+00 0.0000000000000000e+00 0.0000000000000000e+00 0.0000000000000000e+00  1.2560769562274164e-05 -3.3691619143292095e-07 0.0000000000000000e+00 -3.3691619143292095e-07 9.0284096439068379e-06 0.0000000000000000e+00 0.0000000000000000e+00 0.0000000000000000e+00 0.0000000000000000e+00  1.2474210071577097e-05 -6.8885528371359125e-07 0.0000000000000000e+00 -6.8885528371359125e-07 9.1003921226673520e-06 0.0000000000000000e+00 0.0000000000000000e+00 0.0000000000000000e+00 0.0000000000000000e+00  1.2367364836745745e-05 -1.0061020959342681e-06 0.0000000000000000e+00 -1.0061020959342681e-06 9.2749341253529069e-06 0.0000000000000000e+00 0.0000000000000000e+00 0.0000000000000000e+00 0.0000000000000000e+00  1.2235472327261151e-05 -1.2861798071309093e-06 0.0000000000000000e+00 -1.2861798071309093e-06 9.5451911834903622e-06 0.0000000000000000e+00 0.0000000000000000e+00 0.0000000000000000e+00 0.0000000000000000e+00  1.2072027256880945e-05 -1.5162496504043200e-06 0.0000000000000000e+00 -1.5162496504043200e-06 9.9049529193198481e-06 0.0000000000000000e+00 0.0000000000000000e+00 0.0000000000000000e+00 0.0000000000000000e+00  1.1878396900762296e-05 -1.6756874478284296e-06 0.0000000000000000e+00 -1.6756874478284296e-06 1.0337972711628361e-05 0.0000000000000000e+00 0.0000000000000000e+00 0.0000000000000000e+00 0.0000000000000000e+00  1.1668886959823488e-05 -1.7452605263466188e-06 0.0000000000000000e+00 -1.7452605263466188e-06 1.0812584211573460e-05 0.0000000000000000e+00 0.0000000000000000e+00 0.0000000000000000e+00 0.0000000000000000e+00  1.1468649648801479e-05 -1.7176868452685079e-06 0.0000000000000000e+00 -1.7176868452685079e-06 1.1284942547679365e-05 0.0000000000000000e+00 0.0000000000000000e+00 0.0000000000000000e+00 0.0000000000000000e+00  1.1305528704507865e-05 -1.6038992395605307e-06 0.0000000000000000e+00 -1.6038992395605307e-06 1.1709516946108386e-05 0.0000000000000000e+00 0.0000000000000000e+00 0.0000000000000000e+00 0.0000000000000000e+00  1.1200083498669960e-05 -1.4318331572991942e-06 0.0000000000000000e+00 -1.4318331572991942e-06 1.2051813042205865e-05 0.0000000000000000e+00 0.0000000000000000e+00 0.0000000000000000e+00 0.0000000000000000e+00  1.1158466523779164e-05 -1.2384356171047036e-06 0.0000000000000000e+00 -1.2384356171047036e-06 1.2297533816347302e-05 0.0000000000000000e+00 0.0000000000000000e+00 0.0000000000000000e+00 0.0000000000000000e+00  1.1171087734730017e-05 -1.0587196136670503e-06 0.0000000000000000e+00 -1.0587196136670503e-06 1.2454499536361264e-05 0.0000000000000000e+00 0.0000000000000000e+00 0.0000000000000000e+00 0.0000000000000000e+00  1.1216924077690370e-05 -9.1647014093446340e-07 0.0000000000000000e+00 -9.1647014093446340e-07 1.2547318420368879e-05 0.0000000000000000e+00 0.0000000000000000e+00 0.0000000000000000e+00 0.0000000000000000e+00  1.1270992228173989e-05 -8.1982833704795737e-07 0.0000000000000000e+00 -8.1982833704795737e-07 1.2607752460936861e-05 0.0000000000000000e+00 0.0000000000000000e+00 0.0000000000000000e+00 0.0000000000000000e+00  1.1311662691455655e-05 -7.6228876106822796e-07 0.0000000000000000e+00 -7.6228876106822796e-07 1.2664855395389025e-05 0.0000000000000000e+00 0.0000000000000000e+00 0.0000000000000000e+00 0.0000000000000000e+00  1.1325433463672073e-05 -7.2758152362993239e-07 0.0000000000000000e+00 -7.2758152362993239e-07 1.2738054144880261e-05 0.0000000000000000e+00 0.0000000000000000e+00 0.0000000000000000e+00 0.0000000000000000e+00  1.1308299351521553e-05 -6.9585331634600474e-07 0.0000000000000000e+00 -6.9585331634600474e-07 1.2834434038049448e-05 0.0000000000000000e+00 0.0000000000000000e+00 0.0000000000000000e+00 0.0000000000000000e+00  1.1264373081197232e-05 -6.4902845792487628e-07 0.0000000000000000e+00 -6.4902845792487628e-07 1.2949732158373779e-05 0.0000000000000000e+00 0.0000000000000000e+00 0.0000000000000000e+00 0.0000000000000000e+00  1.1203019661465802e-05 -5.7414771843373383e-07 0.0000000000000000e+00 -5.7414771843373383e-07 1.3071532649725619e-05 0.0000000000000000e+00 0.0000000000000000e+00 0.0000000000000000e+00 0.0000000000000000e+00  1.1135813075158321e-05 -4.6459251903190052e-07 0.0000000000000000e+00 -4.6459251903190052e-07 1.3183094933992214e-05 0.0000000000000000e+00 0.0000000000000000e+00 0.0000000000000000e+00 0.0000000000000000e+00  1.1074127216115114e-05 -3.1970705664573034e-07 0.0000000000000000e+00 -3.1970705664573034e-07 1.3266666626107083e-05 0.0000000000000000e+00 0.0000000000000000e+00 0.0000000000000000e+00 0.0000000000000000e+00  1.1027690616397287e-05 -1.4358269649458498e-07 0.0000000000000000e+00 -1.4358269649458498e-07 1.3305764469849800e-05 0.0000000000000000e+00 0.0000000000000000e+00 0.0000000000000000e+00 0.0000000000000000e+00  1.1004021047668747e-05 5.6345060441096515e-08 0.0000000000000000e+00 5.6345060441096515e-08 1.3286390601007579e-05 0.0000000000000000e+00 0.0000000000000000e+00 0.0000000000000000e+00 0.0000000000000000e+00  1.1008466891568886e-05 2.7045765002575965e-07 0.0000000000000000e+00 2.7045765002575965e-07 1.3197452263625780e-05 0.0000000000000000e+00 0.0000000000000000e+00 0.0000000000000000e+00 0.0000000000000000e+00  1.1044527617335238e-05 4.8768822871010729e-07 0.0000000000000000e+00 4.8768822871010729e-07 1.3030752669116085e-05 0.0000000000000000e+00 0.0000000000000000e+00 0.0000000000000000e+00 0.0000000000000000e+00  1.1114170159424198e-05 6.9582855272381580e-07 0.0000000000000000e+00 6.9582855272381580e-07 1.2780906788058095e-05 0.0000000000000000e+00 0.0000000000000000e+00 0.0000000000000000e+00 0.0000000000000000e+00  1.1217931536296937e-05 8.8152894870068040e-07 0.0000000000000000e+00 8.8152894870068040e-07 1.2445461780222795e-05 0.0000000000000000e+00 0.0000000000000000e+00 0.0000000000000000e+00 0.0000000000000000e+00  1.1354675897792755e-05 1.0301847771888549e-06 0.0000000000000000e+00 1.0301847771888549e-06 1.2025414603766252e-05 0.0000000000000000e+00 0.0000000000000000e+00 0.0000000000000000e+00 0.0000000000000000e+00  1.1520614623595804e-05 1.1256462061906730e-06 0.0000000000000000e+00 1.1256462061906730e-06 1.1526521056718227e-05 0.0000000000000000e+00 0.0000000000000000e+00 0.0000000000000000e+00 0.0000000000000000e+00  1.1970043823819221e-05 1.4681659556275500e-06 0.0000000000000000e+00 1.4681659556275500e-06 1.1962889645906097e-05 0.0000000000000000e+00 0.0000000000000000e+00 0.0000000000000000e+00 0.0000000000000000e+00  1.2224455951757568e-05 1.3475007928449689e-06 0.0000000000000000e+00 1.3475007928449689e-06 1.1196064254412703e-05 0.0000000000000000e+00 0.0000000000000000e+00 0.0000000000000000e+00 0.0000000000000000e+00  1.2430687634685637e-05 1.1137095802332431e-06 0.0000000000000000e+00 1.1137095802332431e-06 1.0539371965205650e-05 0.0000000000000000e+00 0.0000000000000000e+00 0.0000000000000000e+00 0.0000000000000000e+00  1.2570064832633257e-05 8.0017343598039867e-07 0.0000000000000000e+00 8.0017343598039867e-07 1.0025974823738930e-05 0.0000000000000000e+00 0.0000000000000000e+00 0.0000000000000000e+00 0.0000000000000000e+00  1.2639103266697499e-05 4.4501343533752617e-07 0.0000000000000000e+00 4.4501343533752617e-07 9.6680558336872876e-06 0.0000000000000000e+00 0.0000000000000000e+00 0.0000000000000000e+00 0.0000000000000000e+00  1.2646209998829788e-05 8.1154412869521512e-08 0.0000000000000000e+00 8.1154412869521512e-08 9.4596070937965534e-06 0.0000000000000000e+00 0.0000000000000000e+00 0.0000000000000000e+00 0.0000000000000000e+00  1.2605075051676351e-05 -2.6913763757242295e-07 0.0000000000000000e+00 -2.6913763757242295e-07 9.3841549773425489e-06 0.0000000000000000e+00 0.0000000000000000e+00 0.0000000000000000e+00 0.0000000000000000e+00  1.2527813507158593e-05 -5.9372192034190668e-07 0.0000000000000000e+00 -5.9372192034190668e-07 9.4233185831374923e-06 0.0000000000000000e+00 0.0000000000000000e+00 0.0000000000000000e+00 0.0000000000000000e+00  1.2421229658678442e-05 -8.8577652248677334e-07 0.0000000000000000e+00 -8.8577652248677334e-07 9.5619707187589915e-06 0.0000000000000000e+00 0.0000000000000000e+00 0.0000000000000000e+00 0.0000000000000000e+00  1.2287504378085719e-05 -1.1382223462670586e-06 0.0000000000000000e+00 -1.1382223462670586e-06 9.7882554472748256e-06 0.0000000000000000e+00 0.0000000000000000e+00 0.0000000000000000e+00 0.0000000000000000e+00  1.2128217711697187e-05 -1.3407313566369512e-06 0.0000000000000000e+00 -1.3407313566369512e-06 1.0089633224475282e-05 0.0000000000000000e+00 0.0000000000000000e+00 0.0000000000000000e+00 0.0000000000000000e+00  1.1948984135450243e-05 -1.4809111338004865e-06 0.0000000000000000e+00 -1.4809111338004865e-06 1.0448117322876326e-05 0.0000000000000000e+00 0.0000000000000000e+00 0.0000000000000000e+00 0.0000000000000000e+00  1.1761890491962366e-05 -1.5488507182334639e-06 0.0000000000000000e+00 -1.5488507182334639e-06 1.0838045641212754e-05 0.0000000000000000e+00 0.0000000000000000e+00 0.0000000000000000e+00 0.0000000000000000e+00  1.1584233597563777e-05 -1.5424149587171012e-06 0.0000000000000000e+00 -1.5424149587171012e-06 1.1228171852372971e-05 0.0000000000000000e+00 0.0000000000000000e+00 0.0000000000000000e+00 0.0000000000000000e+00  1.1434086501988745e-05 -1.4703499381873118e-06 0.0000000000000000e+00 -1.4703499381873118e-06 1.1587481282367120e-05 0.0000000000000000e+00 0.0000000000000000e+00 0.0000000000000000e+00 0.0000000000000000e+00  1.1324783891343134e-05 -1.3514590127377025e-06 0.0000000000000000e+00 -1.3514590127377025e-06 1.1892220326518461e-05 0.0000000000000000e+00 0.0000000000000000e+00 0.0000000000000000e+00 0.0000000000000000e+00  1.1260847153156658e-05 -1.2100807882252653e-06 0.0000000000000000e+00 -1.2100807882252653e-06 1.2131101570663387e-05 0.0000000000000000e+00 0.0000000000000000e+00 0.0000000000000000e+00 0.0000000000000000e+00  1.1236996818573913e-05 -1.0697623360307910e-06 0.0000000000000000e+00 -1.0697623360307910e-06 1.2306638713225330e-05 0.0000000000000000e+00 0.0000000000000000e+00 0.0000000000000000e+00 0.0000000000000000e+00  1.1240397347848361e-05 -9.4761121392488878e-07 0.0000000000000000e+00 -9.4761121392488878e-07 1.2432367893314990e-05 0.0000000000000000e+00 0.0000000000000000e+00 0.0000000000000000e+00 0.0000000000000000e+00  1.1254927295566501e-05 -8.5118593649539391e-07 0.0000000000000000e+00 -8.5118593649539391e-07 1.2527367282077324e-05 0.0000000000000000e+00 0.0000000000000000e+00 0.0000000000000000e+00 0.0000000000000000e+00  1.1265717711546866e-05 -7.7851816359904951e-07 0.0000000000000000e+00 -7.7851816359904951e-07 1.2610231841024327e-05 0.0000000000000000e+00 0.0000000000000000e+00 0.0000000000000000e+00 0.0000000000000000e+00  1.1262475371032148e-05 -7.2060717236859179e-07 0.0000000000000000e+00 -7.2060717236859179e-07 1.2694391607013309e-05 0.0000000000000000e+00 0.0000000000000000e+00 0.0000000000000000e+00 0.0000000000000000e+00  1.1240913476207908e-05 -6.6508801918875615e-07 0.0000000000000000e+00 -6.6508801918875615e-07 1.2785749537035496e-05 0.0000000000000000e+00 0.0000000000000000e+00 0.0000000000000000e+00 0.0000000000000000e+00  1.1202407319708239e-05 -5.9976393992284347e-07 0.0000000000000000e+00 -5.9976393992284347e-07 1.2882617082609886e-05 0.0000000000000000e+00 0.0000000000000000e+00 0.0000000000000000e+00 0.0000000000000000e+00  1.1152510422951726e-05 -5.1516561472918361e-07 0.0000000000000000e+00 -5.1516561472918361e-07 1.2977266899339406e-05 0.0000000000000000e+00 0.0000000000000000e+00 0.0000000000000000e+00 0.0000000000000000e+00  1.1099069497994602e-05 -4.0585707997551504e-07 0.0000000000000000e+00 -4.0585707997551504e-07 1.3058206760760254e-05 0.0000000000000000e+00 0.0000000000000000e+00 0.0000000000000000e+00 0.0000000000000000e+00  1.1050522010054382e-05 -2.7065813180855088e-07 0.0000000000000000e+00 -2.7065813180855088e-07 1.3112427543254778e-05 0.0000000000000000e+00 0.0000000000000000e+00 0.0000000000000000e+00 0.0000000000000000e+00  1.1014678682342811e-05 -1.1216408578125995e-07 0.0000000000000000e+00 -1.1216408578125995e-07 1.3127180708485993e-05 0.0000000000000000e+00 0.0000000000000000e+00 0.0000000000000000e+00 0.0000000000000000e+00  1.0998045661467099e-05 6.4032187582886984e-08 0.0000000000000000e+00 6.4032187582886984e-08 1.3091149699417820e-05 0.0000000000000000e+00 0.0000000000000000e+00 0.0000000000000000e+00 0.0000000000000000e+00  1.1005573812016210e-05 2.5011028290133006e-07 0.0000000000000000e+00 2.5011028290133006e-07 1.2995096352717554e-05 0.0000000000000000e+00 0.0000000000000000e+00 0.0000000000000000e+00 0.0000000000000000e+00  1.1040651846103612e-05 4.3661508680903676e-07 0.0000000000000000e+00 4.3661508680903676e-07 1.2832175931561203e-05 0.0000000000000000e+00 0.0000000000000000e+00 0.0000000000000000e+00 0.0000000000000000e+00  1.1105155821233849e-05 6.1283212463288824e-07 0.0000000000000000e+00 6.1283212463288824e-07 1.2598139216516963e-05 0.0000000000000000e+00 0.0000000000000000e+00 0.0000000000000000e+00 0.0000000000000000e+00  1.1199403544022905e-05 7.6700434262603866e-07 0.0000000000000000e+00 7.6700434262603866e-07 1.2291610596629933e-05 0.0000000000000000e+00 0.0000000000000000e+00 0.0000000000000000e+00 0.0000000000000000e+00  1.1321915756125357e-05 8.8651715821668796e-07 0.0000000000000000e+00 8.8651715821668796e-07 1.1914572885547794e-05 0.0000000000000000e+00 0.0000000000000000e+00 0.0000000000000000e+00 0.0000000000000000e+00  1.1468644024533262e-05 9.5799329808042262e-07 0.0000000000000000e+00 9.5799329808042262e-07 1.1473383669639189e-05 0.0000000000000000e+00 0.0000000000000000e+00 0.0000000000000000e+00 0.0000000000000000e+00  1.2015220671799206e-05 1.2183817585451675e-06 0.0000000000000000e+00 1.2183817585451675e-06 1.2009360330113803e-05 0.0000000000000000e+00 0.0000000000000000e+00 0.0000000000000000e+00 0.0000000000000000e+00  1.2232601162301984e-05 1.1300762406695302e-06 0.0000000000000000e+00 1.1300762406695302e-06 1.1354815169739871e-05 0.0000000000000000e+00 0.0000000000000000e+00 0.0000000000000000e+00 0.0000000000000000e+00  1.2412813970216821e-05 9.4859997305757687e-07 0.0000000000000000e+00 9.4859997305757687e-07 1.0787932599742559e-05 0.0000000000000000e+00 0.0000000000000000e+00 0.0000000000000000e+00 0.0000000000000000e+00  1.2541756051359127e-05 6.9741155028137657e-07 0.0000000000000000e+00 6.9741155028137657e-07 1.0333157036524835e-05 0.0000000000000000e+00 0.0000000000000000e+00 0.0000000000000000e+00 0.0000000000000000e+00  1.2614396239314324e-05 4.0367525602252464e-07 0.0000000000000000e+00 4.0367525602252464e-07 1.0002328651354366e-05 0.0000000000000000e+00 0.0000000000000000e+00 0.0000000000000000e+00 0.0000000000000000e+00  1.2633386833121273e-05 9.2805899777635745e-08 0.0000000000000000e+00 9.2805899777635745e-08 9.7955078040418125e-06 0.0000000000000000e+00 0.0000000000000000e+00 0.0000000000000000e+00 0.0000000000000000e+00  1.2605844769680514e-05 -2.1509817746522127e-07 0.0000000000000000e+00 -2.1509817746522124e-07 9.7045477888973545e-06 0.0000000000000000e+00 0.0000000000000000e+00 0.0000000000000000e+00 0.0000000000000000e+00  1.2539681256829689e-05 -5.0575875420695374e-07 0.0000000000000000e+00 -5.0575875420695374e-07 9.7175622577321098e-06 0.0000000000000000e+00 0.0000000000000000e+00 0.0000000000000000e+00 0.0000000000000000e+00  1.2441321788080098e-05 -7.6885177076376592e-07 0.0000000000000000e+00 -7.6885177076376592e-07 9.8220138101590119e-06 0.0000000000000000e+00 0.0000000000000000e+00 0.0000000000000000e+00 0.0000000000000000e+00  1.2315631909692205e-05 -9.9549598747957586e-07 0.0000000000000000e+00 -9.9549598747957586e-07 1.0005352971792882e-05 0.0000000000000000e+00 0.0000000000000000e+00 0.0000000000000000e+00 0.0000000000000000e+00  1.2167585906835099e-05 -1.1768448789956890e-06 0.0000000000000000e+00 -1.1768448789956890e-06 1.0253657360476720e-05 0.0000000000000000e+00 0.0000000000000000e+00 0.0000000000000000e+00 0.0000000000000000e+00  1.2004331545689895e-05 -1.3046673151591913e-06 0.0000000000000000e+00 -1.3046673151591913e-06 1.0549794032259613e-05 0.0000000000000000e+00 0.0000000000000000e+00 0.0000000000000000e+00 0.0000000000000000e+00  1.1836190420495922e-05 -1.3735727190015521e-06 0.0000000000000000e+00 -1.3735727190015521e-06 1.0872786644324518e-05 0.0000000000000000e+00 0.0000000000000000e+00 0.0000000000000000e+00 0.0000000000000000e+00  1.1675792531327045e-05 -1.3835860800132794e-06 0.0000000000000000e+00 -1.3835860800132794e-06 1.1199320044406757e-05 0.0000000000000000e+00 0.0000000000000000e+00 0.0000000000000000e+00 0.0000000000000000e+00  1.1535564104412749e-05 -1.3415658136661827e-06 0.0000000000000000e+00 -1.3415658136661827e-06 1.1507116020577457e-05 0.0000000000000000e+00 0.0000000000000000e+00 0.0000000000000000e+00 0.0000000000000000e+00  1.1424640306947227e-05 -1.2605304074636281e-06 0.0000000000000000e+00 -1.2605304074636281e-06 1.1778909649474945e-05 0.0000000000000000e+00 0.0000000000000000e+00 0.0000000000000000e+00 0.0000000000000000e+00  1.1346531765728733e-05 -1.1569612678455730e-06 0.0000000000000000e+00 -1.1569612678455730e-06 1.2005434078783713e-05 0.0000000000000000e+00 0.0000000000000000e+00 0.0000000000000000e+00 0.0000000000000000e+00  1.1298485005011233e-05 -1.0470448238883795e-06 0.0000000000000000e+00 -1.0470448238883795e-06 1.2186271251920717e-05 0.0000000000000000e+00 0.0000000000000000e+00 0.0000000000000000e+00 0.0000000000000000e+00  1.1272698881004412e-05 -9.4318788904594162e-07 0.0000000000000000e+00 -9.4318788904594162e-07 1.2328346092360306e-05 0.0000000000000000e+00 0.0000000000000000e+00 0.0000000000000000e+00 0.0000000000000000e+00  1.1258822437359072e-05 -8.5189791279037321e-07 0.0000000000000000e+00 -8.5189791279037321e-07 1.2442737574885689e-05 0.0000000000000000e+00 0.0000000000000000e+00 0.0000000000000000e+00 0.0000000000000000e+00  1.1246780022007282e-05 -7.7347287195369604e-07 0.0000000000000000e+00 -7.7347287195369604e-07 1.2540966223109980e-05 0.0000000000000000e+00 0.0000000000000000e+00 0.0000000000000000e+00 0.0000000000000000e+00  1.1229042808163288e-05 -7.0326486721868309e-07 0.0000000000000000e+00 -7.0326486721868309e-07 1.2631870582061344e-05 0.0000000000000000e+00 0.0000000000000000e+00 0.0000000000000000e+00 0.0000000000000000e+00  1.1201842609841630e-05 -6.3384166564284763e-07 0.0000000000000000e+00 -6.3384166564284763e-07 1.2719754215424941e-05 0.0000000000000000e+00 0.0000000000000000e+00 0.0000000000000000e+00 0.0000000000000000e+00  1.1165279171706982e-05 -5.5728676191952095e-07 0.0000000000000000e+00 -5.5728676191952095e-07 1.2803940838646873e-05 0.0000000000000000e+00 0.0000000000000000e+00 0.0000000000000000e+00 0.0000000000000000e+00  1.1122602197132429e-05 -4.6706229384109510e-07 0.0000000000000000e+00 -4.6706229384109510e-07 1.2879449961135878e-05 0.0000000000000000e+00 0.0000000000000000e+00 0.0000000000000000e+00 0.0000000000000000e+00  1.1079085142713099e-05 -3.5916400062722499e-07 0.0000000000000000e+00 -3.5916400062722499e-07 1.2938309664731586e-05 0.0000000000000000e+00 0.0000000000000000e+00 0.0000000000000000e+00 0.0000000000000000e+00  1.1040866871670237e-05 -2.3257094085520969e-07 0.0000000000000000e+00 -2.3257094085520969e-07 1.2971036565830306e-05 0.0000000000000000e+00 0.0000000000000000e+00 0.0000000000000000e+00 0.0000000000000000e+00  1.1014004495599929e-05 -8.9164372508913862e-08 0.0000000000000000e+00 -8.9164372508913862e-08 1.2967954456138488e-05 0.0000000000000000e+00 0.0000000000000000e+00 0.0000000000000000e+00 0.0000000000000000e+00  1.1003829516014661e-05 6.6654628792131843e-08 0.0000000000000000e+00 6.6654628792131843e-08 1.2920198196189290e-05 0.0000000000000000e+00 0.0000000000000000e+00 0.0000000000000000e+00 0.0000000000000000e+00  1.1014582425724563e-05 2.2844739500615633e-07 0.0000000000000000e+00 2.2844739500615633e-07 1.2820396941770749e-05 0.0000000000000000e+00 0.0000000000000000e+00 0.0000000000000000e+00 0.0000000000000000e+00  1.1049233889131624e-05 3.8819023470878228e-07 0.0000000000000000e+00 3.8819023470878228e-07 1.2663122512749081e-05 0.0000000000000000e+00 0.0000000000000000e+00 0.0000000000000000e+00 0.0000000000000000e+00  1.1109380452194905e-05 5.3664916357109705e-07 0.0000000000000000e+00 5.3664916357109705e-07 1.2445225048976694e-05 0.0000000000000000e+00 0.0000000000000000e+00 0.0000000000000000e+00 0.0000000000000000e+00  1.1195116132753996e-05 6.6370040325541016e-07 0.0000000000000000e+00 6.6370040325541016e-07 1.2166170538953097e-05 0.0000000000000000e+00 0.0000000000000000e+00 0.0000000000000000e+00 0.0000000000000000e+00  1.1304815705335531e-05 7.5867285951958012e-07 0.0000000000000000e+00 7.5867285951958012e-07 1.1828458531636891e-05 0.0000000000000000e+00 0.0000000000000000e+00 0.0000000000000000e+00 0.0000000000000000e+00  1.1434547772787927e-05 8.1064993501048235e-07 0.0000000000000000e+00 8.1064993501048235e-07 1.1438377608726347e-05 0.0000000000000000e+00 0.0000000000000000e+00 0.0000000000000000e+00 0.0000000000000000e+00  1.2041596058930609e-05 1.0050420535635675e-06 0.0000000000000000e+00 1.0050420535635675e-06 1.2036779481109302e-05 0.0000000000000000e+00 0.0000000000000000e+00 0.0000000000000000e+00 0.0000000000000000e+00  1.2228218909904374e-05 9.4270562504999714e-07 0.0000000000000000e+00 9.4270562504999714e-07 1.1475155554646335e-05 0.0000000000000000e+00 0.0000000000000000e+00 0.0000000000000000e+00 0.0000000000000000e+00  1.2385307039329533e-05 8.0178130701462111e-07 0.0000000000000000e+00 8.0178130701462111e-07 1.0984426033579617e-05 0.0000000000000000e+00 0.0000000000000000e+00 0.0000000000000000e+00 0.0000000000000000e+00  1.2501805745479019e-05 5.9982514835837765e-07 0.0000000000000000e+00 5.9982514835837765e-07 1.0583372727945620e-05 0.0000000000000000e+00 0.0000000000000000e+00 0.0000000000000000e+00 0.0000000000000000e+00  1.2572422821016939e-05 3.5715904398403981e-07 0.0000000000000000e+00 3.5715904398403981e-07 1.0282656809225722e-05 0.0000000000000000e+00 0.0000000000000000e+00 0.0000000000000000e+00 0.0000000000000000e+00  1.2597024361238604e-05 9.3844128072885111e-08 0.0000000000000000e+00 9.3844128072885111e-08 1.0084973127825680e-05 0.0000000000000000e+00 0.0000000000000000e+00 0.0000000000000000e+00 0.0000000000000000e+00  1.2579114132772104e-05 -1.7265397865095012e-07 0.0000000000000000e+00 -1.7265397865095012e-07 9.9866369034562653e-06 0.0000000000000000e+00 0.0000000000000000e+00 0.0000000000000000e+00 0.0000000000000000e+00  1.2523888269944190e-05 -4.2827545155739997e-07 0.0000000000000000e+00 -4.2827545155739997e-07 9.9798974891512399e-06 0.0000000000000000e+00 0.0000000000000000e+00 0.0000000000000000e+00 0.0000000000000000e+00  1.2436848440715412e-05 -6.6187812005361592e-07 0.0000000000000000e+00 -6.6187812005361592e-07 1.0054790259733695e-05 0.0000000000000000e+00 0.0000000000000000e+00 0.0000000000000000e+00 0.0000000000000000e+00  1.2323463683329234e-05 -8.6426881939365634e-07 0.0000000000000000e+00 -8.6426881939365634e-07 1.0199893866995814e-05 0.0000000000000000e+00 0.0000000000000000e+00 0.0000000000000000e+00 0.0000000000000000e+00  1.2189711909298230e-05 -1.0276413634898793e-06 0.0000000000000000e+00 -1.0276413634898793e-06 1.0402128625310631e-05 0.0000000000000000e+00 0.0000000000000000e+00 0.0000000000000000e+00 0.0000000000000000e+00  1.2042849952339068e-05 -1.1459029553680247e-06 0.0000000000000000e+00 -1.1459029553680247e-06 1.0646304126991856e-05 0.0000000000000000e+00 0.0000000000000000e+00 0.0000000000000000e+00 0.0000000000000000e+00  1.1891676321150395e-05 -1.2157516301115150e-06 0.0000000000000000e+00 -1.2157516301115150e-06 1.0915238757098069e-05 0.0000000000000000e+00 0.0000000000000000e+00 0.0000000000000000e+00 0.0000000000000000e+00  1.1745865075468020e-05 -1.2378710345184850e-06 0.0000000000000000e+00 -1.2378710345184850e-06 1.1190920093469951e-05 0.0000000000000000e+00 0.0000000000000000e+00 0.0000000000000000e+00 0.0000000000000000e+00  1.1614471873125754e-05 -1.2174790347362236e-06 0.0000000000000000e+00 -1.2174790347362236e-06 1.1456574874919944e-05 0.0000000000000000e+00 0.0000000000000000e+00 0.0000000000000000e+00 0.0000000000000000e+00  1.1504161098060670e-05 -1.1637414213166599e-06 0.0000000000000000e+00 -1.1637414213166599e-06 1.1698995394139884e-05 0.0000000000000000e+00 0.0000000000000000e+00 0.0000000000000000e+00 0.0000000000000000e+00  1.1417862276955815e-05 -1.0880732892007642e-06 0.0000000000000000e+00 -1.0880732892007642e-06 1.1910280993825618e-05 0.0000000000000000e+00 0.0000000000000000e+00 0.0000000000000000e+00 0.0000000000000000e+00  1.1354381918998043e-05 -1.0018300244465587e-06 0.0000000000000000e+00 -1.0018300244465587e-06 1.2088363332782792e-05 0.0000000000000000e+00 0.0000000000000000e+00 0.0000000000000000e+00 0.0000000000000000e+00  1.1309098286410482e-05 -9.1411744164550434e-07 0.0000000000000000e+00 -9.1411744164550434e-07 1.2236154774264773e-05 0.0000000000000000e+00 0.0000000000000000e+00 0.0000000000000000e+00 0.0000000000000000e+00  1.1275458262888014e-05 -8.3035610012276262e-07 0.0000000000000000e+00 -8.3035610012276262e-07 1.2359650393230395e-05 0.0000000000000000e+00 0.0000000000000000e+00 0.0000000000000000e+00 0.0000000000000000e+00  1.1246756563618130e-05 -7.5191061472692666e-07 0.0000000000000000e+00 -7.5191061472692666e-07 1.2465614376340848e-05 0.0000000000000000e+00 0.0000000000000000e+00 0.0000000000000000e+00 0.0000000000000000e+00  1.1217672440247693e-05 -6.7671449019909336e-07 0.0000000000000000e+00 -6.7671449019909336e-07 1.2559506418218197e-05 0.0000000000000000e+00 0.0000000000000000e+00 0.0000000000000000e+00 0.0000000000000000e+00  1.1185218676925594e-05 -6.0054614022993968e-07 0.0000000000000000e+00 -6.0054614022993968e-07 1.2644103794066847e-05 0.0000000000000000e+00 0.0000000000000000e+00 0.0000000000000000e+00 0.0000000000000000e+00  1.1149006030018398e-05 -5.1851484274384691e-07 0.0000000000000000e+00 -5.1851484274384691e-07 1.2718979491523992e-05 0.0000000000000000e+00 0.0000000000000000e+00 0.0000000000000000e+00 0.0000000000000000e+00  1.1110936332853193e-05 -4.2638132026734213e-07 0.0000000000000000e+00 -4.2638132026734213e-07 1.2780735675234176e-05 0.0000000000000000e+00 0.0000000000000000e+00 0.0000000000000000e+00 0.0000000000000000e+00  1.1074548449201781e-05 -3.2149178264108828e-07 0.0000000000000000e+00 -3.2149178264108828e-07 1.2823739989947076e-05 0.0000000000000000e+00 0.0000000000000000e+00 0.0000000000000000e+00 0.0000000000000000e+00  1.1044251470555028e-05 -2.0326863157149308e-07 0.0000000000000000e+00 -2.0326863157149311e-07 1.2841081282786440e-05 0.0000000000000000e+00 0.0000000000000000e+00 0.0000000000000000e+00 0.0000000000000000e+00  1.1024620898099399e-05 -7.3320836269812418e-08 0.0000000000000000e+00 -7.3320836269812418e-08 1.2825517048163863e-05 0.0000000000000000e+00 0.0000000000000000e+00 0.0000000000000000e+00 0.0000000000000000e+00  1.1019849387416280e-05 6.4705682315986668e-08 0.0000000000000000e+00 6.4705682315986668e-08 1.2770279350377984e-05 0.0000000000000000e+00 0.0000000000000000e+00 0.0000000000000000e+00 0.0000000000000000e+00  1.1033366757565609e-05 2.0541526073212851e-07 0.0000000000000000e+00 2.0541526073212851e-07 1.2669698201427353e-05 0.0000000000000000e+00 0.0000000000000000e+00 0.0000000000000000e+00 0.0000000000000000e+00  1.1067592229009054e-05 3.4199783047279482e-07 0.0000000000000000e+00 3.4199783047279482e-07 1.2519668056967430e-05 0.0000000000000000e+00 0.0000000000000000e+00 0.0000000000000000e+00 0.0000000000000000e+00  1.1123758949868590e-05 4.6657049872890111e-07 0.0000000000000000e+00 4.6657049872890111e-07 1.2318016472433675e-05 0.0000000000000000e+00 0.0000000000000000e+00 0.0000000000000000e+00 0.0000000000000000e+00  1.1201753156296281e-05 5.7053040068630636e-07 0.0000000000000000e+00 5.7053040068630636e-07 1.2064836324880199e-05 0.0000000000000000e+00 0.0000000000000000e+00 0.0000000000000000e+00 0.0000000000000000e+00  1.1299930954566596e-05 6.4495965440421401e-07 0.0000000000000000e+00 6.4495965440421401e-07 1.1762821807950811e-05 0.0000000000000000e+00 0.0000000000000000e+00 0.0000000000000000e+00 0.0000000000000000e+00  1.1414685173774464e-05 6.8101474963256701e-07 0.0000000000000000e+00 6.8101474963256701e-07 1.1417809107880546e-05 0.0000000000000000e+00 0.0000000000000000e+00 0.0000000000000000e+00 0.0000000000000000e+00  1.2052024137981021e-05 8.2217539499391549e-07 0.0000000000000000e+00 8.2217539499391549e-07 1.2048075796803862e-05 0.0000000000000000e+00 0.0000000000000000e+00 0.0000000000000000e+00 0.0000000000000000e+00  1.2212556516139628e-05 7.8093462980735523e-07 0.0000000000000000e+00 7.8093462980735523e-07 1.1565108305115126e-05 0.0000000000000000e+00 0.0000000000000000e+00 0.0000000000000000e+00 0.0000000000000000e+00  1.2349218703744115e-05 6.7234026771529991e-07 0.0000000000000000e+00 6.7234026771529991e-07 1.1139847692819515e-05 0.0000000000000000e+00 0.0000000000000000e+00 0.0000000000000000e+00 0.0000000000000000e+00  1.2453067611659512e-05 5.1013933215566480e-07 0.0000000000000000e+00 5.1013933215566480e-07 1.0787267419339318e-05 0.0000000000000000e+00 0.0000000000000000e+00 0.0000000000000000e+00 0.0000000000000000e+00  1.2519081735776772e-05 3.1015301423315041e-07 0.0000000000000000e+00 3.1015301423315041e-07 1.0516710977043958e-05 0.0000000000000000e+00 0.0000000000000000e+00 0.0000000000000000e+00 0.0000000000000000e+00  1.2545857266509837e-05 8.8534795105374872e-08 0.0000000000000000e+00 8.8534795105374872e-08 1.0331879131927348e-05 0.0000000000000000e+00 0.0000000000000000e+00 0.0000000000000000e+00 0.0000000000000000e+00  1.2534913821141156e-05 -1.3979518249107774e-07 0.0000000000000000e+00 -1.3979518249107774e-07 1.0231498581980058e-05 0.0000000000000000e+00 0.0000000000000000e+00 0.0000000000000000e+00 0.0000000000000000e+00  1.2489668933883895e-05 -3.6196993892036249e-07 0.0000000000000000e+00 -3.6196993892036249e-07 1.0210518469424730e-05 0.0000000000000000e+00 0.0000000000000000e+00 0.0000000000000000e+00 0.0000000000000000e+00  1.2414590248207908e-05 -5.6728752903405764e-07 0.0000000000000000e+00 -5.6728752903405764e-07 1.0261232419340506e-05 0.0000000000000000e+00 0.0000000000000000e+00 0.0000000000000000e+00 0.0000000000000000e+00  1.2314811664854771e-05 -7.4698280791066460e-07 0.0000000000000000e+00 -7.4698280791066460e-07 1.0373963849322142e-05 0.0000000000000000e+00 0.0000000000000000e+00 0.0000000000000000e+00 0.0000000000000000e+00  1.2196167945956168e-05 -8.9409547299806541e-07 0.0000000000000000e+00 -8.9409547299806541e-07 1.0537329081913108e-05 0.0000000000000000e+00 0.0000000000000000e+00 0.0000000000000000e+00 0.0000000000000000e+00  1.2065346668655962e-05 -1.0036882614590460e-06 0.0000000000000000e+00 -1.0036882614590460e-06 1.0738390163552116e-05 0.0000000000000000e+00 0.0000000000000000e+00 0.0000000000000000e+00 0.0000000000000000e+00  1.1929797848093923e-05 -1.0733641957117880e-06 0.0000000000000000e+00 -1.0733641957117880e-06 1.0963083492626053e-05 0.0000000000000000e+00 0.0000000000000000e+00 0.0000000000000000e+00 0.0000000000000000e+00  1.1797191036768880e-05 -1.1037772324224832e-06 0.0000000000000000e+00 -1.1037772324224832e-06 1.1197145509891472e-05 0.0000000000000000e+00 0.0000000000000000e+00 0.0000000000000000e+00 0.0000000000000000e+00  1.1674472751703826e-05 -1.0987564775614299e-06 0.0000000000000000e+00 -1.0987564775614299e-06 1.1427458664239795e-05 0.0000000000000000e+00 0.0000000000000000e+00 0.0000000000000000e+00 0.0000000000000000e+00  1.1566811958592059e-05 -1.0647975091841428e-06 0.0000000000000000e+00 -1.0647975091841428e-06 1.1643472819661606e-05 0.0000000000000000e+00 0.0000000000000000e+00 0.0000000000000000e+00 0.0000000000000000e+00  1.1476812396779793e-05 -1.0099365096167468e-06 0.0000000000000000e+00 -1.0099365096167468e-06 1.1838253182308508e-05 0.0000000000000000e+00 0.0000000000000000e+00 0.0000000000000000e+00 0.0000000000000000e+00  1.1404284710730745e-05 -9.4227953845867497e-07 0.0000000000000000e+00 -9.4227953845867497e-07 1.2008806885498196e-05 0.0000000000000000e+00 0.0000000000000000e+00 0.0000000000000000e+00 0.0000000000000000e+00  1.1346663179507096e-05 -8.6859311253066671e-07 0.0000000000000000e+00 -8.6859311253066671e-07 1.2155585924743114e-05 0.0000000000000000e+00 0.0000000000000000e+00 0.0000000000000000e+00 0.0000000000000000e+00  1.1299926078313340e-05 -7.9332808667408175e-07 0.0000000000000000e+00 -7.9332808667408175e-07 1.2281334371370122e-05 0.0000000000000000e+00 0.0000000000000000e+00 0.0000000000000000e+00 0.0000000000000000e+00  1.1259731181522259e-05 -7.1828278122837033e-07 0.0000000000000000e+00 -7.1828278122837033e-07 1.2389630023552450e-05 0.0000000000000000e+00 0.0000000000000000e+00 0.0000000000000000e+00 0.0000000000000000e+00  1.1222453642084619e-05 -6.4289994122544758e-07 0.0000000000000000e+00 -6.4289994122544758e-07 1.2483509210418515e-05 0.0000000000000000e+00 0.0000000000000000e+00 0.0000000000000000e+00 0.0000000000000000e+00  1.1185896380452109e-05 -5.6502184783871163e-07 0.0000000000000000e+00 -5.6502184783871163e-07 1.2564472612872867e-05 0.0000000000000000e+00 0.0000000000000000e+00 0.0000000000000000e+00 0.0000000000000000e+00  1.1149578907137748e-05 -4.8184891949204185e-07 0.0000000000000000e+00 -4.8184891949204185e-07 1.2632010734643182e-05 0.0000000000000000e+00 0.0000000000000000e+00 0.0000000000000000e+00 0.0000000000000000e+00  1.1114639008728932e-05 -3.9086128547949841e-07 0.0000000000000000e+00 -3.9086128547949841e-07 1.2683630079423107e-05 0.0000000000000000e+00 0.0000000000000000e+00 0.0000000000000000e+00 0.0000000000000000e+00  1.1083463739163812e-05 -2.9053855100731026e-07 0.0000000000000000e+00 -2.9053855100731026e-07 1.2715254061088839e-05 0.0000000000000000e+00 0.0000000000000000e+00 0.0000000000000000e+00 0.0000000000000000e+00  1.1059190810706825e-05 -1.8080739778771300e-07 0.0000000000000000e+00 -1.8080739778771300e-07 1.2721832221410946e-05 0.0000000000000000e+00 0.0000000000000000e+00 0.0000000000000000e+00 0.0000000000000000e+00  1.1045200872484155e-05 -6.3225841343580868e-08 0.0000000000000000e+00 -6.3225841343580868e-08 1.2698006694419757e-05 0.0000000000000000e+00 0.0000000000000000e+00 0.0000000000000000e+00 0.0000000000000000e+00  1.1044676967737570e-05 5.9040330886716266e-08 0.0000000000000000e+00 5.9040330886716266e-08 1.2638731915834772e-05 0.0000000000000000e+00 0.0000000000000000e+00 0.0000000000000000e+00 0.0000000000000000e+00  1.1060260408136436e-05 1.8138029514614348e-07 0.0000000000000000e+00 1.8138029514614348e-07 1.2539798047585641e-05 0.0000000000000000e+00 0.0000000000000000e+00 0.0000000000000000e+00 0.0000000000000000e+00  1.1093795972867715e-05 2.9798344729971481e-07 0.0000000000000000e+00 2.9798344729971481e-07 1.2398253170682156e-05 0.0000000000000000e+00 0.0000000000000000e+00 0.0000000000000000e+00 0.0000000000000000e+00  1.1146139672305153e-05 4.0213583640270944e-07 0.0000000000000000e+00 4.0213583640270944e-07 1.2212745463773362e-05 0.0000000000000000e+00 0.0000000000000000e+00 0.0000000000000000e+00 0.0000000000000000e+00  1.1216999635649038e-05 4.8656434604471548e-07 0.0000000000000000e+00 4.8656434604471548e-07 1.1983812518521464e-05 0.0000000000000000e+00 0.0000000000000000e+00 0.0000000000000000e+00 0.0000000000000000e+00  1.1304791821166756e-05 5.4384657078737974e-07 0.0000000000000000e+00 5.4384657078737974e-07 1.1714133932570143e-05 0.0000000000000000e+00 0.0000000000000000e+00 0.0000000000000000e+00 0.0000000000000000e+00  1.1406329072424941e-05 5.6681629504536343e-07 0.0000000000000000e+00 5.6681629504536343e-07 1.1408903943707682e-05 0.0000000000000000e+00 0.0000000000000000e+00 0.0000000000000000e+00 0.0000000000000000e+00  1.2049211244252391e-05 6.6526120319499502e-07 0.0000000000000000e+00 6.6526120319499502e-07 1.2045989555273473e-05 0.0000000000000000e+00 0.0000000000000000e+00 0.0000000000000000e+00 0.0000000000000000e+00  1.2187318725453799e-05 6.4122224459537661e-07 0.0000000000000000e+00 6.4122224459537661e-07 1.1630554184349908e-05 0.0000000000000000e+00 0.0000000000000000e+00 0.0000000000000000e+00 0.0000000000000000e+00  1.2305983180488175e-05 5.5883562226104771e-07 0.0000000000000000e+00 5.5883562226104771e-07 1.1262146392074300e-05 0.0000000000000000e+00 0.0000000000000000e+00 0.0000000000000000e+00 0.0000000000000000e+00  1.2397811213121501e-05 4.2918622007264366e-07 0.0000000000000000e+00 4.2918622007264366e-07 1.0953025347620324e-05 0.0000000000000000e+00 0.0000000000000000e+00 0.0000000000000000e+00 0.0000000000000000e+00  1.2458243140368738e-05 2.6496941484937353e-07 0.0000000000000000e+00 2.6496941484937353e-07 1.0711310419631582e-05 0.0000000000000000e+00 0.0000000000000000e+00 0.0000000000000000e+00 0.0000000000000000e+00  1.2485359438209639e-05 7.9413526333510448e-08 0.0000000000000000e+00 7.9413526333510448e-08 1.0540962407742171e-05 0.0000000000000000e+00 0.0000000000000000e+00 0.0000000000000000e+00 0.0000000000000000e+00  1.2479581145691366e-05 -1.1481552477361611e-07 0.0000000000000000e+00 -1.1481552477361611e-07 1.0442038387539967e-05 0.0000000000000000e+00 0.0000000000000000e+00 0.0000000000000000e+00 0.0000000000000000e+00  1.2443131206384415e-05 -3.0634406223242086e-07 0.0000000000000000e+00 -3.0634406223242086e-07 1.0411310376191203e-05 0.0000000000000000e+00 0.0000000000000000e+00 0.0000000000000000e+00 0.0000000000000000e+00  1.2379511432145565e-05 -4.8542884729501160e-07 0.0000000000000000e+00 -4.8542884729501160e-07 1.0442954371054743e-05 0.0000000000000000e+00 0.0000000000000000e+00 0.0000000000000000e+00 0.0000000000000000e+00  1.2293156963952541e-05 -6.4405747692958511e-07 0.0000000000000000e+00 -6.4405747692958511e-07 1.0529109095016129e-05 0.0000000000000000e+00 0.0000000000000000e+00 0.0000000000000000e+00 0.0000000000000000e+00  1.2189269519864442e-05 -7.7601739053728469e-07 0.0000000000000000e+00 -7.7601739053728458e-07 1.0660280476726811e-05 0.0000000000000000e+00 0.0000000000000000e+00 0.0000000000000000e+00 0.0000000000000000e+00  1.2073698933586632e-05 -8.7706246155581405e-07 0.0000000000000000e+00 -8.7706246155581405e-07 1.0825717119589196e-05 0.0000000000000000e+00 0.0000000000000000e+00 0.0000000000000000e+00 0.0000000000000000e+00  1.1952706392094876e-05 -9.4515989078389855e-07 0.0000000000000000e+00 -9.4515989078389855e-07 1.1013925480543661e-05 0.0000000000000000e+00 0.0000000000000000e+00 0.0000000000000000e+00 0.0000000000000000e+00  1.1832512658257594e-05 -9.8067290853641746e-07 0.0000000000000000e+00 -9.8067290853641746e-07 1.1213417286766177e-05 0.0000000000000000e+00 0.0000000000000000e+00 0.0000000000000000e+00 0.0000000000000000e+00  1.1718665891104106e-05 -9.8629541490302063e-07 0.0000000000000000e+00 -9.8629541490302063e-07 1.1413635247148616e-05 0.0000000000000000e+00 0.0000000000000000e+00 0.0000000000000000e+00 0.0000000000000000e+00  1.1615384494695866e-05 -9.6662105531966645e-07 0.0000000000000000e+00 -9.6662105531966645e-07 1.1605867818233734e-05 0.0000000000000000e+00 0.0000000000000000e+00 0.0000000000000000e+00 0.0000000000000000e+00  1.1525079999794296e-05 -9.2736473953101893e-07 0.0000000000000000e+00 -9.2736473953101893e-07 1.1783909515834790e-05 0.0000000000000000e+00 0.0000000000000000e+00 0.0000000000000000e+00 0.0000000000000000e+00  1.1448222217728630e-05 -8.7439180095475198e-07 0.0000000000000000e+00 -8.7439180095475198e-07 1.1944275114065794e-05 0.0000000000000000e+00 0.0000000000000000e+00 0.0000000000000000e+00 0.0000000000000000e+00  1.1383598334393358e-05 -8.1278673548611308e-07 0.0000000000000000e+00 -8.1278673548611308e-07 1.2085907095314337e-05 0.0000000000000000e+00 0.0000000000000000e+00 0.0000000000000000e+00 0.0000000000000000e+00  1.1328891606625793e-05 -7.4618162194659000e-07 0.0000000000000000e+00 -7.4618162194659000e-07 1.2209466177919892e-05 0.0000000000000000e+00 0.0000000000000000e+00 0.0000000000000000e+00 0.0000000000000000e+00  1.1281415918589667e-05 -6.7647779996969374e-07 0.0000000000000000e+00 -6.7647779996969374e-07 1.2316404144190578e-05 0.0000000000000000e+00 0.0000000000000000e+00 0.0000000000000000e+00 0.0000000000000000e+00  1.1238817921296606e-05 -6.0397550793356249e-07 0.0000000000000000e+00 -6.0397550793356249e-07 1.2408052179259369e-05 0.0000000000000000e+00 0.0000000000000000e+00 0.0000000000000000e+00 0.0000000000000000e+00  1.1199596017848446e-05 -5.2782210511065097e-07 0.0000000000000000e+00 -5.2782210511065097e-07 1.2484917778711678e-05 0.0000000000000000e+00 0.0000000000000000e+00 0.0000000000000000e+00 0.0000000000000000e+00  1.1163359294321754e-05 -4.4663139482360063e-07 0.0000000000000000e+00 -4.4663139482360063e-07 1.2546297397650573e-05 0.0000000000000000e+00 0.0000000000000000e+00 0.0000000000000000e+00 0.0000000000000000e+00  1.1130827231031710e-05 -3.5912153558607635e-07 0.0000000000000000e+00 -3.5912153558607635e-07 1.2590217946710040e-05 0.0000000000000000e+00 0.0000000000000000e+00 0.0000000000000000e+00 0.0000000000000000e+00  1.1103627794080915e-05 -2.6465399384159199e-07 0.0000000000000000e+00 -2.6465399384159199e-07 1.2613647989951323e-05 0.0000000000000000e+00 0.0000000000000000e+00 0.0000000000000000e+00 0.0000000000000000e+00  1.1083976915274240e-05 -1.6360879726924517e-07 0.0000000000000000e+00 -1.6360879726924517e-07 1.2612883076393813e-05 0.0000000000000000e+00 0.0000000000000000e+00 0.0000000000000000e+00 0.0000000000000000e+00  1.1074319232730346e-05 -5.7581306424016041e-08 0.0000000000000000e+00 -5.7581306424016041e-08 1.2584007477296502e-05 0.0000000000000000e+00 0.0000000000000000e+00 0.0000000000000000e+00 0.0000000000000000e+00  1.1076988804677351e-05 5.0579956570354948e-08 0.0000000000000000e+00 5.0579956570354948e-08 1.2523355567439675e-05 0.0000000000000000e+00 0.0000000000000000e+00 0.0000000000000000e+00 0.0000000000000000e+00  1.1093921318368341e-05 1.5686004294470266e-07 0.0000000000000000e+00 1.5686004294470266e-07 1.2427926375791703e-05 0.0000000000000000e+00 0.0000000000000000e+00 0.0000000000000000e+00 0.0000000000000000e+00  1.1126425525462206e-05 2.5625619099461959e-07 0.0000000000000000e+00 2.5625619099461959e-07 1.2295732973234813e-05 0.0000000000000000e+00 0.0000000000000000e+00 0.0000000000000000e+00 0.0000000000000000e+00  1.1175006585466910e-05 3.4302747589150670e-07 0.0000000000000000e+00 3.4302747589150670e-07 1.2126087285833474e-05 0.0000000000000000e+00 0.0000000000000000e+00 0.0000000000000000e+00 0.0000000000000000e+00  1.1239229430068014e-05 4.1100949568308405e-07 0.0000000000000000e+00 4.1100949568308405e-07 1.1919827778212836e-05 0.0000000000000000e+00 0.0000000000000000e+00 0.0000000000000000e+00 0.0000000000000000e+00  1.1317614907073031e-05 4.5399878902043670e-07 0.0000000000000000e+00 4.5399878902043670e-07 1.1679493382042418e-05 0.0000000000000000e+00 0.0000000000000000e+00 0.0000000000000000e+00 0.0000000000000000e+00  1.1407424327852372e-05 4.6613792992953107e-07 0.0000000000000000e+00 4.6613792992953107e-07 1.1409567643172425e-05 0.0000000000000000e+00 0.0000000000000000e+00 0.0000000000000000e+00 0.0000000000000000e+00  1.2035573258627199e-05 5.3069456820373148e-07 0.0000000000000000e+00 5.3069456820373148e-07 1.2032957998556361e-05 0.0000000000000000e+00 0.0000000000000000e+00 0.0000000000000000e+00 0.0000000000000000e+00  1.2154235380155760e-05 5.2066997622000451e-07 0.0000000000000000e+00 5.2066997622000451e-07 1.1676054752234630e-05 0.0000000000000000e+00 0.0000000000000000e+00 0.0000000000000000e+00 0.0000000000000000e+00  1.2257040851346075e-05 4.5968990770100922e-07 0.0000000000000000e+00 4.5968990770100922e-07 1.1357397431360083e-05 0.0000000000000000e+00 0.0000000000000000e+00 0.0000000000000000e+00 0.0000000000000000e+00  1.2337810750788921e-05 3.5687122423313897e-07 0.0000000000000000e+00 3.5687122423313897e-07 1.1087171209969417e-05 0.0000000000000000e+00 0.0000000000000000e+00 0.0000000000000000e+00 0.0000000000000000e+00  1.2392491644098907e-05 2.2263941452453633e-07 0.0000000000000000e+00 2.2263941452453633e-07 1.0872417229488821e-05 0.0000000000000000e+00 0.0000000000000000e+00 0.0000000000000000e+00 0.0000000000000000e+00  1.2419011167940988e-05 6.7987601251933772e-08 0.0000000000000000e+00 6.7987601251933759e-08 1.0717033474036423e-05 0.0000000000000000e+00 0.0000000000000000e+00 0.0000000000000000e+00 0.0000000000000000e+00  1.2417168269277808e-05 -9.6332999158510890e-08 0.0000000000000000e+00 -9.6332999158510877e-08 1.0621840295158622e-05 0.0000000000000000e+00 0.0000000000000000e+00 0.0000000000000000e+00 0.0000000000000000e+00  1.2388355482974727e-05 -2.6043355346179223e-07 0.0000000000000000e+00 -2.6043355346179223e-07 1.0584892738924586e-05 0.0000000000000000e+00 0.0000000000000000e+00 0.0000000000000000e+00 0.0000000000000000e+00  1.2335234603710617e-05 -4.1568071095564497e-07 0.0000000000000000e+00 -4.1568071095564497e-07 1.0601905234579467e-05 0.0000000000000000e+00 0.0000000000000000e+00 0.0000000000000000e+00 0.0000000000000000e+00  1.2261454608428366e-05 -5.5492018950674238e-07 0.0000000000000000e+00 -5.5492018950674238e-07 1.0666681322220937e-05 0.0000000000000000e+00 0.0000000000000000e+00 0.0000000000000000e+00 0.0000000000000000e+00  1.2171427271075396e-05 -6.7262430410467887e-07 0.0000000000000000e+00 -6.7262430410467887e-07 1.0771518087845675e-05 0.0000000000000000e+00 0.0000000000000000e+00 0.0000000000000000e+00 0.0000000000000000e+00  1.2070110943360359e-05 -7.6502658699040478e-07 0.0000000000000000e+00 -7.6502658699040478e-07 1.0907625822205335e-05 0.0000000000000000e+00 0.0000000000000000e+00 0.0000000000000000e+00 0.0000000000000000e+00  1.1962732667207570e-05 -8.3023876895060372e-07 0.0000000000000000e+00 -8.3023876895060372e-07 1.1065626313077146e-05 0.0000000000000000e+00 0.0000000000000000e+00 0.0000000000000000e+00 0.0000000000000000e+00  1.1854411229466317e-05 -8.6828392726789190e-07 0.0000000000000000e+00 -8.6828392726789190e-07 1.1236157893300916e-05 0.0000000000000000e+00 0.0000000000000000e+00 0.0000000000000000e+00 0.0000000000000000e+00  1.1749708324802413e-05 -8.8096057383286837e-07 0.0000000000000000e+00 -8.8096057383286837e-07 1.1410544340059084e-05 0.0000000000000000e+00 0.0000000000000000e+00 0.0000000000000000e+00 0.0000000000000000e+00  1.1652195731426634e-05 -8.7148686531458194e-07 0.0000000000000000e+00 -8.7148686531458194e-07 1.1581418173677506e-05 0.0000000000000000e+00 0.0000000000000000e+00 0.0000000000000000e+00 0.0000000000000000e+00  1.1564151461220105e-05 -8.4394498988923066e-07 0.0000000000000000e+00 -8.4394498988923066e-07 1.1743162931212246e-05 0.0000000000000000e+00 0.0000000000000000e+00 0.0000000000000000e+00 0.0000000000000000e+00  1.1486474733744454e-05 -8.0261918622377878e-07 0.0000000000000000e+00 -8.0261918622377878e-07 1.1892068096355236e-05 0.0000000000000000e+00 0.0000000000000000e+00 0.0000000000000000e+00 0.0000000000000000e+00  1.1418849208134869e-05 -7.5136385275730396e-07 0.0000000000000000e+00 -7.5136385275730396e-07 1.2026162549919180e-05 0.0000000000000000e+00 0.0000000000000000e+00 0.0000000000000000e+00 0.0000000000000000e+00  1.1360112694586015e-05 -6.9313408608521105e-07 0.0000000000000000e+00 -6.9313408608521105e-07 1.2144777556542312e-05 0.0000000000000000e+00 0.0000000000000000e+00 0.0000000000000000e+00 0.0000000000000000e+00  1.1308737644760350e-05 -6.2976456147547980e-07 0.0000000000000000e+00 -6.2976456147547980e-07 1.2247955942298371e-05 0.0000000000000000e+00 0.0000000000000000e+00 0.0000000000000000e+00 0.0000000000000000e+00  1.1263307367993351e-05 -5.6201489966875996e-07 0.0000000000000000e+00 -5.6201489966875996e-07 1.2335849627689963e-05 0.0000000000000000e+00 0.0000000000000000e+00 0.0000000000000000e+00 0.0000000000000000e+00  1.1222889361076819e-05 -4.8983604217881357e-07 0.0000000000000000e+00 -4.8983604217881357e-07 1.2408230662169441e-05 0.0000000000000000e+00 0.0000000000000000e+00 0.0000000000000000e+00 0.0000000000000000e+00  1.1187247445804859e-05 -4.1277168285390145e-07 0.0000000000000000e+00 -4.1277168285390145e-07 1.2464194383153934e-05 0.0000000000000000e+00 0.0000000000000000e+00 0.0000000000000000e+00 0.0000000000000000e+00  1.1156881154866816e-05 -3.3039825551166435e-07 0.0000000000000000e+00 -3.3039825551166435e-07 1.2502077263597801e-05 0.0000000000000000e+00 0.0000000000000000e+00 0.0000000000000000e+00 0.0000000000000000e+00  1.1132918934676060e-05 -2.4272166544531576e-07 0.0000000000000000e+00 -2.4272166544531576e-07 1.2519564361877931e-05 0.0000000000000000e+00 0.0000000000000000e+00 0.0000000000000000e+00 0.0000000000000000e+00  1.1116913133303991e-05 -1.5047759139043002e-07 0.0000000000000000e+00 -1.5047759139043002e-07 1.2513932375406611e-05 0.0000000000000000e+00 0.0000000000000000e+00 0.0000000000000000e+00 0.0000000000000000e+00  1.1110588832882099e-05 -5.5312701688031212e-08 0.0000000000000000e+00 -5.5312701688031212e-08 1.2482365807606291e-05 0.0000000000000000e+00 0.0000000000000000e+00 0.0000000000000000e+00 0.0000000000000000e+00  1.1115589992958561e-05 4.0152248992583086e-08 0.0000000000000000e+00 4.0152248992583086e-08 1.2422291036406604e-05 0.0000000000000000e+00 0.0000000000000000e+00 0.0000000000000000e+00 0.0000000000000000e+00  1.1133251711509775e-05 1.3236364163002493e-07 0.0000000000000000e+00 1.3236364163002493e-07 1.2331688726821674e-05 0.0000000000000000e+00 0.0000000000000000e+00 0.0000000000000000e+00 0.0000000000000000e+00  1.1164412656939036e-05 2.1696421763728763e-07 0.0000000000000000e+00 2.1696421763728763e-07 1.2209361988320408e-05 0.0000000000000000e+00 0.0000000000000000e+00 0.0000000000000000e+00 0.0000000000000000e+00  1.1209270853507936e-05 2.8899845914391881e-07 0.0000000000000000e+00 2.8899845914391881e-07 1.2055150927081240e-05 0.0000000000000000e+00 0.0000000000000000e+00 0.0000000000000000e+00 0.0000000000000000e+00  1.1267280798926519e-05 3.4318908832575730e-07 0.0000000000000000e+00 3.4318908832575730e-07 1.1870091238305331e-05 0.0000000000000000e+00 0.0000000000000000e+00 0.0000000000000000e+00 0.0000000000000000e+00  1.1337089955694771e-05 3.7428339429954342e-07 0.0000000000000000e+00 3.7428339429954342e-07 1.1656515437108774e-05 0.0000000000000000e+00 0.0000000000000000e+00 0.0000000000000000e+00 0.0000000000000000e+00  1.1416399538478466e-05 3.7740457636799162e-07 0.0000000000000000e+00 3.7740457636799162e-07 1.1418196895782742e-05 0.0000000000000000e+00 0.0000000000000000e+00 0.0000000000000000e+00 0.0000000000000000e+00  1.2013178158519340e-05 4.1552239487027586e-07 0.0000000000000000e+00 4.1552239487027586e-07 1.2011068229984404e-05 0.0000000000000000e+00 0.0000000000000000e+00 0.0000000000000000e+00 0.0000000000000000e+00  1.2114853052710160e-05 4.1686801211187584e-07 0.0000000000000000e+00 4.1686801211187584e-07 1.1705293097088523e-05 0.0000000000000000e+00 0.0000000000000000e+00 0.0000000000000000e+00 0.0000000000000000e+00  1.2203654349622746e-05 3.7337696650147334e-07 0.0000000000000000e+00 3.7337696650147334e-07 1.1430461940295520e-05 0.0000000000000000e+00 0.0000000000000000e+00 0.0000000000000000e+00 0.0000000000000000e+00  1.2274412508915282e-05 2.9268183563802025e-07 0.0000000000000000e+00 2.9268183563802025e-07 1.1195068645684311e-05 0.0000000000000000e+00 0.0000000000000000e+00 0.0000000000000000e+00 0.0000000000000000e+00  1.2323563700622871e-05 1.8351867278562429e-07 0.0000000000000000e+00 1.8351867278562429e-07 1.1005219113347084e-05 0.0000000000000000e+00 0.0000000000000000e+00 0.0000000000000000e+00 0.0000000000000000e+00  1.2349046361119418e-05 5.5152696980374786e-08 0.0000000000000000e+00 5.5152696980374786e-08 1.0864629402243922e-05 0.0000000000000000e+00 0.0000000000000000e+00 0.0000000000000000e+00 0.0000000000000000e+00  1.2350290541909120e-05 -8.3255039922640785e-08 0.0000000000000000e+00 -8.3255039922640785e-08 1.0774591420032765e-05 0.0000000000000000e+00 0.0000000000000000e+00 0.0000000000000000e+00 0.0000000000000000e+00  1.2328087072770849e-05 -2.2316634474325725e-07 0.0000000000000000e+00 -2.2316634474325725e-07 1.0734109476796805e-05 0.0000000000000000e+00 0.0000000000000000e+00 0.0000000000000000e+00 0.0000000000000000e+00  1.2284389549479277e-05 -3.5703917604519424e-07 0.0000000000000000e+00 -3.5703917604519424e-07 1.0740153614788552e-05 0.0000000000000000e+00 0.0000000000000000e+00 0.0000000000000000e+00 0.0000000000000000e+00  1.2222096822390313e-05 -4.7857500381867737e-07 0.0000000000000000e+00 -4.7857500381867737e-07 1.0787974501507245e-05 0.0000000000000000e+00 0.0000000000000000e+00 0.0000000000000000e+00 0.0000000000000000e+00  1.2144833691046177e-05 -5.8288141765845122e-07 0.0000000000000000e+00 -5.8288141765845122e-07 1.0871453079213975e-05 0.0000000000000000e+00 0.0000000000000000e+00 0.0000000000000000e+00 0.0000000000000000e+00  1.2056717632324265e-05 -6.6658032172340158e-07 0.0000000000000000e+00 -6.6658032172340158e-07 1.0983488588585395e-05 0.0000000000000000e+00 0.0000000000000000e+00 0.0000000000000000e+00 0.0000000000000000e+00  1.1962089051317652e-05 -7.2786154133264518e-07 0.0000000000000000e+00 -7.2786154133264518e-07 1.1116438988427515e-05 0.0000000000000000e+00 0.0000000000000000e+00 0.0000000000000000e+00 0.0000000000000000e+00  1.1865197448551789e-05 -7.6645316154129610e-07 0.0000000000000000e+00 -7.6645316154129610e-07 1.1262611261075783e-05 0.0000000000000000e+00 0.0000000000000000e+00 0.0000000000000000e+00 0.0000000000000000e+00  1.1769866880016880e-05 -7.8347193153527149e-07 0.0000000000000000e+00 -7.8347193153527149e-07 1.1414765393035817e-05 0.0000000000000000e+00 0.0000000000000000e+00 0.0000000000000000e+00 0.0000000000000000e+00  1.1679193431931013e-05 -7.8113591617718931e-07 0.0000000000000000e+00 -7.8113591617718931e-07 1.1566564495365696e-05 0.0000000000000000e+00 0.0000000000000000e+00 0.0000000000000000e+00 0.0000000000000000e+00  1.1595338685462012e-05 -7.6235928898301944e-07 0.0000000000000000e+00 -7.6235928898301944e-07 1.1712892941185791e-05 0.0000000000000000e+00 0.0000000000000000e+00 0.0000000000000000e+00 0.0000000000000000e+00  1.1519469200338566e-05 -7.3028856326462139e-07 0.0000000000000000e+00 -7.3028856326462139e-07 1.1849982558101553e-05 0.0000000000000000e+00 0.0000000000000000e+00 0.0000000000000000e+00 0.0000000000000000e+00  1.1451857797345839e-05 -6.8786321396164834e-07 0.0000000000000000e+00 -6.8786321396164834e-07 1.1975328329388491e-05 0.0000000000000000e+00 0.0000000000000000e+00 0.0000000000000000e+00 0.0000000000000000e+00  1.1392121382673776e-05 -6.3748185641378562e-07 0.0000000000000000e+00 -6.3748185641378562e-07 1.2087424365363131e-05 0.0000000000000000e+00 0.0000000000000000e+00 0.0000000000000000e+00 0.0000000000000000e+00  1.1339537451221364e-05 -5.8082934642572718e-07 0.0000000000000000e+00 -5.8082934642572718e-07 1.2185390578729262e-05 0.0000000000000000e+00 0.0000000000000000e+00 0.0000000000000000e+00 0.0000000000000000e+00  1.1293367520426493e-05 -5.1888079618853336e-07 0.0000000000000000e+00 -5.1888079618853336e-07 1.2268578388295991e-05 0.0000000000000000e+00 0.0000000000000000e+00 0.0000000000000000e+00 0.0000000000000000e+00  1.1253122615046233e-05 -4.5205941879844602e-07 0.0000000000000000e+00 -4.5205941879844602e-07 1.2336237071818280e-05 0.0000000000000000e+00 0.0000000000000000e+00 0.0000000000000000e+00 0.0000000000000000e+00  1.1218728105247116e-05 -3.8049765636234409e-07 0.0000000000000000e+00 -3.8049765636234409e-07 1.2387296952400076e-05 0.0000000000000000e+00 0.0000000000000000e+00 0.0000000000000000e+00 0.0000000000000000e+00  1.1190573400319635e-05 -3.0434044190331410e-07 0.0000000000000000e+00 -3.0434044190331410e-07 1.2420292022818061e-05 0.0000000000000000e+00 0.0000000000000000e+00 0.0000000000000000e+00 0.0000000000000000e+00  1.1169457264051948e-05 -2.2403444941932776e-07 0.0000000000000000e+00 -2.2403444941932776e-07 1.2433413439500688e-05 0.0000000000000000e+00 0.0000000000000000e+00 0.0000000000000000e+00 0.0000000000000000e+00  1.1156456149945808e-05 -1.4056220737871033e-07 0.0000000000000000e+00 -1.4056220737871033e-07 1.2424663620451532e-05 0.0000000000000000e+00 0.0000000000000000e+00 0.0000000000000000e+00 0.0000000000000000e+00  1.1152749390177167e-05 -5.5598070921182246e-08 0.0000000000000000e+00 -5.5598070921182246e-08 1.2392070842626103e-05 0.0000000000000000e+00 0.0000000000000000e+00 0.0000000000000000e+00 0.0000000000000000e+00  1.1159433055860006e-05 2.8421444141390987e-08 0.0000000000000000e+00 2.8421444141390987e-08 1.2333924717570353e-05 0.0000000000000000e+00 0.0000000000000000e+00 0.0000000000000000e+00 0.0000000000000000e+00  1.1177347249525311e-05 1.0831074524549262e-07 0.0000000000000000e+00 1.0831074524549262e-07 1.2249000047129383e-05 0.0000000000000000e+00 0.0000000000000000e+00 0.0000000000000000e+00 0.0000000000000000e+00  1.1206932983918205e-05 1.8022599949434734e-07 0.0000000000000000e+00 1.8022599949434734e-07 1.2136746313129737e-05 0.0000000000000000e+00 0.0000000000000000e+00 0.0000000000000000e+00 0.0000000000000000e+00  1.1248127176620615e-05 2.3982922492848421e-07 0.0000000000000000e+00 2.3982922492848421e-07 1.1997429342320782e-05 0.0000000000000000e+00 0.0000000000000000e+00 0.0000000000000000e+00 0.0000000000000000e+00  1.1300298872568524e-05 2.8252388518833627e-07 0.0000000000000000e+00 2.8252388518833627e-07 1.1832218822318922e-05 0.0000000000000000e+00 0.0000000000000000e+00 0.0000000000000000e+00 0.0000000000000000e+00  1.1362226377194663e-05 3.0376035202940260e-07 0.0000000000000000e+00 3.0376035202940260e-07 1.1643220345138964e-05 0.0000000000000000e+00 0.0000000000000000e+00 0.0000000000000000e+00 0.0000000000000000e+00  1.1432023665854593e-05 2.9935341940994860e-07 0.0000000000000000e+00 2.9935341940994860e-07 1.1433534765405615e-05 0.0000000000000000e+00 0.0000000000000000e+00 0.0000000000000000e+00 0.0000000000000000e+00  1.1983751650515835e-05 3.1731287629670635e-07 0.0000000000000000e+00 3.1731287629670635e-07 1.1982066343068337e-05 0.0000000000000000e+00 0.0000000000000000e+00 0.0000000000000000e+00 0.0000000000000000e+00  1.2070463653567406e-05 3.2780636921977554e-07 0.0000000000000000e+00 3.2780636921977554e-07 1.1721332151256533e-05 0.0000000000000000e+00 0.0000000000000000e+00 0.0000000000000000e+00 0.0000000000000000e+00  1.2146846535595698e-05 2.9850449754897882e-07 0.0000000000000000e+00 2.9850449754897882e-07 1.1485373352654617e-05 0.0000000000000000e+00 0.0000000000000000e+00 0.0000000000000000e+00 0.0000000000000000e+00  1.2208604405446972e-05 2.3594714167757649e-07 0.0000000000000000e+00 2.3594714167757649e-07 1.1281239336267248e-05 0.0000000000000000e+00 0.0000000000000000e+00 0.0000000000000000e+00 0.0000000000000000e+00  1.2252618654901283e-05 1.4761535862161582e-07 0.0000000000000000e+00 1.4761535862161582e-07 1.1114236654657184e-05 0.0000000000000000e+00 0.0000000000000000e+00 0.0000000000000000e+00 0.0000000000000000e+00  1.2276899029661881e-05 4.1437882904559864e-08 0.0000000000000000e+00 4.1437882904559864e-08 1.0987886099875629e-05 0.0000000000000000e+00 0.0000000000000000e+00 0.0000000000000000e+00 0.0000000000000000e+00  1.2280637560546247e-05 -7.4727664920658644e-08 0.0000000000000000e+00 -7.4727664920658644e-08 1.0903813801420970e-05 0.0000000000000000e+00 0.0000000000000000e+00 0.0000000000000000e+00 0.0000000000000000e+00  1.2264169292345274e-05 -1.9352311036388605e-07 0.0000000000000000e+00 -1.9352311036388605e-07 1.0861770086056030e-05 0.0000000000000000e+00 0.0000000000000000e+00 0.0000000000000000e+00 0.0000000000000000e+00  1.2228859091255156e-05 -3.0841166035379865e-07 0.0000000000000000e+00 -3.0841166035379865e-07 1.0859761648183935e-05 0.0000000000000000e+00 0.0000000000000000e+00 0.0000000000000000e+00 0.0000000000000000e+00  1.2176940743756519e-05 -4.1390200039784801e-07 0.0000000000000000e+00 -4.1390200039784801e-07 1.0894269108882779e-05 0.0000000000000000e+00 0.0000000000000000e+00 0.0000000000000000e+00 0.0000000000000000e+00  1.2111325566906541e-05 -5.0569406519771438e-07 0.0000000000000000e+00 -5.0569406519771438e-07 1.0960527352292106e-05 0.0000000000000000e+00 0.0000000000000000e+00 0.0000000000000000e+00 0.0000000000000000e+00  1.2035385482687836e-05 -5.8076166723452900e-07 0.0000000000000000e+00 -5.8076166723452900e-07 1.1052856467353641e-05 0.0000000000000000e+00 0.0000000000000000e+00 0.0000000000000000e+00 0.0000000000000000e+00  1.1952710639337782e-05 -6.3737344881823971e-07 0.0000000000000000e+00 -6.3737344881823971e-07 1.1165034836888131e-05 0.0000000000000000e+00 0.0000000000000000e+00 0.0000000000000000e+00 0.0000000000000000e+00  1.1866848155542374e-05 -6.7504093047259285e-07 0.0000000000000000e+00 -6.7504093047259285e-07 1.1290698240150613e-05 0.0000000000000000e+00 0.0000000000000000e+00 0.0000000000000000e+00 0.0000000000000000e+00  1.1781042644487675e-05 -6.9437994043960729e-07 0.0000000000000000e+00 -6.9437994043960729e-07 1.1423733644922447e-05 0.0000000000000000e+00 0.0000000000000000e+00 0.0000000000000000e+00 0.0000000000000000e+00  1.1698012296754807e-05 -6.9688271604402711e-07 0.0000000000000000e+00 -6.9688271604402711e-07 1.1558622908705519e-05 0.0000000000000000e+00 0.0000000000000000e+00 0.0000000000000000e+00 0.0000000000000000e+00  1.1619798100608776e-05 -6.8461854729318311e-07 0.0000000000000000e+00 -6.8461854729318311e-07 1.1690689029075407e-05 0.0000000000000000e+00 0.0000000000000000e+00 0.0000000000000000e+00 0.0000000000000000e+00  1.1547714380973764e-05 -6.5990217409171892e-07 0.0000000000000000e+00 -6.5990217409171892e-07 1.1816210092484601e-05 0.0000000000000000e+00 0.0000000000000000e+00 0.0000000000000000e+00 0.0000000000000000e+00  1.1482408516189736e-05 -6.2498198944217379e-07 0.0000000000000000e+00 -6.2498198944217379e-07 1.1932391021928875e-05 0.0000000000000000e+00 0.0000000000000000e+00 0.0000000000000000e+00 0.0000000000000000e+00  1.1424013430487888e-05 -5.8179893293411241e-07 0.0000000000000000e+00 -5.8179893293411241e-07 1.2037212634590858e-05 0.0000000000000000e+00 0.0000000000000000e+00 0.0000000000000000e+00 0.0000000000000000e+00  1.1372356538809973e-05 -5.3185204990823569e-07 0.0000000000000000e+00 -5.3185204990823569e-07 1.2129201864080038e-05 0.0000000000000000e+00 0.0000000000000000e+00 0.0000000000000000e+00 0.0000000000000000e+00  1.1327179285899234e-05 -4.7618333469127020e-07 0.0000000000000000e+00 -4.7618333469127020e-07 1.2207179189640943e-05 0.0000000000000000e+00 0.0000000000000000e+00 0.0000000000000000e+00 0.0000000000000000e+00  1.1288324055461900e-05 -4.1547025490844768e-07 0.0000000000000000e+00 -4.1547025490844768e-07 1.2270037067975013e-05 0.0000000000000000e+00 0.0000000000000000e+00 0.0000000000000000e+00 0.0000000000000000e+00  1.1255857605901050e-05 -3.5019598374475333e-07 0.0000000000000000e+00 -3.5019598374475333e-07 1.2316589054957451e-05 0.0000000000000000e+00 0.0000000000000000e+00 0.0000000000000000e+00 0.0000000000000000e+00  1.1230117367788471e-05 -2.8085851231831090e-07 0.0000000000000000e+00 -2.8085851231831090e-07 1.2345508945887339e-05 0.0000000000000000e+00 0.0000000000000000e+00 0.0000000000000000e+00 0.0000000000000000e+00  1.1211683667268956e-05 -2.0818052692178716e-07 0.0000000000000000e+00 -2.0818052692178716e-07 1.2355358799288924e-05 0.0000000000000000e+00 0.0000000000000000e+00 0.0000000000000000e+00 0.0000000000000000e+00  1.1201293431236262e-05 -1.3328950518361922e-07 0.0000000000000000e+00 -1.3328950518361922e-07 1.2344688770848772e-05 0.0000000000000000e+00 0.0000000000000000e+00 0.0000000000000000e+00 0.0000000000000000e+00  1.1199717614385770e-05 -5.7847986790901488e-08 0.0000000000000000e+00 -5.7847986790901488e-08 1.2312182429649075e-05 0.0000000000000000e+00 0.0000000000000000e+00 0.0000000000000000e+00 0.0000000000000000e+00  1.1207625890774343e-05 1.5876241139591053e-08 0.0000000000000000e+00 1.5876241139591053e-08 1.2256818499723938e-05 0.0000000000000000e+00 0.0000000000000000e+00 0.0000000000000000e+00 0.0000000000000000e+00  1.1225459676407558e-05 8.5003644729594122e-08 0.0000000000000000e+00 8.5003644729594122e-08 1.2178022156235503e-05 0.0000000000000000e+00 0.0000000000000000e+00 0.0000000000000000e+00 0.0000000000000000e+00  1.1253330118136725e-05 1.4610101266062372e-07 0.0000000000000000e+00 1.4610101266062372e-07 1.2075784113186394e-05 0.0000000000000000e+00 0.0000000000000000e+00 0.0000000000000000e+00 0.0000000000000000e+00  1.1290952588041927e-05 1.9530550406439358e-07 0.0000000000000000e+00 1.9530550406439358e-07 1.1950732257839607e-05 0.0000000000000000e+00 0.0000000000000000e+00 0.0000000000000000e+00 0.0000000000000000e+00  1.1337623849331350e-05 2.2851788062702349e-07 0.0000000000000000e+00 2.2851788062702349e-07 1.1804147925036922e-05 0.0000000000000000e+00 0.0000000000000000e+00 0.0000000000000000e+00 0.0000000000000000e+00  1.1392241791264357e-05 2.4166766956753943e-07 0.0000000000000000e+00 2.4166766956753943e-07 1.1637927511311687e-05 0.0000000000000000e+00 0.0000000000000000e+00 0.0000000000000000e+00 0.0000000000000000e+00  1.1453296002250633e-05 2.3100211350166530e-07 0.0000000000000000e+00 2.3100211350166530e-07 1.1454558734500382e-05 0.0000000000000000e+00 0.0000000000000000e+00 0.0000000000000000e+00 0.0000000000000000e+00  1.1948725378050599e-05 2.3409016134867834e-07 0.0000000000000000e+00 2.3409016134867834e-07 1.1947406922415761e-05 0.0000000000000000e+00 0.0000000000000000e+00 0.0000000000000000e+00 0.0000000000000000e+00  1.2022113816194287e-05 2.5182101637334080e-07 0.0000000000000000e+00 2.5182101637334080e-07 1.1726789408270042e-05 0.0000000000000000e+00 0.0000000000000000e+00 0.0000000000000000e+00 0.0000000000000000e+00  1.2087413130578209e-05 2.3384453560577432e-07 0.0000000000000000e+00 2.3384453560577432e-07 1.1525581147912830e-05 0.0000000000000000e+00 0.0000000000000000e+00 0.0000000000000000e+00 0.0000000000000000e+00  1.2141094852355407e-05 1.8596633439171111e-07 0.0000000000000000e+00 1.8596633439171111e-07 1.1349576259226212e-05 0.0000000000000000e+00 0.0000000000000000e+00 0.0000000000000000e+00 0.0000000000000000e+00  1.2180422107535572e-05 1.1476765463242712e-07 0.0000000000000000e+00 1.1476765463242712e-07 1.1203427085473042e-05 0.0000000000000000e+00 0.0000000000000000e+00 0.0000000000000000e+00 0.0000000000000000e+00  1.2203479576437559e-05 2.7153565908650130e-08 0.0000000000000000e+00 2.7153565908650130e-08 1.1090513531018996e-05 0.0000000000000000e+00 0.0000000000000000e+00 0.0000000000000000e+00 0.0000000000000000e+00  1.2209284564275577e-05 -7.0080501840016822e-08 0.0000000000000000e+00 -7.0080501840016822e-08 1.1012753882229166e-05 0.0000000000000000e+00 0.0000000000000000e+00 0.0000000000000000e+00 0.0000000000000000e+00  1.2197813008933700e-05 -1.7059219145898450e-07 0.0000000000000000e+00 -1.7059219145898450e-07 1.0970528243491560e-05 0.0000000000000000e+00 0.0000000000000000e+00 0.0000000000000000e+00 0.0000000000000000e+00  1.2169945652183268e-05 -2.6874796241758543e-07 0.0000000000000000e+00 -2.6874796241758543e-07 1.0962717403920365e-05 0.0000000000000000e+00 0.0000000000000000e+00 0.0000000000000000e+00 0.0000000000000000e+00  1.2127352101315659e-05 -3.5980148687331381e-07 0.0000000000000000e+00 -3.5980148687331381e-07 1.0986840516819706e-05 0.0000000000000000e+00 0.0000000000000000e+00 0.0000000000000000e+00 0.0000000000000000e+00  1.2072330675133309e-05 -4.4000705347077645e-07 0.0000000000000000e+00 -4.4000705347077645e-07 1.1039270112493317e-05 0.0000000000000000e+00 0.0000000000000000e+00 0.0000000000000000e+00 0.0000000000000000e+00  1.2007617410131896e-05 -5.0667659665470763e-07 0.0000000000000000e+00 -5.0667659665470763e-07 1.1115504663523989e-05 0.0000000000000000e+00 0.0000000000000000e+00 0.0000000000000000e+00 0.0000000000000000e+00  1.1936174916871801e-05 -5.5818204034549010e-07 0.0000000000000000e+00 -5.5818204034549010e-07 1.1210480001485237e-05 0.0000000000000000e+00 0.0000000000000000e+00 0.0000000000000000e+00 0.0000000000000000e+00  1.1860973812759101e-05 -5.9389911835477278e-07 0.0000000000000000e+00 -5.9389911835477278e-07 1.1318897942217229e-05 0.0000000000000000e+00 0.0000000000000000e+00 0.0000000000000000e+00 0.0000000000000000e+00  1.1784784904159416e-05 -6.1408884296608856e-07 0.0000000000000000e+00 -6.1408884296608856e-07 1.1435544686900614e-05 0.0000000000000000e+00 0.0000000000000000e+00 0.0000000000000000e+00 0.0000000000000000e+00  1.1710005111195267e-05 -6.1971971659380262e-07 0.0000000000000000e+00 -6.1971971659380262e-07 1.1555567136682621e-05 0.0000000000000000e+00 0.0000000000000000e+00 0.0000000000000000e+00 0.0000000000000000e+00  1.1638540122118602e-05 -6.1224546775646248e-07 0.0000000000000000e+00 -6.1224546775646248e-07 1.1674676636349544e-05 0.0000000000000000e+00 0.0000000000000000e+00 0.0000000000000000e+00 0.0000000000000000e+00  1.1571759875653502e-05 -5.9336489495196088e-07 0.0000000000000000e+00 -5.9336489495196088e-07 1.1789258964832022e-05 0.0000000000000000e+00 0.0000000000000000e+00 0.0000000000000000e+00 0.0000000000000000e+00  1.1510530298830660e-05 -5.6479736472909149e-07 0.0000000000000000e+00 -5.6479736472909149e-07 1.1896385250180548e-05 0.0000000000000000e+00 0.0000000000000000e+00 0.0000000000000000e+00 0.0000000000000000e+00  1.1455309939499075e-05 -5.2810654983574667e-07 0.0000000000000000e+00 -5.2810654983574667e-07 1.1993736670011467e-05 0.0000000000000000e+00 0.0000000000000000e+00 0.0000000000000000e+00 0.0000000000000000e+00  1.1406287760591540e-05 -4.8459606421453894e-07 0.0000000000000000e+00 -4.8459606421453894e-07 1.2079471074435134e-05 0.0000000000000000e+00 0.0000000000000000e+00 0.0000000000000000e+00 0.0000000000000000e+00  1.1363531933272379e-05 -4.3528650345709688e-07 0.0000000000000000e+00 -4.3528650345709688e-07 1.2152067915278068e-05 0.0000000000000000e+00 0.0000000000000000e+00 0.0000000000000000e+00 0.0000000000000000e+00  1.1327120291668582e-05 -3.8096824024424229e-07 0.0000000000000000e+00 -3.8096824024424229e-07 1.2210187458289681e-05 0.0000000000000000e+00 0.0000000000000000e+00 0.0000000000000000e+00 0.0000000000000000e+00  1.1297230151147711e-05 -3.2231213312383276e-07 0.0000000000000000e+00 -3.2231213312383276e-07 1.2252572278786136e-05 0.0000000000000000e+00 0.0000000000000000e+00 0.0000000000000000e+00 0.0000000000000000e+00  1.1274175815640205e-05 -2.6001353881868829e-07 0.0000000000000000e+00 -2.6001353881868829e-07 1.2278006469561108e-05 0.0000000000000000e+00 0.0000000000000000e+00 0.0000000000000000e+00 0.0000000000000000e+00  1.1258393264628746e-05 -1.9494411282876336e-07 0.0000000000000000e+00 -1.9494411282876336e-07 1.2285334375549461e-05 0.0000000000000000e+00 0.0000000000000000e+00 0.0000000000000000e+00 0.0000000000000000e+00  1.1250380797100382e-05 -1.2828955948388547e-07 0.0000000000000000e+00 -1.2828955948388547e-07 1.2273528954646894e-05 0.0000000000000000e+00 0.0000000000000000e+00 0.0000000000000000e+00 0.0000000000000000e+00  1.1250610569610464e-05 -6.1657512863273664e-08 0.0000000000000000e+00 -6.1657512863273664e-08 1.2241791714752004e-05 0.0000000000000000e+00 0.0000000000000000e+00 0.0000000000000000e+00 0.0000000000000000e+00  1.1259428915028244e-05 2.8542606270659008e-09 0.0000000000000000e+00 2.8542606270659008e-09 1.2189661943420026e-05 0.0000000000000000e+00 0.0000000000000000e+00 0.0000000000000000e+00 0.0000000000000000e+00  1.1276963728597225e-05 6.2634986449237192e-08 0.0000000000000000e+00 6.2634986449237192e-08 1.2117112099061702e-05 0.0000000000000000e+00 0.0000000000000000e+00 0.0000000000000000e+00 0.0000000000000000e+00  1.1303055860397899e-05 1.1458765461279885e-07 0.0000000000000000e+00 1.1458765461279887e-07 1.2024608024488158e-05 0.0000000000000000e+00 0.0000000000000000e+00 0.0000000000000000e+00 0.0000000000000000e+00  1.1337228710103211e-05 1.5521129197009296e-07 0.0000000000000000e+00 1.5521129197009296e-07 1.1913116770032277e-05 0.0000000000000000e+00 0.0000000000000000e+00 0.0000000000000000e+00 0.0000000000000000e+00  1.1378705526537700e-05 1.8074791375120515e-07 0.0000000000000000e+00 1.8074791375120515e-07 1.1784051894179064e-05 0.0000000000000000e+00 0.0000000000000000e+00 0.0000000000000000e+00 0.0000000000000000e+00  1.1426475633233305e-05 1.8740549240267021e-07 0.0000000000000000e+00 1.8740549240267021e-07 1.1639157758843208e-05 0.0000000000000000e+00 0.0000000000000000e+00 0.0000000000000000e+00 0.0000000000000000e+00  1.1479357138828317e-05 1.7162173621530108e-07 0.0000000000000000e+00 1.7162173621530108e-07 1.1480389541246312e-05 0.0000000000000000e+00 0.0000000000000000e+00 0.0000000000000000e+00 0.0000000000000000e+00  1.1909315272985619e-05 1.6430122899511952e-07 0.0000000000000000e+00 1.6430122899511952e-07 1.1908332477367457e-05 0.0000000000000000e+00 0.0000000000000000e+00 0.0000000000000000e+00 0.0000000000000000e+00  1.1970664574035028e-05 1.8755773835929655e-07 0.0000000000000000e+00 1.8755773835929655e-07 1.1723976117678022e-05 0.0000000000000000e+00 0.0000000000000000e+00 0.0000000000000000e+00 0.0000000000000000e+00  1.2025983938296768e-05 1.7833900047259570e-07 0.0000000000000000e+00 1.7833900047259570e-07 1.1554119084921311e-05 0.0000000000000000e+00 0.0000000000000000e+00 0.0000000000000000e+00 0.0000000000000000e+00  1.2072404651449037e-05 1.4207251250240553e-07 0.0000000000000000e+00 1.4207251250240553e-07 1.1403491516138217e-05 0.0000000000000000e+00 0.0000000000000000e+00 0.0000000000000000e+00 0.0000000000000000e+00  1.2107485807447526e-05 8.4746112481007279e-08 0.0000000000000000e+00 8.4746112481007279e-08 1.1276272186288745e-05 0.0000000000000000e+00 0.0000000000000000e+00 0.0000000000000000e+00 0.0000000000000000e+00  1.2129355920977387e-05 1.2491568774140748e-08 0.0000000000000000e+00 1.2491568774140749e-08 1.1175812952813153e-05 0.0000000000000000e+00 0.0000000000000000e+00 0.0000000000000000e+00 0.0000000000000000e+00  1.2136885039063355e-05 -6.8766606243126351e-08 0.0000000000000000e+00 -6.8766606243126351e-08 1.1104348968313179e-05 0.0000000000000000e+00 0.0000000000000000e+00 0.0000000000000000e+00 0.0000000000000000e+00  1.2129761077414817e-05 -1.5356485239694315e-07 0.0000000000000000e+00 -1.5356485239694315e-07 1.1062834079973707e-05 0.0000000000000000e+00 0.0000000000000000e+00 0.0000000000000000e+00 0.0000000000000000e+00  1.2108475800799915e-05 -2.3707974184408177e-07 0.0000000000000000e+00 -2.3707974184408177e-07 1.1050905381262099e-05 0.0000000000000000e+00 0.0000000000000000e+00 0.0000000000000000e+00 0.0000000000000000e+00  1.2074239567211172e-05 -3.1524944060371204e-07 0.0000000000000000e+00 -3.1524944060371204e-07 1.1066959305689338e-05 0.0000000000000000e+00 0.0000000000000000e+00 0.0000000000000000e+00 0.0000000000000000e+00  1.2028846006099399e-05 -3.8484805080071054e-07 0.0000000000000000e+00 -3.8484805080071054e-07 1.1108314366025412e-05 0.0000000000000000e+00 0.0000000000000000e+00 0.0000000000000000e+00 0.0000000000000000e+00  1.1974505020182155e-05 -4.4351792245739051e-07 0.0000000000000000e+00 -4.4351792245739051e-07 1.1171435407124453e-05 0.0000000000000000e+00 0.0000000000000000e+00 0.0000000000000000e+00 0.0000000000000000e+00  1.1913659614205967e-05 -4.8976047504608065e-07 0.0000000000000000e+00 -4.8976047504608065e-07 1.1252195626489522e-05 0.0000000000000000e+00 0.0000000000000000e+00 0.0000000000000000e+00 0.0000000000000000e+00  1.1848801235135442e-05 -5.2288374152459260e-07 0.0000000000000000e+00 -5.2288374152459260e-07 1.1346152922794713e-05 0.0000000000000000e+00 0.0000000000000000e+00 0.0000000000000000e+00 0.0000000000000000e+00  1.1782299210767841e-05 -5.4290601257502337e-07 0.0000000000000000e+00 -5.4290601257502337e-07 1.1448816414215093e-05 0.0000000000000000e+00 0.0000000000000000e+00 0.0000000000000000e+00 0.0000000000000000e+00  1.1716260536193776e-05 -5.5041979279530016e-07 0.0000000000000000e+00 -5.5041979279530016e-07 1.1555879107566745e-05 0.0000000000000000e+00 0.0000000000000000e+00 0.0000000000000000e+00 0.0000000000000000e+00  1.1652434509485876e-05 -5.4642738876328522e-07 0.0000000000000000e+00 -5.4642738876328522e-07 1.1663395870965115e-05 0.0000000000000000e+00 0.0000000000000000e+00 0.0000000000000000e+00 0.0000000000000000e+00  1.1592171444639181e-05 -5.3216627799944427e-07 0.0000000000000000e+00 -5.3216627799944427e-07 1.1767893129368091e-05 0.0000000000000000e+00 0.0000000000000000e+00 0.0000000000000000e+00 0.0000000000000000e+00  1.1536436428906953e-05 -5.0894628275187819e-07 0.0000000000000000e+00 -5.0894628275187830e-07 1.1866407328945167e-05 0.0000000000000000e+00 0.0000000000000000e+00 0.0000000000000000e+00 0.0000000000000000e+00  1.1485869791404201e-05 -4.7801979951906163e-07 0.0000000000000000e+00 -4.7801979951906163e-07 1.1956460914243857e-05 0.0000000000000000e+00 0.0000000000000000e+00 0.0000000000000000e+00 0.0000000000000000e+00  1.1440878113207599e-05 -4.4050084396823393e-07 0.0000000000000000e+00 -4.4050084396823393e-07 1.2035994425813059e-05 0.0000000000000000e+00 0.0000000000000000e+00 0.0000000000000000e+00 0.0000000000000000e+00  1.1401735287867373e-05 -3.9733994957573286e-07 0.0000000000000000e+00 -3.9733994957573286e-07 1.2103278954319275e-05 0.0000000000000000e+00 0.0000000000000000e+00 0.0000000000000000e+00 0.0000000000000000e+00  1.1368673230892333e-05 -3.4935239273871457e-07 0.0000000000000000e+00 -3.4935239273871457e-07 1.2156833487808731e-05 0.0000000000000000e+00 0.0000000000000000e+00 0.0000000000000000e+00 0.0000000000000000e+00  1.1341945915074972e-05 -2.9728918713239681e-07 0.0000000000000000e+00 -2.9728918713239681e-07 1.2195367084178366e-05 0.0000000000000000e+00 0.0000000000000000e+00 0.0000000000000000e+00 0.0000000000000000e+00  1.1321857082458385e-05 -2.4193541207856431e-07 0.0000000000000000e+00 -2.4193541207856431e-07 1.2217757862248421e-05 0.0000000000000000e+00 0.0000000000000000e+00 0.0000000000000000e+00 0.0000000000000000e+00  1.1308749511317520e-05 -1.8421920193526263e-07 0.0000000000000000e+00 -1.8421920193526263e-07 1.2223071564412863e-05 0.0000000000000000e+00 0.0000000000000000e+00 0.0000000000000000e+00 0.0000000000000000e+00  1.1302960612767172e-05 -1.2531654762023697e-07 0.0000000000000000e+00 -1.2531654762023697e-07 1.2210613709604616e-05 0.0000000000000000e+00 0.0000000000000000e+00 0.0000000000000000e+00 0.0000000000000000e+00  1.1304754541600537e-05 -6.6740652178643997e-08 0.0000000000000000e+00 -6.6740652178643997e-08 1.2180002276412427e-05 0.0000000000000000e+00 0.0000000000000000e+00 0.0000000000000000e+00 0.0000000000000000e+00  1.1314244757910688e-05 -1.0408365046024379e-08 0.0000000000000000e+00 -1.0408365046024379e-08 1.2131242846108224e-05 0.0000000000000000e+00 0.0000000000000000e+00 0.0000000000000000e+00 0.0000000000000000e+00  1.1331323349203133e-05 4.1321295703516894e-08 0.0000000000000000e+00 4.1321295703516901e-08 1.2064785118584681e-05 0.0000000000000000e+00 0.0000000000000000e+00 0.0000000000000000e+00 0.0000000000000000e+00  1.1355614723968654e-05 8.5641518924397713e-08 0.0000000000000000e+00 8.5641518924397713e-08 1.1981538591752000e-05 0.0000000000000000e+00 0.0000000000000000e+00 0.0000000000000000e+00 0.0000000000000000e+00  1.1386471336610388e-05 1.1933318531162229e-07 0.0000000000000000e+00 1.1933318531162229e-07 1.1882826405388141e-05 0.0000000000000000e+00 0.0000000000000000e+00 0.0000000000000000e+00 0.0000000000000000e+00  1.1423026609177568e-05 1.3885631335446008e-07 0.0000000000000000e+00 1.3885631335446008e-07 1.1770261576715618e-05 0.0000000000000000e+00 0.0000000000000000e+00 0.0000000000000000e+00 0.0000000000000000e+00  1.1464311924969533e-05 1.4052061275802107e-07 0.0000000000000000e+00 1.4052061275802107e-07 1.1645542632470639e-05 0.0000000000000000e+00 0.0000000000000000e+00 0.0000000000000000e+00 0.0000000000000000e+00  1.1509408645590851e-05 1.2071715465688534e-07 0.0000000000000000e+00 1.2071715465688534e-07 1.1510208614263961e-05 0.0000000000000000e+00 0.0000000000000000e+00 0.0000000000000000e+00 0.0000000000000000e+00  1.1866626942942263e-05 1.0679849003197939e-07 0.0000000000000000e+00 1.0679849003197939e-07 1.1865980475068455e-05 0.0000000000000000e+00 0.0000000000000000e+00 0.0000000000000000e+00 0.0000000000000000e+00  1.1916890413549232e-05 1.3394280236593977e-07 0.0000000000000000e+00 1.3394280236593977e-07 1.1715023770501374e-05 0.0000000000000000e+00 0.0000000000000000e+00 0.0000000000000000e+00 0.0000000000000000e+00  1.1963123941431398e-05 1.3109439175755666e-07 0.0000000000000000e+00 1.3109439175755666e-07 1.1573728991774548e-05 0.0000000000000000e+00 0.0000000000000000e+00 0.0000000000000000e+00 0.0000000000000000e+00  1.2002977284204542e-05 1.0367058894918650e-07 0.0000000000000000e+00 1.0367058894918650e-07 1.1446017155956370e-05 0.0000000000000000e+00 0.0000000000000000e+00 0.0000000000000000e+00 0.0000000000000000e+00  1.2034189301006804e-05 5.7327968473185306e-08 0.0000000000000000e+00 5.7327968473185306e-08 1.1335843236808938e-05 0.0000000000000000e+00 0.0000000000000000e+00 0.0000000000000000e+00 0.0000000000000000e+00  1.2054880314522880e-05 -2.3882452048748231e-09 0.0000000000000000e+00 -2.3882452048748231e-09 1.1246704891037975e-05 0.0000000000000000e+00 0.0000000000000000e+00 0.0000000000000000e+00 0.0000000000000000e+00  1.2063788356218388e-05 -7.0289486726455773e-08 0.0000000000000000e+00 -7.0289486726455773e-08 1.1181229067375681e-05 0.0000000000000000e+00 0.0000000000000000e+00 0.0000000000000000e+00 0.0000000000000000e+00  1.2060379323126733e-05 -1.4169128559044006e-07 0.0000000000000000e+00 -1.4169128559044006e-07 1.1140926975463901e-05 0.0000000000000000e+00 0.0000000000000000e+00 0.0000000000000000e+00 0.0000000000000000e+00  1.2044851685841505e-05 -2.1250593340475893e-07 0.0000000000000000e+00 -2.1250593340475893e-07 1.1126104548745683e-05 0.0000000000000000e+00 0.0000000000000000e+00 0.0000000000000000e+00 0.0000000000000000e+00  1.2018064561916742e-05 -2.7930197516529100e-07 0.0000000000000000e+00 -2.7930197516529100e-07 1.1135898511838524e-05 0.0000000000000000e+00 0.0000000000000000e+00 0.0000000000000000e+00 0.0000000000000000e+00  1.1981416006116158e-05 -3.3933881247390906e-07 0.0000000000000000e+00 -3.3933881247390906e-07 1.1168405128531188e-05 0.0000000000000000e+00 0.0000000000000000e+00 0.0000000000000000e+00 0.0000000000000000e+00  1.1936693263668856e-05 -3.9057741845051522e-07 0.0000000000000000e+00 -3.9057741845051522e-07 1.1220871324072207e-05 0.0000000000000000e+00 0.0000000000000000e+00 0.0000000000000000e+00 0.0000000000000000e+00  1.1885912032634499e-05 -4.3166480756064741e-07 0.0000000000000000e+00 -4.3166480756064741e-07 1.1289921741221104e-05 0.0000000000000000e+00 0.0000000000000000e+00 0.0000000000000000e+00 0.0000000000000000e+00  1.1831158838464258e-05 -4.6188945696645035e-07 0.0000000000000000e+00 -4.6188945696645035e-07 1.1371798388887708e-05 0.0000000000000000e+00 0.0000000000000000e+00 0.0000000000000000e+00 0.0000000000000000e+00  1.1774449146371040e-05 -4.8110689629166909e-07 0.0000000000000000e+00 -4.8110689629166909e-07 1.1462591776628417e-05 0.0000000000000000e+00 0.0000000000000000e+00 0.0000000000000000e+00 0.0000000000000000e+00  1.1717612611054585e-05 -4.8963862465508530e-07 0.0000000000000000e+00 -4.8963862465508530e-07 1.1558444824440572e-05 0.0000000000000000e+00 0.0000000000000000e+00 0.0000000000000000e+00 0.0000000000000000e+00  1.1662214582803313e-05 -4.8815235196199511e-07 0.0000000000000000e+00 -4.8815235196199511e-07 1.1655714624390411e-05 0.0000000000000000e+00 0.0000000000000000e+00 0.0000000000000000e+00 0.0000000000000000e+00  1.1609518961999559e-05 -4.7753585340727262e-07 0.0000000000000000e+00 -4.7753585340727262e-07 1.1751082929791745e-05 0.0000000000000000e+00 0.0000000000000000e+00 0.0000000000000000e+00 0.0000000000000000e+00  1.1560491960171854e-05 -4.5877904221914220e-07 0.0000000000000000e+00 -4.5877904221914220e-07 1.1841613686636534e-05 0.0000000000000000e+00 0.0000000000000000e+00 0.0000000000000000e+00 0.0000000000000000e+00  1.1515840331662603e-05 -4.3287831681112735e-07 0.0000000000000000e+00 -4.3287831681112735e-07 1.1924763749763018e-05 0.0000000000000000e+00 0.0000000000000000e+00 0.0000000000000000e+00 0.0000000000000000e+00  1.1476072585000464e-05 -4.0077381345495052e-07 0.0000000000000000e+00 -4.0077381345495052e-07 1.1998359505536866e-05 0.0000000000000000e+00 0.0000000000000000e+00 0.0000000000000000e+00 0.0000000000000000e+00  1.1441568766833039e-05 -3.6332475134228340e-07 0.0000000000000000e+00 -3.6332475134228340e-07 1.2060556043188645e-05 0.0000000000000000e+00 0.0000000000000000e+00 0.0000000000000000e+00 0.0000000000000000e+00  1.1412644221853777e-05 -3.2132198982439073e-07 0.0000000000000000e+00 -3.2132198982439073e-07 1.2109796061882070e-05 0.0000000000000000e+00 0.0000000000000000e+00 0.0000000000000000e+00 0.0000000000000000e+00  1.1389595116598012e-05 -2.7553167979390829e-07 0.0000000000000000e+00 -2.7553167979390829e-07 1.2144783004891176e-05 0.0000000000000000e+00 0.0000000000000000e+00 0.0000000000000000e+00 0.0000000000000000e+00  1.1372717736797977e-05 -2.2676055331761575e-07 0.0000000000000000e+00 -2.2676055331761575e-07 1.2164477798559968e-05 0.0000000000000000e+00 0.0000000000000000e+00 0.0000000000000000e+00 0.0000000000000000e+00  1.1362298644184736e-05 -1.7593239834705976e-07 0.0000000000000000e+00 -1.7593239834705976e-07 1.2168122183177808e-05 0.0000000000000000e+00 0.0000000000000000e+00 0.0000000000000000e+00 0.0000000000000000e+00  1.1358577844198838e-05 -1.2416639275312446e-07 0.0000000000000000e+00 -1.2416639275312446e-07 1.2155285010478842e-05 0.0000000000000000e+00 0.0000000000000000e+00 0.0000000000000000e+00 0.0000000000000000e+00  1.1361691683587547e-05 -7.2850484326499731e-08 0.0000000000000000e+00 -7.2850484326499731e-08 1.2125921729355999e-05 0.0000000000000000e+00 0.0000000000000000e+00 0.0000000000000000e+00 0.0000000000000000e+00  1.1371606233713142e-05 -2.3705817697738952e-08 0.0000000000000000e+00 -2.3705817697738952e-08 1.2080431818706899e-05 0.0000000000000000e+00 0.0000000000000000e+00 0.0000000000000000e+00 0.0000000000000000e+00  1.1388055702305053e-05 2.1159959017132051e-08 0.0000000000000000e+00 2.1159959017132051e-08 1.2019694105635018e-05 0.0000000000000000e+00 0.0000000000000000e+00 0.0000000000000000e+00 0.0000000000000000e+00  1.1410504236754824e-05 5.9213231199011919e-08 0.0000000000000000e+00 5.9213231199011919e-08 1.1945055746536058e-05 0.0000000000000000e+00 0.0000000000000000e+00 0.0000000000000000e+00 0.0000000000000000e+00  1.1438153155636358e-05 8.7476013995842742e-08 0.0000000000000000e+00 8.7476013995842742e-08 1.1858247756586759e-05 0.0000000000000000e+00 0.0000000000000000e+00 0.0000000000000000e+00 0.0000000000000000e+00  1.1470017850661986e-05 1.0254602244864901e-07 0.0000000000000000e+00 1.0254602244864901e-07 1.1761200225224462e-05 0.0000000000000000e+00 0.0000000000000000e+00 0.0000000000000000e+00 0.0000000000000000e+00  1.1505095321812398e-05 1.0069012982570864e-07 0.0000000000000000e+00 1.0069012982570864e-07 1.1655738797671619e-05 0.0000000000000000e+00 0.0000000000000000e+00 0.0000000000000000e+00 0.0000000000000000e+00  1.1542628885622132e-05 7.8013829626683521e-08 0.0000000000000000e+00 7.8013829626683521e-08 1.1543171537960653e-05 0.0000000000000000e+00 0.0000000000000000e+00 0.0000000000000000e+00 0.0000000000000000e+00  1.1821794235874503e-05 6.0827236753443710e-08 0.0000000000000000e+00 6.0827236753443710e-08 1.1821524645726547e-05 0.0000000000000000e+00 0.0000000000000000e+00 0.0000000000000000e+00 0.0000000000000000e+00  1.1861623396636045e-05 9.0151401076165305e-08 0.0000000000000000e+00 9.0151401076165305e-08 1.1702006520405312e-05 0.0000000000000000e+00 0.0000000000000000e+00 0.0000000000000000e+00 0.0000000000000000e+00  1.1899480151919912e-05 9.1374894300226324e-08 0.0000000000000000e+00 9.1374894300226324e-08 1.1586947666207731e-05 0.0000000000000000e+00 0.0000000000000000e+00 0.0000000000000000e+00 0.0000000000000000e+00  1.1933316155946974e-05 7.0277211115116131e-08 0.0000000000000000e+00 7.0277211115116131e-08 1.1479861489013662e-05 0.0000000000000000e+00 0.0000000000000000e+00 0.0000000000000000e+00 0.0000000000000000e+00  1.1960896901525136e-05 3.2378527144592130e-08 0.0000000000000000e+00 3.2378527144592130e-08 1.1384836824973416e-05 0.0000000000000000e+00 0.0000000000000000e+00 0.0000000000000000e+00 0.0000000000000000e+00  1.1980280083896736e-05 -1.7256748235790721e-08 0.0000000000000000e+00 -1.7256748235790721e-08 1.1305752952882462e-05 0.0000000000000000e+00 0.0000000000000000e+00 0.0000000000000000e+00 0.0000000000000000e+00  1.1990100804147448e-05 -7.4105884887848598e-08 0.0000000000000000e+00 -7.4105884887848598e-08 1.1245735775949053e-05 0.0000000000000000e+00 0.0000000000000000e+00 0.0000000000000000e+00 0.0000000000000000e+00  1.1989685902018141e-05 -1.3420408097936731e-07 0.0000000000000000e+00 -1.3420408097936731e-07 1.1206855310481900e-05 0.0000000000000000e+00 0.0000000000000000e+00 0.0000000000000000e+00 0.0000000000000000e+00  1.1979049551661141e-05 -1.9414318767104177e-07 0.0000000000000000e+00 -1.9414318767104177e-07 1.1190011714757012e-05 0.0000000000000000e+00 0.0000000000000000e+00 0.0000000000000000e+00 0.0000000000000000e+00  1.1958814266484259e-05 -2.5107076706595180e-07 0.0000000000000000e+00 -2.5107076706595180e-07 1.1194958361220638e-05 0.0000000000000000e+00 0.0000000000000000e+00 0.0000000000000000e+00 0.0000000000000000e+00  1.1930090125667342e-05 -3.0269041165144311e-07 0.0000000000000000e+00 -3.0269041165144311e-07 1.1220418168549120e-05 0.0000000000000000e+00 0.0000000000000000e+00 0.0000000000000000e+00 0.0000000000000000e+00  1.1894335099134332e-05 -3.4725747080717495e-07 0.0000000000000000e+00 -3.4725747080717495e-07 1.1264258370322620e-05 0.0000000000000000e+00 0.0000000000000000e+00 0.0000000000000000e+00 0.0000000000000000e+00  1.1853212209152850e-05 -3.8356301364407416e-07 0.0000000000000000e+00 -3.8356301364407416e-07 1.1323696498907534e-05 0.0000000000000000e+00 0.0000000000000000e+00 0.0000000000000000e+00 0.0000000000000000e+00  1.1808454932831489e-05 -4.1090049186280675e-07 0.0000000000000000e+00 -4.1090049186280675e-07 1.1395515908170986e-05 0.0000000000000000e+00 0.0000000000000000e+00 0.0000000000000000e+00 0.0000000000000000e+00  1.1761749870111866e-05 -4.2901270519959449e-07 0.0000000000000000e+00 -4.2901270519959449e-07 1.1476273031261701e-05 0.0000000000000000e+00 0.0000000000000000e+00 0.0000000000000000e+00 0.0000000000000000e+00  1.1714644015866326e-05 -4.3802047951260686e-07 0.0000000000000000e+00 -4.3802047951260686e-07 1.1562481843074442e-05 0.0000000000000000e+00 0.0000000000000000e+00 0.0000000000000000e+00 0.0000000000000000e+00  1.1668481941781695e-05 -4.3833825097441204e-07 0.0000000000000000e+00 -4.3833825097441204e-07 1.1650764674638902e-05 0.0000000000000000e+00 0.0000000000000000e+00 0.0000000000000000e+00 0.0000000000000000e+00  1.1624375288810591e-05 -4.3058475965933726e-07 0.0000000000000000e+00 -4.3058475965933726e-07 1.1737963114092225e-05 0.0000000000000000e+00 0.0000000000000000e+00 0.0000000000000000e+00 0.0000000000000000e+00  1.1583203280602055e-05 -4.1549859721878202e-07 0.0000000000000000e+00 -4.1549859721878202e-07 1.1821208078871293e-05 0.0000000000000000e+00 0.0000000000000000e+00 0.0000000000000000e+00 0.0000000000000000e+00  1.1545639073728640e-05 -3.9386801984092810e-07 0.0000000000000000e+00 -3.9386801984092810e-07 1.1897953562071262e-05 0.0000000000000000e+00 0.0000000000000000e+00 0.0000000000000000e+00 0.0000000000000000e+00  1.1512193467480913e-05 -3.6648228802427551e-07 0.0000000000000000e+00 -3.6648228802427551e-07 1.1965983095203832e-05 0.0000000000000000e+00 0.0000000000000000e+00 0.0000000000000000e+00 0.0000000000000000e+00  1.1483265518956463e-05 -3.3410836339275241e-07 0.0000000000000000e+00 -3.3410836339275241e-07 1.2023400782801850e-05 0.0000000000000000e+00 0.0000000000000000e+00 0.0000000000000000e+00 0.0000000000000000e+00  1.1459189328293225e-05 -2.9749293040271481e-07 0.0000000000000000e+00 -2.9749293040271481e-07 1.2068619381795385e-05 0.0000000000000000e+00 0.0000000000000000e+00 0.0000000000000000e+00 0.0000000000000000e+00  1.1440267629005126e-05 -2.5738632945008830e-07 0.0000000000000000e+00 -2.5738632945008830e-07 1.2100356337386897e-05 0.0000000000000000e+00 0.0000000000000000e+00 0.0000000000000000e+00 0.0000000000000000e+00  1.1426785442453008e-05 -2.1458281627076883e-07 0.0000000000000000e+00 -2.1458281627076883e-07 1.2117645375297719e-05 0.0000000000000000e+00 0.0000000000000000e+00 0.0000000000000000e+00 0.0000000000000000e+00  1.1419000376556706e-05 -1.6997099008870724e-07 0.0000000000000000e+00 -1.6997099008870724e-07 1.2119866816223997e-05 0.0000000000000000e+00 0.0000000000000000e+00 0.0000000000000000e+00 0.0000000000000000e+00  1.1417109685696828e-05 -1.2458926614741864e-07 0.0000000000000000e+00 -1.2458926614741864e-07 1.2106794791657075e-05 0.0000000000000000e+00 0.0000000000000000e+00 0.0000000000000000e+00 0.0000000000000000e+00  1.1421197763676396e-05 -7.9683558291859971e-08 0.0000000000000000e+00 -7.9683558291859971e-08 1.2078654292916474e-05 0.0000000000000000e+00 0.0000000000000000e+00 0.0000000000000000e+00 0.0000000000000000e+00  1.1431171518590976e-05 -3.6767204005955740e-08 0.0000000000000000e+00 -3.6767204005955740e-08 1.2036175391837897e-05 0.0000000000000000e+00 0.0000000000000000e+00 0.0000000000000000e+00 0.0000000000000000e+00  1.1446695666402773e-05 2.3144730136090007e-09 0.0000000000000000e+00 2.3144730136090007e-09 1.1980625659927579e-05 0.0000000000000000e+00 0.0000000000000000e+00 0.0000000000000000e+00 0.0000000000000000e+00  1.1467146008445567e-05 3.5312296105556545e-08 0.0000000000000000e+00 3.5312296105556545e-08 1.1913794535659668e-05 0.0000000000000000e+00 0.0000000000000000e+00 0.0000000000000000e+00 0.0000000000000000e+00  1.1491606644857291e-05 5.9495310079846279e-08 0.0000000000000000e+00 5.9495310079846279e-08 1.1837895180014258e-05 0.0000000000000000e+00 0.0000000000000000e+00 0.0000000000000000e+00 0.0000000000000000e+00  1.1518946728374812e-05 7.1579481821238352e-08 0.0000000000000000e+00 7.1579481821238352e-08 1.1755341024101158e-05 0.0000000000000000e+00 0.0000000000000000e+00 0.0000000000000000e+00 0.0000000000000000e+00  1.1548021993680325e-05 6.7700243529021202e-08 0.0000000000000000e+00 6.7700243529021202e-08 1.1668347465463412e-05 0.0000000000000000e+00 0.0000000000000000e+00 0.0000000000000000e+00 0.0000000000000000e+00  1.1578071022748177e-05 4.3446176145394311e-08 0.0000000000000000e+00 4.3446176145394311e-08 1.1578303393152532e-05 0.0000000000000000e+00 0.0000000000000000e+00 0.0000000000000000e+00 0.0000000000000000e+00  1.1776169111861025e-05 2.6003714105068465e-08 0.0000000000000000e+00 2.6003714105068465e-08 1.1776367350635754e-05 0.0000000000000000e+00 0.0000000000000000e+00 0.0000000000000000e+00 0.0000000000000000e+00  1.1805965018354651e-05 5.5563971293188068e-08 0.0000000000000000e+00 5.5563971293188068e-08 1.1687055229390387e-05 0.0000000000000000e+00 0.0000000000000000e+00 0.0000000000000000e+00 0.0000000000000000e+00  1.1835994499152198e-05 5.8606046504253163e-08 0.0000000000000000e+00 5.8606046504253163e-08 1.1596143038622048e-05 0.0000000000000000e+00 0.0000000000000000e+00 0.0000000000000000e+00 0.0000000000000000e+00  1.1864158805184723e-05 4.1593349943556371e-08 0.0000000000000000e+00 4.1593349943556371e-08 1.1507410400038956e-05 0.0000000000000000e+00 0.0000000000000000e+00 0.0000000000000000e+00 0.0000000000000000e+00  1.1888072680799259e-05 9.9746636149364519e-09 0.0000000000000000e+00 9.9746636149364519e-09 1.1425575982113438e-05 0.0000000000000000e+00 0.0000000000000000e+00 0.0000000000000000e+00 0.0000000000000000e+00  1.1905711881537663e-05 -3.1672008426126721e-08 0.0000000000000000e+00 -3.1672008426126721e-08 1.1355180142137471e-05 0.0000000000000000e+00 0.0000000000000000e+00 0.0000000000000000e+00 0.0000000000000000e+00  1.1915688169768476e-05 -7.9490377109838822e-08 0.0000000000000000e+00 -7.9490377109838822e-08 1.1299956117809516e-05 0.0000000000000000e+00 0.0000000000000000e+00 0.0000000000000000e+00 0.0000000000000000e+00  1.1917314769234277e-05 -1.3020953336054415e-07 0.0000000000000000e+00 -1.3020953336054415e-07 1.1262523787061235e-05 0.0000000000000000e+00 0.0000000000000000e+00 0.0000000000000000e+00 0.0000000000000000e+00  1.1910556958392779e-05 -1.8105197100215112e-07 0.0000000000000000e+00 -1.8105197100215112e-07 1.1244295535563147e-05 0.0000000000000000e+00 0.0000000000000000e+00 0.0000000000000000e+00 0.0000000000000000e+00  1.1895925008488138e-05 -2.2968409581402405e-07 0.0000000000000000e+00 -2.2968409581402405e-07 1.1245518754110116e-05 0.0000000000000000e+00 0.0000000000000000e+00 0.0000000000000000e+00 0.0000000000000000e+00  1.1874344105218791e-05 -2.7419544869881072e-07 0.0000000000000000e+00 -2.7419544869881072e-07 1.1265402268554694e-05 0.0000000000000000e+00 0.0000000000000000e+00 0.0000000000000000e+00 0.0000000000000000e+00  1.1847021024102008e-05 -3.1309042681071219e-07 0.0000000000000000e+00 -3.1309042681071219e-07 1.1302290109897766e-05 0.0000000000000000e+00 0.0000000000000000e+00 0.0000000000000000e+00 0.0000000000000000e+00  1.1815318339276033e-05 -3.4527920153425829e-07 0.0000000000000000e+00 -3.4527920153425829e-07 1.1353857595139647e-05 0.0000000000000000e+00 0.0000000000000000e+00 0.0000000000000000e+00 0.0000000000000000e+00  1.1780642705268118e-05 -3.7005917635799572e-07 0.0000000000000000e+00 -3.7005917635799572e-07 1.1417311668685556e-05 0.0000000000000000e+00 0.0000000000000000e+00 0.0000000000000000e+00 0.0000000000000000e+00  1.1744351905636768e-05 -3.8708291434970277e-07 0.0000000000000000e+00 -3.8708291434970277e-07 1.1489581664595272e-05 0.0000000000000000e+00 0.0000000000000000e+00 0.0000000000000000e+00 0.0000000000000000e+00  1.1707684298868621e-05 -3.9631248328140371e-07 0.0000000000000000e+00 -3.9631248328140371e-07 1.1567489730867117e-05 0.0000000000000000e+00 0.0000000000000000e+00 0.0000000000000000e+00 0.0000000000000000e+00  1.1671713043963320e-05 -3.9796341825242880e-07 0.0000000000000000e+00 -3.9796341825242880e-07 1.1647893192952892e-05 0.0000000000000000e+00 0.0000000000000000e+00 0.0000000000000000e+00 0.0000000000000000e+00  1.1637325664180299e-05 -3.9244378988001399e-07 0.0000000000000000e+00 -3.9244378988001399e-07 1.1727794610295717e-05 0.0000000000000000e+00 0.0000000000000000e+00 0.0000000000000000e+00 0.0000000000000000e+00  1.1605227168588650e-05 -3.8029497286149536e-07 0.0000000000000000e+00 -3.8029497286149536e-07 1.1804419152195424e-05 0.0000000000000000e+00 0.0000000000000000e+00 0.0000000000000000e+00 0.0000000000000000e+00  1.1575962466706042e-05 -3.6214052401515478e-07 0.0000000000000000e+00 -3.6214052401515478e-07 1.1875262768705982e-05 0.0000000000000000e+00 0.0000000000000000e+00 0.0000000000000000e+00 0.0000000000000000e+00  1.1549951680847123e-05 -3.3864821040898271e-07 0.0000000000000000e+00 -3.3864821040898271e-07 1.1938117872249260e-05 0.0000000000000000e+00 0.0000000000000000e+00 0.0000000000000000e+00 0.0000000000000000e+00  1.1527530627319038e-05 -3.1050803445769140e-07 0.0000000000000000e+00 -3.1050803445769140e-07 1.1991085341096246e-05 0.0000000000000000e+00 0.0000000000000000e+00 0.0000000000000000e+00 0.0000000000000000e+00  1.1508988446424466e-05 -2.7842662054511637e-07 0.0000000000000000e+00 -2.7842662054511637e-07 1.2032582291946124e-05 0.0000000000000000e+00 0.0000000000000000e+00 0.0000000000000000e+00 0.0000000000000000e+00  1.1494595099396221e-05 -2.4313614546370060e-07 0.0000000000000000e+00 -2.4313614546370060e-07 1.2061354223707190e-05 0.0000000000000000e+00 0.0000000000000000e+00 0.0000000000000000e+00 0.0000000000000000e+00  1.1484612981743800e-05 -2.0541462504575964e-07 0.0000000000000000e+00 -2.0541462504575964e-07 1.2076498041738807e-05 0.0000000000000000e+00 0.0000000000000000e+00 0.0000000000000000e+00 0.0000000000000000e+00  1.1479288880791839e-05 -1.6611416514994753e-07 0.0000000000000000e+00 -1.6611416514994753e-07 1.2077499489768882e-05 0.0000000000000000e+00 0.0000000000000000e+00 0.0000000000000000e+00 0.0000000000000000e+00  1.1478824636237458e-05 -1.2619491908332856e-07 0.0000000000000000e+00 -1.2619491908332856e-07 1.2064284942868069e-05 0.0000000000000000e+00 0.0000000000000000e+00 0.0000000000000000e+00 0.0000000000000000e+00  1.1483327094591445e-05 -8.6764969220684551e-08 0.0000000000000000e+00 -8.6764969220684551e-08 1.2037283376982065e-05 0.0000000000000000e+00 0.0000000000000000e+00 0.0000000000000000e+00 0.0000000000000000e+00  1.1492740680003690e-05 -4.9129953349274485e-08 0.0000000000000000e+00 -4.9129953349274485e-08 1.1997489209073723e-05 0.0000000000000000e+00 0.0000000000000000e+00 0.0000000000000000e+00 0.0000000000000000e+00  1.1506770136600618e-05 -1.4860368501304367e-08 0.0000000000000000e+00 -1.4860368501304367e-08 1.1946509657362753e-05 0.0000000000000000e+00 0.0000000000000000e+00 0.0000000000000000e+00 0.0000000000000000e+00  1.1524808450676348e-05 1.4112499081882274e-08 0.0000000000000000e+00 1.4112499081882274e-08 1.1886570093699407e-05 0.0000000000000000e+00 0.0000000000000000e+00 0.0000000000000000e+00 0.0000000000000000e+00  1.1545896384748646e-05 3.5361800561273689e-08 0.0000000000000000e+00 3.5361800561273689e-08 1.1820437720349260e-05 0.0000000000000000e+00 0.0000000000000000e+00 0.0000000000000000e+00 0.0000000000000000e+00  1.1568757178733001e-05 4.5787707563075444e-08 0.0000000000000000e+00 4.5787707563075444e-08 1.1751205374234154e-05 0.0000000000000000e+00 0.0000000000000000e+00 0.0000000000000000e+00 0.0000000000000000e+00  1.1591980806312222e-05 4.1413349843520980e-08 0.0000000000000000e+00 4.1413349843520980e-08 1.1681845548792970e-05 0.0000000000000000e+00 0.0000000000000000e+00 0.0000000000000000e+00 0.0000000000000000e+00  1.1614524520392375e-05 1.7135833858250971e-08 0.0000000000000000e+00 1.7135833858250971e-08 1.1614358503989490e-05 0.0000000000000000e+00 0.0000000000000000e+00 0.0000000000000000e+00 0.0000000000000000e+00  1.1731589487980204e-05 2.2548929387076045e-09 0.0000000000000000e+00 2.2548929387076045e-09 1.1732414815062525e-05 0.0000000000000000e+00 0.0000000000000000e+00 0.0000000000000000e+00 0.0000000000000000e+00  1.1751617942613386e-05 2.9696805349898698e-08 0.0000000000000000e+00 2.9696805349898698e-08 1.1672431679747989e-05 0.0000000000000000e+00 0.0000000000000000e+00 0.0000000000000000e+00 0.0000000000000000e+00  1.1774214187576273e-05 3.2418564114451681e-08 0.0000000000000000e+00 3.2418564114451681e-08 1.1603458488542432e-05 0.0000000000000000e+00 0.0000000000000000e+00 0.0000000000000000e+00 0.0000000000000000e+00  1.1796693141397638e-05 1.7656695282535333e-08 0.0000000000000000e+00 1.7656695282535333e-08 1.1530653585010801e-05 0.0000000000000000e+00 0.0000000000000000e+00 0.0000000000000000e+00 0.0000000000000000e+00  1.1816379222354102e-05 -9.3853165956644232e-09 0.0000000000000000e+00 -9.3853165956644232e-09 1.1459976369905065e-05 0.0000000000000000e+00 0.0000000000000000e+00 0.0000000000000000e+00 0.0000000000000000e+00  1.1831258155761207e-05 -4.4763126591109383e-08 0.0000000000000000e+00 -4.4763126591109383e-08 1.1396887644731241e-05 0.0000000000000000e+00 0.0000000000000000e+00 0.0000000000000000e+00 0.0000000000000000e+00  1.1840098630917144e-05 -8.5347638803887287e-08 0.0000000000000000e+00 -8.5347638803887287e-08 1.1345784142161363e-05 0.0000000000000000e+00 0.0000000000000000e+00 0.0000000000000000e+00 0.0000000000000000e+00  1.1842394400220022e-05 -1.2854672800665316e-07 0.0000000000000000e+00 -1.2854672800665316e-07 1.1309781225228501e-05 0.0000000000000000e+00 0.0000000000000000e+00 0.0000000000000000e+00 0.0000000000000000e+00  1.1838232275408923e-05 -1.7214776359095207e-07 0.0000000000000000e+00 -1.7214776359095207e-07 1.1290693544802706e-05 0.0000000000000000e+00 0.0000000000000000e+00 0.0000000000000000e+00 0.0000000000000000e+00  1.1828141379504030e-05 -2.1424711643851647e-07 0.0000000000000000e+00 -2.1424711643851647e-07 1.1289131274137910e-05 0.0000000000000000e+00 0.0000000000000000e+00 0.0000000000000000e+00 0.0000000000000000e+00  1.1812952095059081e-05 -2.5323064091015897e-07 0.0000000000000000e+00 -2.5323064091015897e-07 1.1304655470610471e-05 0.0000000000000000e+00 0.0000000000000000e+00 0.0000000000000000e+00 0.0000000000000000e+00  1.1793673029725024e-05 -2.8777632710464379e-07 0.0000000000000000e+00 -2.8777632710464379e-07 1.1335961114371106e-05 0.0000000000000000e+00 0.0000000000000000e+00 0.0000000000000000e+00 0.0000000000000000e+00  1.1771387395513551e-05 -3.1686057150657679e-07 0.0000000000000000e+00 -3.1686057150657679e-07 1.1381069584637714e-05 0.0000000000000000e+00 0.0000000000000000e+00 0.0000000000000000e+00 0.0000000000000000e+00  1.1747168599751872e-05 -3.3975765578134066e-07 0.0000000000000000e+00 -3.3975765578134066e-07 1.1437518454340302e-05 0.0000000000000000e+00 0.0000000000000000e+00 0.0000000000000000e+00 0.0000000000000000e+00  1.1722015085683612e-05 -3.5602786331505377e-07 0.0000000000000000e+00 -3.5602786331505377e-07 1.1502539428075820e-05 0.0000000000000000e+00 0.0000000000000000e+00 0.0000000000000000e+00 0.0000000000000000e+00  1.1696804807869390e-05 -3.6549368228849110e-07 0.0000000000000000e+00 -3.6549368228849110e-07 1.1573217188276865e-05 0.0000000000000000e+00 0.0000000000000000e+00 0.0000000000000000e+00 0.0000000000000000e+00  1.1672269540579981e-05 -3.6820628026221905e-07 0.0000000000000000e+00 -3.6820628026221905e-07 1.1646623934511202e-05 0.0000000000000000e+00 0.0000000000000000e+00 0.0000000000000000e+00 0.0000000000000000e+00  1.1648988384658780e-05 -3.6440614344748672e-07 0.0000000000000000e+00 -3.6440614344748672e-07 1.1719926842596702e-05 0.0000000000000000e+00 0.0000000000000000e+00 0.0000000000000000e+00 0.0000000000000000e+00  1.1627398519884189e-05 -3.5448253499342694e-07 0.0000000000000000e+00 -3.5448253499342694e-07 1.1790468453491298e-05 0.0000000000000000e+00 0.0000000000000000e+00 0.0000000000000000e+00 0.0000000000000000e+00  1.1607819752090249e-05 -3.3893628788692838e-07 0.0000000000000000e+00 -3.3893628788692838e-07 1.1855822801158782e-05 0.0000000000000000e+00 0.0000000000000000e+00 0.0000000000000000e+00 0.0000000000000000e+00  1.1590488075467003e-05 -3.1834953294814458e-07 0.0000000000000000e+00 -3.1834953294814458e-07 1.1913832487778492e-05 0.0000000000000000e+00 0.0000000000000000e+00 0.0000000000000000e+00 0.0000000000000000e+00  1.1575592602222382e-05 -2.9336451310155040e-07 0.0000000000000000e+00 -2.9336451310155040e-07 1.1962633543564000e-05 0.0000000000000000e+00 0.0000000000000000e+00 0.0000000000000000e+00 0.0000000000000000e+00  1.1563309961245050e-05 -2.6467199188996007e-07 0.0000000000000000e+00 -2.6467199188996007e-07 1.2000675546172265e-05 0.0000000000000000e+00 0.0000000000000000e+00 0.0000000000000000e+00 0.0000000000000000e+00  1.1553830620238208e-05 -2.3300830740023868e-07 0.0000000000000000e+00 -2.3300830740023868e-07 1.2026744097425182e-05 0.0000000000000000e+00 0.0000000000000000e+00 0.0000000000000000e+00 0.0000000000000000e+00  1.1547372369357574e-05 -1.9915921288866191e-07 0.0000000000000000e+00 -1.9915921288866191e-07 1.2039991517824719e-05 0.0000000000000000e+00 0.0000000000000000e+00 0.0000000000000000e+00 0.0000000000000000e+00  1.1544177146287910e-05 -1.6396859384933268e-07 0.0000000000000000e+00 -1.6396859384933268e-07 1.2039979775157584e-05 0.0000000000000000e+00 0.0000000000000000e+00 0.0000000000000000e+00 0.0000000000000000e+00  1.1544488209975456e-05 -1.2835124151716100e-07 0.0000000000000000e+00 -1.2835124151716100e-07 1.2026737424790341e-05 0.0000000000000000e+00 0.0000000000000000e+00 0.0000000000000000e+00 0.0000000000000000e+00  1.1548505258606918e-05 -9.3311408873636749e-08 0.0000000000000000e+00 -9.3311408873636749e-08 1.2000829683704524e-05 0.0000000000000000e+00 0.0000000000000000e+00 0.0000000000000000e+00 0.0000000000000000e+00  1.1556315734353012e-05 -5.9973284987638473e-08 0.0000000000000000e+00 -5.9973284987638486e-08 1.1963437104887132e-05 0.0000000000000000e+00 0.0000000000000000e+00 0.0000000000000000e+00 0.0000000000000000e+00  1.1567802477562029e-05 -2.9636031988311682e-08 0.0000000000000000e+00 -2.9636031988311675e-08 1.1916432211789325e-05 0.0000000000000000e+00 0.0000000000000000e+00 0.0000000000000000e+00 0.0000000000000000e+00  1.1582533676014723e-05 -3.8743010251949889e-09 0.0000000000000000e+00 -3.8743010251949889e-09 1.1862432142502501e-05 0.0000000000000000e+00 0.0000000000000000e+00 0.0000000000000000e+00 0.0000000000000000e+00  1.1599656617932553e-05 1.5288990099453383e-08 0.0000000000000000e+00 1.5288990099453383e-08 1.1804785801123334e-05 0.0000000000000000e+00 0.0000000000000000e+00 0.0000000000000000e+00 0.0000000000000000e+00  1.1617834949687273e-05 2.5111010461347449e-08 0.0000000000000000e+00 2.5111010461347449e-08 1.1747437064006075e-05 0.0000000000000000e+00 0.0000000000000000e+00 0.0000000000000000e+00 0.0000000000000000e+00  1.1635302627863047e-05 2.1712839805001983e-08 0.0000000000000000e+00 2.1712839805001983e-08 1.1694556221276755e-05 0.0000000000000000e+00 0.0000000000000000e+00 0.0000000000000000e+00 0.0000000000000000e+00  1.1650319234218850e-05 -6.6534253702271336e-10 0.0000000000000000e+00 -6.6534253702271336e-10 1.1649619619708447e-05 0.0000000000000000e+00 0.0000000000000000e+00 0.0000000000000000e+00 0.0000000000000000e+00  1.1690811260439617e-05 -1.0362849733609434e-08 0.0000000000000000e+00 -1.0362849733609434e-08 1.1692477508971404e-05 0.0000000000000000e+00 0.0000000000000000e+00 0.0000000000000000e+00 0.0000000000000000e+00  1.1701407735621076e-05 1.2107374575239429e-08 0.0000000000000000e+00 1.2107374575239429e-08 1.1660469495311933e-05 0.0000000000000000e+00 0.0000000000000000e+00 0.0000000000000000e+00 0.0000000000000000e+00  1.1716742907355716e-05 1.2801374723498574e-08 0.0000000000000000e+00 1.2801374723498574e-08 1.1610585396412609e-05 0.0000000000000000e+00 0.0000000000000000e+00 0.0000000000000000e+00 0.0000000000000000e+00  1.1732795099134314e-05 -8.4411360425193324e-10 0.0000000000000000e+00 -8.4411360425193324e-10 1.1551016137880776e-05 0.0000000000000000e+00 0.0000000000000000e+00 0.0000000000000000e+00 0.0000000000000000e+00  1.1746715322024594e-05 -2.4428748962710902e-08 0.0000000000000000e+00 -2.4428748962710902e-08 1.1489496346893023e-05 0.0000000000000000e+00 0.0000000000000000e+00 0.0000000000000000e+00 0.0000000000000000e+00  1.1756817921853689e-05 -5.4910083507323915e-08 0.0000000000000000e+00 -5.4910083507323915e-08 1.1432505395891227e-05 0.0000000000000000e+00 0.0000000000000000e+00 0.0000000000000000e+00 0.0000000000000000e+00  1.1762363311998215e-05 -8.9962936000723554e-08 0.0000000000000000e+00 -8.9962936000723554e-08 1.1385040327627056e-05 0.0000000000000000e+00 0.0000000000000000e+00 0.0000000000000000e+00 0.0000000000000000e+00  1.1763309164068098e-05 -1.2762059414904721e-07 0.0000000000000000e+00 -1.2762059414904721e-07 1.1350573815333246e-05 0.0000000000000000e+00 0.0000000000000000e+00 0.0000000000000000e+00 0.0000000000000000e+00  1.1760063472656062e-05 -1.6611208657396932e-07 0.0000000000000000e+00 -1.6611208657396932e-07 1.1331170886104157e-05 0.0000000000000000e+00 0.0000000000000000e+00 0.0000000000000000e+00 0.0000000000000000e+00  1.1753295482368683e-05 -2.0381897551527806e-07 0.0000000000000000e+00 -2.0381897551527806e-07 1.1327663926107205e-05 0.0000000000000000e+00 0.0000000000000000e+00 0.0000000000000000e+00 0.0000000000000000e+00  1.1743799286236644e-05 -2.3928654151319558e-07 0.0000000000000000e+00 -2.3928654151319558e-07 1.1339844039049039e-05 0.0000000000000000e+00 0.0000000000000000e+00 0.0000000000000000e+00 0.0000000000000000e+00  1.1732396694358503e-05 -2.7125305375646417e-07 0.0000000000000000e+00 -2.7125305375646417e-07 1.1366654265245138e-05 0.0000000000000000e+00 0.0000000000000000e+00 0.0000000000000000e+00 0.0000000000000000e+00  1.1719868081737221e-05 -2.9867812204140984e-07 0.0000000000000000e+00 -2.9867812204140984e-07 1.1406378142069458e-05 0.0000000000000000e+00 0.0000000000000000e+00 0.0000000000000000e+00 0.0000000000000000e+00  1.1706904152332977e-05 -3.2076143878924063e-07 0.0000000000000000e+00 -3.2076143878924063e-07 1.1456819043100637e-05 0.0000000000000000e+00 0.0000000000000000e+00 0.0000000000000000e+00 0.0000000000000000e+00  1.1694074854798133e-05 -3.3694884794560742e-07 0.0000000000000000e+00 -3.3694884794560742e-07 1.1515465767413310e-05 0.0000000000000000e+00 0.0000000000000000e+00 0.0000000000000000e+00 0.0000000000000000e+00  1.1681813576323146e-05 -3.4692591846554621e-07 0.0000000000000000e+00 -3.4692591846554621e-07 1.1579640094073190e-05 0.0000000000000000e+00 0.0000000000000000e+00 0.0000000000000000e+00 0.0000000000000000e+00  1.1670415484887690e-05 -3.5060112045887170e-07 0.0000000000000000e+00 -3.5060112045887170e-07 1.1646622926883761e-05 0.0000000000000000e+00 0.0000000000000000e+00 0.0000000000000000e+00 0.0000000000000000e+00  1.1660048811481270e-05 -3.4808177938145178e-07 0.0000000000000000e+00 -3.4808177938145178e-07 1.1713757232861916e-05 0.0000000000000000e+00 0.0000000000000000e+00 0.0000000000000000e+00 0.0000000000000000e+00  1.1650777281017863e-05 -3.3964639154301814e-07 0.0000000000000000e+00 -3.3964639154301814e-07 1.1778527986732402e-05 0.0000000000000000e+00 0.0000000000000000e+00 0.0000000000000000e+00 0.0000000000000000e+00  1.1642591108441447e-05 -3.2571670236834253e-07 0.0000000000000000e+00 -3.2571670236834253e-07 1.1838621440284005e-05 0.0000000000000000e+00 0.0000000000000000e+00 0.0000000000000000e+00 0.0000000000000000e+00  1.1635443234661636e-05 -3.0683227085488301e-07 0.0000000000000000e+00 -3.0683227085488301e-07 1.1891967893003968e-05 0.0000000000000000e+00 0.0000000000000000e+00 0.0000000000000000e+00 0.0000000000000000e+00  1.1629286979639132e-05 -2.8362922040592279e-07 0.0000000000000000e+00 -2.8362922040592279e-07 1.1936773463437916e-05 0.0000000000000000e+00 0.0000000000000000e+00 0.0000000000000000e+00 0.0000000000000000e+00  1.1624111132564583e-05 -2.5682371339379045e-07 0.0000000000000000e+00 -2.5682371339379045e-07 1.1971546984513730e-05 0.0000000000000000e+00 0.0000000000000000e+00 0.0000000000000000e+00 0.0000000000000000e+00  1.1619968657296610e-05 -2.2719961828536872e-07 0.0000000000000000e+00 -2.2719961828536872e-07 1.1995128058546876e-05 0.0000000000000000e+00 0.0000000000000000e+00 0.0000000000000000e+00 0.0000000000000000e+00  1.1616995518585602e-05 -1.9559909904352825e-07 0.0000000000000000e+00 -1.9559909904352825e-07 1.2006721645142231e-05 0.0000000000000000e+00 0.0000000000000000e+00 0.0000000000000000e+00 0.0000000000000000e+00  1.1615416375784005e-05 -1.6291468144226254e-07 0.0000000000000000e+00 -1.6291468144226254e-07 1.2005943561276827e-05 0.0000000000000000e+00 0.0000000000000000e+00 0.0000000000000000e+00 0.0000000000000000e+00  1.1615533701214089e-05 -1.3008202212152830e-07 0.0000000000000000e+00 -1.3008202212152830e-07 1.1992880223297984e-05 0.0000000000000000e+00 0.0000000000000000e+00 0.0000000000000000e+00 0.0000000000000000e+00  1.1617695873148400e-05 -9.8074591565498395e-08 0.0000000000000000e+00 -9.8074591565498395e-08 1.1968165009032838e-05 0.0000000000000000e+00 0.0000000000000000e+00 0.0000000000000000e+00 0.0000000000000000e+00  1.1622237642361069e-05 -6.7905641419919291e-08 0.0000000000000000e+00 -6.7905641419919291e-08 1.1933072575467116e-05 0.0000000000000000e+00 0.0000000000000000e+00 0.0000000000000000e+00 0.0000000000000000e+00  1.1629383402642694e-05 -4.0650910966468129e-08 0.0000000000000000e+00 -4.0650910966468129e-08 1.1889629783092214e-05 0.0000000000000000e+00 0.0000000000000000e+00 0.0000000000000000e+00 0.0000000000000000e+00  1.1639102375277163e-05 -1.7519041523165062e-08 0.0000000000000000e+00 -1.7519041523165062e-08 1.1840734527975871e-05 0.0000000000000000e+00 0.0000000000000000e+00 0.0000000000000000e+00 0.0000000000000000e+00  1.1650911388244701e-05 -1.8768839176506522e-11 0.0000000000000000e+00 -1.8768839176506522e-11 1.1790251851568779e-05 0.0000000000000000e+00 0.0000000000000000e+00 0.0000000000000000e+00 0.0000000000000000e+00  1.1663669186588001e-05 9.7223851191304340e-09 0.0000000000000000e+00 9.7223851191304340e-09 1.1743013693990424e-05 0.0000000000000000e+00 0.0000000000000000e+00 0.0000000000000000e+00 0.0000000000000000e+00  1.1675369221741308e-05 8.4273022908741104e-09 0.0000000000000000e+00 8.4273022908741104e-09 1.1704735739759906e-05 0.0000000000000000e+00 0.0000000000000000e+00 0.0000000000000000e+00 0.0000000000000000e+00  1.1683007993558973e-05 -9.7371721431070651e-09 0.0000000000000000e+00 -9.7371721431070651e-09 1.1681609376375488e-05 0.0000000000000000e+00 0.0000000000000000e+00 0.0000000000000000e+00 0.0000000000000000e+00  1.1657988792185490e-05 -1.2158642534776233e-08 0.0000000000000000e+00 -1.2158642534776233e-08 1.1660851492324266e-05 0.0000000000000000e+00 0.0000000000000000e+00 0.0000000000000000e+00 0.0000000000000000e+00  1.1660234158931279e-05 2.2871276052285361e-09 0.0000000000000000e+00 2.2871276052285361e-09 1.1653093379617950e-05 0.0000000000000000e+00 0.0000000000000000e+00 0.0000000000000000e+00 0.0000000000000000e+00  1.1667802173396798e-05 5.5292844633259249e-10 0.0000000000000000e+00 5.5292844633259249e-10 1.1618239494267354e-05 0.0000000000000000e+00 0.0000000000000000e+00 0.0000000000000000e+00 0.0000000000000000e+00  1.1675206159525751e-05 -1.1984882406492688e-08 0.0000000000000000e+00 -1.1984882406492688e-08 1.1569129656154994e-05 0.0000000000000000e+00 0.0000000000000000e+00 0.0000000000000000e+00 0.0000000000000000e+00  1.1680111486712083e-05 -3.2546441679932197e-08 0.0000000000000000e+00 -3.2546441679932197e-08 1.1515118607239204e-05 0.0000000000000000e+00 0.0000000000000000e+00 0.0000000000000000e+00 0.0000000000000000e+00  1.1681805833889321e-05 -5.9293365588551441e-08 0.0000000000000000e+00 -5.9293365588551441e-08 1.1463534024345884e-05 0.0000000000000000e+00 0.0000000000000000e+00 0.0000000000000000e+00 0.0000000000000000e+00  1.1680607738527751e-05 -9.0696400077899611e-08 0.0000000000000000e+00 -9.0696400077899611e-08 1.1419700257342667e-05 0.0000000000000000e+00 0.0000000000000000e+00 0.0000000000000000e+00 0.0000000000000000e+00  1.1677299441921395e-05 -1.2523047718120192e-07 0.0000000000000000e+00 -1.2523047718120192e-07 1.1387200044952298e-05 0.0000000000000000e+00 0.0000000000000000e+00 0.0000000000000000e+00 0.0000000000000000e+00  1.1672800694108680e-05 -1.6132998521923963e-07 0.0000000000000000e+00 -1.6132998521923963e-07 1.1368163178469106e-05 0.0000000000000000e+00 0.0000000000000000e+00 0.0000000000000000e+00 0.0000000000000000e+00  1.1667992999756229e-05 -1.9743240746666141e-07 0.0000000000000000e+00 -1.9743240746666141e-07 1.1363511027299490e-05 0.0000000000000000e+00 0.0000000000000000e+00 0.0000000000000000e+00 0.0000000000000000e+00  1.1663629229759441e-05 -2.3204646022796564e-07 0.0000000000000000e+00 -2.3204646022796564e-07 1.1373169903073469e-05 0.0000000000000000e+00 0.0000000000000000e+00 0.0000000000000000e+00 0.0000000000000000e+00  1.1660290237757735e-05 -2.6381672487216925e-07 0.0000000000000000e+00 -2.6381672487216925e-07 1.1396263173607493e-05 0.0000000000000000e+00 0.0000000000000000e+00 0.0000000000000000e+00 0.0000000000000000e+00  1.1658368031941330e-05 -2.9157501760101297e-07 0.0000000000000000e+00 -2.9157501760101297e-07 1.1431289165006031e-05 0.0000000000000000e+00 0.0000000000000000e+00 0.0000000000000000e+00 0.0000000000000000e+00  1.1658065300264542e-05 -3.1437558363167567e-07 0.0000000000000000e+00 -3.1437558363167567e-07 1.1476286504385900e-05 0.0000000000000000e+00 0.0000000000000000e+00 0.0000000000000000e+00 0.0000000000000000e+00  1.1659406189895131e-05 -3.3151431071358222e-07 0.0000000000000000e+00 -3.3151431071358222e-07 1.1528985645134076e-05 0.0000000000000000e+00 0.0000000000000000e+00 0.0000000000000000e+00 0.0000000000000000e+00  1.1662255729083864e-05 -3.4253369536368317e-07 0.0000000000000000e+00 -3.4253369536368317e-07 1.1586944100348265e-05 0.0000000000000000e+00 0.0000000000000000e+00 0.0000000000000000e+00 0.0000000000000000e+00  1.1666346344941833e-05 -3.4721616237125900e-07 0.0000000000000000e+00 -3.4721616237125900e-07 1.1647663045120224e-05 0.0000000000000000e+00 0.0000000000000000e+00 0.0000000000000000e+00 0.0000000000000000e+00  1.1671310239123556e-05 -3.4556878554727342e-07 0.0000000000000000e+00 -3.4556878554727342e-07 1.1708683972386666e-05 0.0000000000000000e+00 0.0000000000000000e+00 0.0000000000000000e+00 0.0000000000000000e+00  1.1676716296538152e-05 -3.3780254361680170e-07 0.0000000000000000e+00 -3.3780254361680170e-07 1.1767665614139434e-05 0.0000000000000000e+00 0.0000000000000000e+00 0.0000000000000000e+00 0.0000000000000000e+00  1.1682109951256747e-05 -3.2430898290357333e-07 0.0000000000000000e+00 -3.2430898290357333e-07 1.1822443014409965e-05 0.0000000000000000e+00 0.0000000000000000e+00 0.0000000000000000e+00 0.0000000000000000e+00  1.1687054179617346e-05 -3.0563658444881430e-07 0.0000000000000000e+00 -3.0563658444881430e-07 1.1871072153046615e-05 0.0000000000000000e+00 0.0000000000000000e+00 0.0000000000000000e+00 0.0000000000000000e+00  1.1691169638657778e-05 -2.8246832666348655e-07 0.0000000000000000e+00 -2.8246832666348655e-07 1.1911864633705143e-05 0.0000000000000000e+00 0.0000000000000000e+00 0.0000000000000000e+00 0.0000000000000000e+00  1.1694171962694517e-05 -2.5560101142758742e-07 0.0000000000000000e+00 -2.5560101142758742e-07 1.1943417535544819e-05 0.0000000000000000e+00 0.0000000000000000e+00 0.0000000000000000e+00 0.0000000000000000e+00  1.1695904345113927e-05 -2.2592601471795093e-07 0.0000000000000000e+00 -2.2592601471795093e-07 1.1964643583976877e-05 0.0000000000000000e+00 0.0000000000000000e+00 0.0000000000000000e+00 0.0000000000000000e+00  1.1696363658143361e-05 -1.9441036255997144e-07 0.0000000000000000e+00 -1.9441036255997144e-07 1.1974806453090386e-05 0.0000000000000000e+00 0.0000000000000000e+00 0.0000000000000000e+00 0.0000000000000000e+00  1.1695718293184174e-05 -1.6207654116446032e-07 0.0000000000000000e+00 -1.6207654116446032e-07 1.1973565528481599e-05 0.0000000000000000e+00 0.0000000000000000e+00 0.0000000000000000e+00 0.0000000000000000e+00  1.1694315288831440e-05 -1.2997937312958072e-07 0.0000000000000000e+00 -1.2997937312958072e-07 1.1961034197698055e-05 0.0000000000000000e+00 0.0000000000000000e+00 0.0000000000000000e+00 0.0000000000000000e+00  1.1692672537410341e-05 -9.9178903952494965e-08 0.0000000000000000e+00 -9.9178903952494965e-08 1.1937856175391680e-05 0.0000000000000000e+00 0.0000000000000000e+00 0.0000000000000000e+00 0.0000000000000000e+00  1.1691447890765800e-05 -7.0710308163671576e-08 0.0000000000000000e+00 -7.0710308163671576e-08 1.1905305898607197e-05 0.0000000000000000e+00 0.0000000000000000e+00 0.0000000000000000e+00 0.0000000000000000e+00  1.1691368763035357e-05 -4.5557056769250144e-08 0.0000000000000000e+00 -4.5557056769250144e-08 1.1865422345755547e-05 0.0000000000000000e+00 0.0000000000000000e+00 0.0000000000000000e+00 0.0000000000000000e+00  1.1693091491203443e-05 -2.4648094689486570e-08 0.0000000000000000e+00 -2.4648094689486570e-08 1.1821186585357222e-05 0.0000000000000000e+00 0.0000000000000000e+00 0.0000000000000000e+00 0.0000000000000000e+00  1.1696938986203093e-05 -8.9272161779716647e-09 0.0000000000000000e+00 -8.9272161779716647e-09 1.1776754256610986e-05 0.0000000000000000e+00 0.0000000000000000e+00 0.0000000000000000e+00 0.0000000000000000e+00  1.1702446433578489e-05 3.7376529315491907e-10 0.0000000000000000e+00 3.7376529315491907e-10 1.1737685028286037e-05 0.0000000000000000e+00 0.0000000000000000e+00 0.0000000000000000e+00 0.0000000000000000e+00  1.1707907888208136e-05 1.2421431229615869e-09 0.0000000000000000e+00 1.2421431229615869e-09 1.1711005655311660e-05 0.0000000000000000e+00 0.0000000000000000e+00 0.0000000000000000e+00 0.0000000000000000e+00  1.1709042811887728e-05 -1.0308769532621531e-08 0.0000000000000000e+00 -1.0308769532621531e-08 1.1706686918548035e-05 0.0000000000000000e+00 0.0000000000000000e+00 0.0000000000000000e+00 0.0000000000000000e+00  1.1640465149213360e-05 -5.3897887672527305e-09 0.0000000000000000e+00 -5.3897887672527305e-09 1.1644002367915484e-05 0.0000000000000000e+00 0.0000000000000000e+00 0.0000000000000000e+00 0.0000000000000000e+00  1.1636069227210232e-05 8.2080834337516178e-11 0.0000000000000000e+00 8.2080834337516178e-11 1.1650080000870097e-05 0.0000000000000000e+00 0.0000000000000000e+00 0.0000000000000000e+00 0.0000000000000000e+00  1.1633734011728223e-05 -1.8585882220680889e-09 0.0000000000000000e+00 -1.8585882220680889e-09 1.1625498779375584e-05 0.0000000000000000e+00 0.0000000000000000e+00 0.0000000000000000e+00 0.0000000000000000e+00  1.1627637240542037e-05 -1.1608139025124485e-08 0.0000000000000000e+00 -1.1608139025124485e-08 1.1584550067136776e-05 0.0000000000000000e+00 0.0000000000000000e+00 0.0000000000000000e+00 0.0000000000000000e+00  1.1617315189592849e-05 -2.8924465094090803e-08 0.0000000000000000e+00 -2.8924465094090803e-08 1.1537468955920627e-05 0.0000000000000000e+00 0.0000000000000000e+00 0.0000000000000000e+00 0.0000000000000000e+00  1.1604513397658094e-05 -5.3311130575407648e-08 0.0000000000000000e+00 -5.3311130575407648e-08 1.1491690358796626e-05 0.0000000000000000e+00 0.0000000000000000e+00 0.0000000000000000e+00 0.0000000000000000e+00  1.1591381472486637e-05 -8.3660337499339436e-08 0.0000000000000000e+00 -8.3660337499339436e-08 1.1452308396377762e-05 0.0000000000000000e+00 0.0000000000000000e+00 0.0000000000000000e+00 0.0000000000000000e+00  1.1579852522061157e-05 -1.1844313723972543e-07 0.0000000000000000e+00 -1.1844313723972543e-07 1.1422709843363708e-05 0.0000000000000000e+00 0.0000000000000000e+00 0.0000000000000000e+00 0.0000000000000000e+00  1.1571441875081560e-05 -1.5589789641691881e-07 0.0000000000000000e+00 -1.5589789641691881e-07 1.1404923600034909e-05 0.0000000000000000e+00 0.0000000000000000e+00 0.0000000000000000e+00 0.0000000000000000e+00  1.1567199764632239e-05 -1.9419142582963905e-07 0.0000000000000000e+00 -1.9419142582963905e-07 1.1399875661685414e-05 0.0000000000000000e+00 0.0000000000000000e+00 0.0000000000000000e+00 0.0000000000000000e+00  1.1567726811605483e-05 -2.3154239889065632e-07 0.0000000000000000e+00 -2.3154239889065632e-07 1.1407587088520486e-05 0.0000000000000000e+00 0.0000000000000000e+00 0.0000000000000000e+00 0.0000000000000000e+00  1.1573215305834541e-05 -2.6631378764051422e-07 0.0000000000000000e+00 -2.6631378764051422e-07 1.1427346334116555e-05 0.0000000000000000e+00 0.0000000000000000e+00 0.0000000000000000e+00 0.0000000000000000e+00  1.1583502206459687e-05 -2.9707908394793508e-07 0.0000000000000000e+00 -2.9707908394793508e-07 1.1457866935335750e-05 0.0000000000000000e+00 0.0000000000000000e+00 0.0000000000000000e+00 0.0000000000000000e+00  1.1598127404541459e-05 -3.2266613520499714e-07 0.0000000000000000e+00 -3.2266613520499714e-07 1.1497434113263314e-05 0.0000000000000000e+00 0.0000000000000000e+00 0.0000000000000000e+00 0.0000000000000000e+00  1.1616393912085237e-05 -3.4218178612071488e-07 0.0000000000000000e+00 -3.4218178612071488e-07 1.1544039778431230e-05 0.0000000000000000e+00 0.0000000000000000e+00 0.0000000000000000e+00 0.0000000000000000e+00  1.1637427908429472e-05 -3.5502041841325344e-07 0.0000000000000000e+00 -3.5502041841325344e-07 1.1595503972984532e-05 0.0000000000000000e+00 0.0000000000000000e+00 0.0000000000000000e+00 0.0000000000000000e+00  1.1660237215607866e-05 -3.6085957580273239e-07 0.0000000000000000e+00 -3.6085957580273239e-07 1.1649580729905043e-05 0.0000000000000000e+00 0.0000000000000000e+00 0.0000000000000000e+00 0.0000000000000000e+00  1.1683767184064176e-05 -3.5964594057597490e-07 0.0000000000000000e+00 -3.5964594057597490e-07 1.1704047140102841e-05 0.0000000000000000e+00 0.0000000000000000e+00 0.0000000000000000e+00 0.0000000000000000e+00  1.1706953297695655e-05 -3.5157484435542891e-07 0.0000000000000000e+00 -3.5157484435542891e-07 1.1756775683213396e-05 0.0000000000000000e+00 0.0000000000000000e+00 0.0000000000000000e+00 0.0000000000000000e+00  1.1728770098147080e-05 -3.3706617898754893e-07 0.0000000000000000e+00 -3.3706617898754893e-07 1.1805791277992942e-05 0.0000000000000000e+00 0.0000000000000000e+00 0.0000000000000000e+00 0.0000000000000000e+00  1.1748276293592475e-05 -3.1673901651706501e-07 0.0000000000000000e+00 -3.1673901651706501e-07 1.1849315780700601e-05 0.0000000000000000e+00 0.0000000000000000e+00 0.0000000000000000e+00 0.0000000000000000e+00  1.1764656154764990e-05 -2.9138649438974956e-07 0.0000000000000000e+00 -2.9138649438974956e-07 1.1885803610414341e-05 0.0000000000000000e+00 0.0000000000000000e+00 0.0000000000000000e+00 0.0000000000000000e+00  1.1777257501480177e-05 -2.6195165110738694e-07 0.0000000000000000e+00 -2.6195165110738694e-07 1.1913972702909824e-05 0.0000000000000000e+00 0.0000000000000000e+00 0.0000000000000000e+00 0.0000000000000000e+00  1.1785626729205733e-05 -2.2950399647368039e-07 0.0000000000000000e+00 -2.2950399647368039e-07 1.1932835088911303e-05 0.0000000000000000e+00 0.0000000000000000e+00 0.0000000000000000e+00 0.0000000000000000e+00  1.1789541385865124e-05 -1.9521574126596465e-07 0.0000000000000000e+00 -1.9521574126596465e-07 1.1941731171138920e-05 0.0000000000000000e+00 0.0000000000000000e+00 0.0000000000000000e+00 0.0000000000000000e+00  1.1789040720196742e-05 -1.6033582413286970e-07 0.0000000000000000e+00 -1.6033582413286970e-07 1.1940371466472902e-05 0.0000000000000000e+00 0.0000000000000000e+00 0.0000000000000000e+00 0.0000000000000000e+00  1.1784454232612860e-05 -1.2615912197599461e-07 0.0000000000000000e+00 -1.2615912197599461e-07 1.1928889551739590e-05 0.0000000000000000e+00 0.0000000000000000e+00 0.0000000000000000e+00 0.0000000000000000e+00  1.1776427210699824e-05 -9.3987406312083384e-08 0.0000000000000000e+00 -9.3987406312083384e-08 1.1907910724996003e-05 0.0000000000000000e+00 0.0000000000000000e+00 0.0000000000000000e+00 0.0000000000000000e+00  1.1765939480278010e-05 -6.5077474665261086e-08 0.0000000000000000e+00 -6.5077474665261086e-08 1.1878643521908589e-05 0.0000000000000000e+00 0.0000000000000000e+00 0.0000000000000000e+00 0.0000000000000000e+00  1.1754306950121014e-05 -4.0570692434641610e-08 0.0000000000000000e+00 -4.0570692434641610e-08 1.1843006365472499e-05 0.0000000000000000e+00 0.0000000000000000e+00 0.0000000000000000e+00 0.0000000000000000e+00  1.1743136121517381e-05 -2.1396273669526555e-08 0.0000000000000000e+00 -2.1396273669526555e-08 1.1803816898583849e-05 0.0000000000000000e+00 0.0000000000000000e+00 0.0000000000000000e+00 0.0000000000000000e+00  1.1734157069066082e-05 -8.1551208847914454e-09 0.0000000000000000e+00 -8.1551208847914454e-09 1.1765073432495653e-05 0.0000000000000000e+00 0.0000000000000000e+00 0.0000000000000000e+00 0.0000000000000000e+00  1.1728719944218313e-05 -9.9926922604064094e-10 0.0000000000000000e+00 -9.9926922604064094e-10 1.1732476202159252e-05 0.0000000000000000e+00 0.0000000000000000e+00 0.0000000000000000e+00 0.0000000000000000e+00  1.1726350768730248e-05 4.3358339990976995e-11 0.0000000000000000e+00 4.3358339990976995e-11 1.1713774826154165e-05 0.0000000000000000e+00 0.0000000000000000e+00 0.0000000000000000e+00 0.0000000000000000e+00  1.1722438254807907e-05 -4.3628045009002468e-09 0.0000000000000000e+00 -4.3628045009002468e-09 1.1719653314342286e-05 0.0000000000000000e+00 0.0000000000000000e+00 0.0000000000000000e+00 0.0000000000000000e+00  1.1644005825424098e-05 6.3177971414019547e-12 0.0000000000000000e+00 6.3177971414019547e-12 1.1642141745881760e-05 0.0000000000000000e+00 0.0000000000000000e+00 0.0000000000000000e+00 0.0000000000000000e+00  1.1642108165645099e-05 5.3699330965322823e-09 0.0000000000000000e+00 5.3699330965322823e-09 1.1645618378991328e-05 0.0000000000000000e+00 0.0000000000000000e+00 0.0000000000000000e+00 0.0000000000000000e+00  1.1625237729579489e-05 1.1828452764764361e-08 0.0000000000000000e+00 1.1828452764764361e-08 1.1627949612581763e-05 0.0000000000000000e+00 0.0000000000000000e+00 0.0000000000000000e+00 0.0000000000000000e+00  1.1594361146083536e-05 9.0687959988872034e-09 0.0000000000000000e+00 9.0687959988872034e-09 1.1595623308123916e-05 0.0000000000000000e+00 0.0000000000000000e+00 0.0000000000000000e+00 0.0000000000000000e+00  1.1557479459974146e-05 -5.0094736491943732e-09 0.0000000000000000e+00 -5.0094736491943732e-09 1.1557601618274004e-05 0.0000000000000000e+00 0.0000000000000000e+00 0.0000000000000000e+00 0.0000000000000000e+00  1.1520672545012362e-05 -2.9750323225496862e-08 0.0000000000000000e+00 -2.9750323225496862e-08 1.1519901586163446e-05 0.0000000000000000e+00 0.0000000000000000e+00 0.0000000000000000e+00 0.0000000000000000e+00  1.1488360307199682e-05 -6.3359030016087797e-08 0.0000000000000000e+00 -6.3359030016087797e-08 1.1486945299586817e-05 0.0000000000000000e+00 0.0000000000000000e+00 0.0000000000000000e+00 0.0000000000000000e+00  1.1463601814094454e-05 -1.0352262057902651e-07 0.0000000000000000e+00 -1.0352262057902651e-07 1.1461761376968199e-05 0.0000000000000000e+00 0.0000000000000000e+00 0.0000000000000000e+00 0.0000000000000000e+00  1.1448325513945826e-05 -1.4773722583754029e-07 0.0000000000000000e+00 -1.4773722583754029e-07 1.1446251168918192e-05 0.0000000000000000e+00 0.0000000000000000e+00 0.0000000000000000e+00 0.0000000000000000e+00  1.1443512604739418e-05 -1.9350448915932603e-07 0.0000000000000000e+00 -1.9350448915932603e-07 1.1441368739020127e-05 0.0000000000000000e+00 0.0000000000000000e+00 0.0000000000000000e+00 0.0000000000000000e+00  1.1449351552267420e-05 -2.3846644358787142e-07 0.0000000000000000e+00 -2.3846644358787142e-07 1.1447276171064354e-05 0.0000000000000000e+00 0.0000000000000000e+00 0.0000000000000000e+00 0.0000000000000000e+00  1.1465378335147927e-05 -2.8050119690497773e-07 0.0000000000000000e+00 -2.8050119690497773e-07 1.1463483626263665e-05 0.0000000000000000e+00 0.0000000000000000e+00 0.0000000000000000e+00 0.0000000000000000e+00  1.1490607994264764e-05 -3.1778918624240564e-07 0.0000000000000000e+00 -3.1778918624240564e-07 1.1488981157456570e-05 0.0000000000000000e+00 0.0000000000000000e+00 0.0000000000000000e+00 0.0000000000000000e+00  1.1523658866175195e-05 -3.4885479355107998e-07 0.0000000000000000e+00 -3.4885479355107998e-07 1.1522363359315324e-05 0.0000000000000000e+00 0.0000000000000000e+00 0.0000000000000000e+00 0.0000000000000000e+00  1.1562868502487983e-05 -3.7258678139393226e-07 0.0000000000000000e+00 -3.7258678139393226e-07 1.1561945764894516e-05 0.0000000000000000e+00 0.0000000000000000e+00 0.0000000000000000e+00 0.0000000000000000e+00  1.1606399420184263e-05 -3.8824089231081948e-07 0.0000000000000000e+00 -3.8824089231081948e-07 1.1605871009661879e-05 0.0000000000000000e+00 0.0000000000000000e+00 0.0000000000000000e+00 0.0000000000000000e+00  1.1652332898891246e-05 -3.9542822745589829e-07 0.0000000000000000e+00 -3.9542822745589829e-07 1.1652202895546413e-05 0.0000000000000000e+00 0.0000000000000000e+00 0.0000000000000000e+00 0.0000000000000000e+00  1.1698749711367405e-05 -3.9409325528737017e-07 0.0000000000000000e+00 -3.9409325528737017e-07 1.1699007192330688e-05 0.0000000000000000e+00 0.0000000000000000e+00 0.0000000000000000e+00 0.0000000000000000e+00  1.1743797668778463e-05 -3.8448529592603264e-07 0.0000000000000000e+00 -3.8448529592603264e-07 1.1744419044982985e-05 0.0000000000000000e+00 0.0000000000000000e+00 0.0000000000000000e+00 0.0000000000000000e+00  1.1785746954636673e-05 -3.6712699778974535e-07 0.0000000000000000e+00 -3.6712699778974535e-07 1.1786697979707984e-05 0.0000000000000000e+00 0.0000000000000000e+00 0.0000000000000000e+00 0.0000000000000000e+00  1.1823035218704228e-05 -3.4278267316256342e-07 0.0000000000000000e+00 -3.4278267316256342e-07 1.1824272523653279e-05 0.0000000000000000e+00 0.0000000000000000e+00 0.0000000000000000e+00 0.0000000000000000e+00  1.1854305161225130e-05 -3.1242845579400059e-07 0.0000000000000000e+00 -3.1242845579400059e-07 1.1855777226623057e-05 0.0000000000000000e+00 0.0000000000000000e+00 0.0000000000000000e+00 0.0000000000000000e+00  1.1878437778787842e-05 -2.7722519495583352e-07 0.0000000000000000e+00 -2.7722519495583352e-07 1.1880085316036951e-05 0.0000000000000000e+00 0.0000000000000000e+00 0.0000000000000000e+00 0.0000000000000000e+00  1.1894584561811473e-05 -2.3849392755570736e-07 0.0000000000000000e+00 -2.3849392755570736e-07 1.1896340324297442e-05 0.0000000000000000e+00 0.0000000000000000e+00 0.0000000000000000e+00 0.0000000000000000e+00  1.1902201806428207e-05 -1.9769277299785687e-07 0.0000000000000000e+00 -1.9769277299785687e-07 1.1903989878136441e-05 0.0000000000000000e+00 0.0000000000000000e+00 0.0000000000000000e+00 0.0000000000000000e+00  1.1901089985635590e-05 -1.5639321524781471e-07 0.0000000000000000e+00 -1.5639321524781471e-07 1.1902824592646567e-05 0.0000000000000000e+00 0.0000000000000000e+00 0.0000000000000000e+00 0.0000000000000000e+00  1.1891441054695699e-05 -1.1625290585376044e-07 0.0000000000000000e+00 -1.1625290585376044e-07 1.1893024903849985e-05 0.0000000000000000e+00 0.0000000000000000e+00 0.0000000000000000e+00 0.0000000000000000e+00  1.1873896956727608e-05 -7.8981060729748071e-08 0.0000000000000000e+00 -7.8981060729748071e-08 1.1875219085449802e-05 0.0000000000000000e+00 0.0000000000000000e+00 0.0000000000000000e+00 0.0000000000000000e+00  1.1849623974959507e-05 -4.6290585460090269e-08 0.0000000000000000e+00 -4.6290585460090269e-08 1.1850556904755076e-05 0.0000000000000000e+00 0.0000000000000000e+00 0.0000000000000000e+00 0.0000000000000000e+00  1.1820410171661213e-05 -1.9826224291290640e-08 0.0000000000000000e+00 -1.9826224291290640e-08 1.1820807427047032e-05 0.0000000000000000e+00 0.0000000000000000e+00 0.0000000000000000e+00 0.0000000000000000e+00  1.1788799211853008e-05 -1.0471053542883751e-09 0.0000000000000000e+00 -1.0471053542883751e-09 1.1788490157007772e-05 0.0000000000000000e+00 0.0000000000000000e+00 0.0000000000000000e+00 0.0000000000000000e+00  1.1758273846869692e-05 8.9976888297895852e-09 0.0000000000000000e+00 8.9976888297895852e-09 1.1757089417237647e-05 0.0000000000000000e+00 0.0000000000000000e+00 0.0000000000000000e+00 0.0000000000000000e+00  1.1733499429214926e-05 1.0133277748939014e-08 0.0000000000000000e+00 1.0133277748939014e-08 1.1731219040397840e-05 0.0000000000000000e+00 0.0000000000000000e+00 0.0000000000000000e+00 0.0000000000000000e+00  1.1720494558498801e-05 4.3535998438563752e-09 0.0000000000000000e+00 4.3535998438563752e-09 1.1717722578950428e-05 0.0000000000000000e+00 0.0000000000000000e+00 0.0000000000000000e+00 0.0000000000000000e+00  1.1719274627094368e-05 3.2889422134045486e-12 0.0000000000000000e+00 3.2889422134045486e-12 1.1720853109030504e-05 0.0000000000000000e+00 0.0000000000000000e+00 0.0000000000000000e+00 0.0000000000000000e+00  -8.3453841196258729e-05 -8.8202624685276506e-06 0.0000000000000000e+00 -8.8202624685276506e-06 -1.0170251713707926e-04 0.0000000000000000e+00 0.0000000000000000e+00 0.0000000000000000e+00 0.0000000000000000e+00  -1.1983284629234955e-04 3.4697399075991474e-05 0.0000000000000000e+00 3.4697399075991474e-05 -1.2947699448206547e-04 0.0000000000000000e+00 0.0000000000000000e+00 0.0000000000000000e+00 0.0000000000000000e+00  -5.6858167119780427e-05 -2.5967835349163118e-06 0.0000000000000000e+00 -2.5967835349163118e-06 -1.0110936849272762e-04 0.0000000000000000e+00 0.0000000000000000e+00 0.0000000000000000e+00 0.0000000000000000e+00  3.3419513072869426e-06 1.5426422979970827e-05 0.0000000000000000e+00 1.5426422979970827e-05 -1.3882128926931965e-05 0.0000000000000000e+00 0.0000000000000000e+00 0.0000000000000000e+00 0.0000000000000000e+00  -9.3637577336671090e-05 6.2640966136953477e-05 0.0000000000000000e+00 6.2640966136953477e-05 -5.7799754974140693e-05 0.0000000000000000e+00 0.0000000000000000e+00 0.0000000000000000e+00 0.0000000000000000e+00  5.1109431931526964e-05 -1.0059000539108549e-05 0.0000000000000000e+00 -1.0059000539108549e-05 9.6578827147495079e-05 0.0000000000000000e+00 0.0000000000000000e+00 0.0000000000000000e+00 0.0000000000000000e+00  5.8738279866700004e-05 1.2484790394051403e-05 0.0000000000000000e+00 1.2484790394051403e-05 1.0557992017944584e-04 0.0000000000000000e+00 0.0000000000000000e+00 0.0000000000000000e+00 0.0000000000000000e+00  -8.5180809186967982e-05 -5.4637430287115927e-05 0.0000000000000000e+00 -5.4637430287115927e-05 -4.8493144014589206e-05 0.0000000000000000e+00 0.0000000000000000e+00 0.0000000000000000e+00 0.0000000000000000e+00  5.4249660743927293e-05 -2.5114764307909948e-05 0.0000000000000000e+00 -2.5114764307909948e-05 2.3413058410415974e-05 0.0000000000000000e+00 0.0000000000000000e+00 0.0000000000000000e+00 0.0000000000000000e+00  -4.5930917336037334e-05 3.8631346781676213e-05 0.0000000000000000e+00 3.8631346781676213e-05 -8.8841234670720843e-05 0.0000000000000000e+00 0.0000000000000000e+00 0.0000000000000000e+00 0.0000000000000000e+00  -4.3064986995624187e-05 -4.2377786618220821e-05 0.0000000000000000e+00 -4.2377786618220821e-05 -8.9168860714605245e-05 0.0000000000000000e+00 0.0000000000000000e+00 0.0000000000000000e+00 0.0000000000000000e+00  6.3932945511917944e-05 2.3607255872392399e-05 0.0000000000000000e+00 2.3607255872392399e-05 2.4956387104621862e-05 0.0000000000000000e+00 0.0000000000000000e+00 0.0000000000000000e+00 0.0000000000000000e+00  -6.5797581744182171e-05 5.6680825911658840e-05 0.0000000000000000e+00 5.6680825911658840e-05 -3.8984585679144260e-05 0.0000000000000000e+00 0.0000000000000000e+00 0.0000000000000000e+00 0.0000000000000000e+00  9.1600945592537923e-05 -6.8550968044344539e-06 0.0000000000000000e+00 -6.8550968044344539e-06 1.2966254772256596e-04 0.0000000000000000e+00 0.0000000000000000e+00 0.0000000000000000e+00 0.0000000000000000e+00  1.0070642990849328e-04 1.8725413134578991e-05 0.0000000000000000e+00 1.8725413134578991e-05 1.4032430188702552e-04 0.0000000000000000e+00 0.0000000000000000e+00 0.0000000000000000e+00 0.0000000000000000e+00  -2.6493426566126665e-05 -5.2265163592845842e-05 0.0000000000000000e+00 -5.2265163592845842e-05 9.0217417878698059e-06 0.0000000000000000e+00 0.0000000000000000e+00 0.0000000000000000e+00 0.0000000000000000e+00  8.6144789172326711e-05 -5.7614944170521224e-06 0.0000000000000000e+00 -5.7614944170521224e-06 7.4916863929043104e-05 0.0000000000000000e+00 0.0000000000000000e+00 0.0000000000000000e+00 0.0000000000000000e+00  3.8235527622795351e-05 1.0003786263187283e-05 0.0000000000000000e+00 1.0003786263187283e-05 4.1465168722540026e-06 0.0000000000000000e+00 0.0000000000000000e+00 0.0000000000000000e+00 0.0000000000000000e+00  -2.0367520329090304e-05 -3.2449570796283015e-05 0.0000000000000000e+00 -3.2449570796283015e-05 -2.0809525017520466e-05 0.0000000000000000e+00 0.0000000000000000e+00 0.0000000000000000e+00 0.0000000000000000e+00  2.8716164379446264e-05 1.4307636363424917e-05 0.0000000000000000e+00 1.4307636363424917e-05 1.0039692363986352e-05 0.0000000000000000e+00 0.0000000000000000e+00 0.0000000000000000e+00 0.0000000000000000e+00  1.0915004427694122e-07 -1.5201051614681431e-06 0.0000000000000000e+00 -1.5201051614681431e-06 -3.5822600295540173e-06 0.0000000000000000e+00 0.0000000000000000e+00 0.0000000000000000e+00 0.0000000000000000e+00  1.1721175289713246e-05 5.6539938448013970e-06 0.0000000000000000e+00 5.6539938448013970e-06 1.1883150636175718e-05 0.0000000000000000e+00 0.0000000000000000e+00 0.0000000000000000e+00 0.0000000000000000e+00  1.2385761378157952e-05 3.2565866760637518e-06 0.0000000000000000e+00 3.2565866760637518e-06 1.4657278348305615e-05 0.0000000000000000e+00 0.0000000000000000e+00 0.0000000000000000e+00 0.0000000000000000e+00  1.5692628908655220e-05 2.5601788007591866e-06 0.0000000000000000e+00 2.5601788007591866e-06 1.8618499622801387e-05 0.0000000000000000e+00 0.0000000000000000e+00 0.0000000000000000e+00 0.0000000000000000e+00  1.7719565884008070e-05 1.3434613151664207e-06 0.0000000000000000e+00 1.3434613151664207e-06 2.0176944052852915e-05 0.0000000000000000e+00 0.0000000000000000e+00 0.0000000000000000e+00 0.0000000000000000e+00  1.9141682584415021e-05 4.9642949927007909e-07 0.0000000000000000e+00 4.9642949927007909e-07 2.0850580811273871e-05 0.0000000000000000e+00 0.0000000000000000e+00 0.0000000000000000e+00 0.0000000000000000e+00  1.9986738547330509e-05 -5.3337585280957918e-08 0.0000000000000000e+00 -5.3337585280957918e-08 2.0952699685389924e-05 0.0000000000000000e+00 0.0000000000000000e+00 0.0000000000000000e+00 0.0000000000000000e+00  2.0463195858223503e-05 -3.1999054655160439e-07 0.0000000000000000e+00 -3.1999054655160439e-07 2.0847969097996531e-05 0.0000000000000000e+00 0.0000000000000000e+00 0.0000000000000000e+00 0.0000000000000000e+00  2.0728090338158468e-05 -3.8207335793804132e-07 0.0000000000000000e+00 -3.8207335793804132e-07 2.0726277540145591e-05 0.0000000000000000e+00 0.0000000000000000e+00 0.0000000000000000e+00 0.0000000000000000e+00  2.0892095914397677e-05 -3.1832815550846990e-07 0.0000000000000000e+00 -3.1832815550846990e-07 2.0685790574827170e-05 0.0000000000000000e+00 0.0000000000000000e+00 0.0000000000000000e+00 0.0000000000000000e+00  2.1016288424520094e-05 -1.9991668712918825e-07 0.0000000000000000e+00 -1.9991668712918825e-07 2.0758595242374749e-05 0.0000000000000000e+00 0.0000000000000000e+00 0.0000000000000000e+00 0.0000000000000000e+00  2.1120453645261006e-05 -8.4453385594900728e-08 0.0000000000000000e+00 -8.4453385594900728e-08 2.0929283292586142e-05 0.0000000000000000e+00 0.0000000000000000e+00 0.0000000000000000e+00 0.0000000000000000e+00  2.1195632149929831e-05 -1.1624424315552858e-08 0.0000000000000000e+00 -1.1624424315552858e-08 2.1137221221452067e-05 0.0000000000000000e+00 0.0000000000000000e+00 0.0000000000000000e+00 0.0000000000000000e+00  2.1227827263421843e-05 2.9164324198450286e-10 0.0000000000000000e+00 2.9164324198450286e-10 2.1269104088557851e-05 0.0000000000000000e+00 0.0000000000000000e+00 0.0000000000000000e+00 0.0000000000000000e+00  -1.8012668535873522e-04 4.6513474532302558e-05 0.0000000000000000e+00 4.6513474532302558e-05 -1.7607678771966578e-04 0.0000000000000000e+00 0.0000000000000000e+00 0.0000000000000000e+00 0.0000000000000000e+00  2.1718478141372351e-04 -2.0293120947207562e-04 0.0000000000000000e+00 -2.0293120947207562e-04 3.4024694934740610e-05 0.0000000000000000e+00 0.0000000000000000e+00 0.0000000000000000e+00 0.0000000000000000e+00  -3.0129169637586184e-04 2.8454221797497985e-04 0.0000000000000000e+00 2.8454221797497985e-04 -1.3226412691925694e-04 0.0000000000000000e+00 0.0000000000000000e+00 0.0000000000000000e+00 0.0000000000000000e+00  -4.1149580230958303e-04 1.0932306304850574e-04 0.0000000000000000e+00 1.0932306304850574e-04 -3.0454490138179940e-04 0.0000000000000000e+00 0.0000000000000000e+00 0.0000000000000000e+00 0.0000000000000000e+00  7.8163789759901276e-04 -4.4940985525897465e-04 0.0000000000000000e+00 -4.4940985525897465e-04 6.3531758500226878e-04 0.0000000000000000e+00 0.0000000000000000e+00 0.0000000000000000e+00 0.0000000000000000e+00  -4.2129994688521740e-04 5.3271280470090483e-05 0.0000000000000000e+00 5.3271280470090483e-05 -3.6771844705429230e-04 0.0000000000000000e+00 0.0000000000000000e+00 0.0000000000000000e+00 0.0000000000000000e+00  -4.1830727829745190e-04 -5.7999740894441797e-05 0.0000000000000000e+00 -5.7999740894441797e-05 -3.7540267824348904e-04 0.0000000000000000e+00 0.0000000000000000e+00 0.0000000000000000e+00 0.0000000000000000e+00  8.4136367478804372e-04 4.1929807364846490e-04 0.0000000000000000e+00 4.1929807364846490e-04 6.9367050807844050e-04 0.0000000000000000e+00 0.0000000000000000e+00 0.0000000000000000e+00 0.0000000000000000e+00  -5.1417829839086140e-04 -4.2456422670925205e-05 0.0000000000000000e+00 -4.2456422670925205e-05 -3.8388752117388619e-04 0.0000000000000000e+00 0.0000000000000000e+00 0.0000000000000000e+00 0.0000000000000000e+00  6.3951221373337818e-05 -5.0351238709587728e-04 0.0000000000000000e+00 -5.0351238709587728e-04 5.7276583603288517e-05 0.0000000000000000e+00 0.0000000000000000e+00 0.0000000000000000e+00 0.0000000000000000e+00  6.7810331400221748e-05 4.9212545054020404e-04 0.0000000000000000e+00 4.9212545054020404e-04 5.6104654737189985e-05 0.0000000000000000e+00 0.0000000000000000e+00 0.0000000000000000e+00 0.0000000000000000e+00  -5.0189102307358706e-04 3.2116019783492202e-05 0.0000000000000000e+00 3.2116019783492202e-05 -3.8472887148545843e-04 0.0000000000000000e+00 0.0000000000000000e+00 0.0000000000000000e+00 0.0000000000000000e+00  8.6434790799907980e-04 -4.2941662735658092e-04 0.0000000000000000e+00 -4.2941662735658092e-04 7.0069708031373615e-04 0.0000000000000000e+00 0.0000000000000000e+00 0.0000000000000000e+00 0.0000000000000000e+00  -3.8153435545898521e-04 4.8295378670548894e-05 0.0000000000000000e+00 4.8295378670548894e-05 -3.5286486248198578e-04 0.0000000000000000e+00 0.0000000000000000e+00 0.0000000000000000e+00 0.0000000000000000e+00  -3.6710724698382367e-04 -6.1688922478354361e-05 0.0000000000000000e+00 -6.1688922478354361e-05 -3.2674020155470186e-04 0.0000000000000000e+00 0.0000000000000000e+00 0.0000000000000000e+00 0.0000000000000000e+00  8.5265224951868791e-04 4.4346540708987178e-04 0.0000000000000000e+00 4.4346540708987178e-04 7.0107030951335454e-04 0.0000000000000000e+00 0.0000000000000000e+00 0.0000000000000000e+00 0.0000000000000000e+00  -3.2592224992547818e-04 -1.1125452925560980e-04 0.0000000000000000e+00 -1.1125452925560980e-04 -2.1462989792012693e-04 0.0000000000000000e+00 0.0000000000000000e+00 0.0000000000000000e+00 0.0000000000000000e+00  -2.0735293666411704e-04 -2.8751212961302763e-04 0.0000000000000000e+00 -2.8751212961302763e-04 -2.8157508218343970e-05 0.0000000000000000e+00 0.0000000000000000e+00 0.0000000000000000e+00 0.0000000000000000e+00  3.2713670724530763e-04 2.0778670184707986e-04 0.0000000000000000e+00 2.0778670184707986e-04 1.5587056703473946e-04 0.0000000000000000e+00 0.0000000000000000e+00 0.0000000000000000e+00 0.0000000000000000e+00  -1.0812065022835110e-04 -7.4858106199835581e-05 0.0000000000000000e+00 -7.4858106199835581e-05 -1.0236722476498452e-04 0.0000000000000000e+00 0.0000000000000000e+00 0.0000000000000000e+00 0.0000000000000000e+00  4.5066552950362566e-05 2.8157227274912562e-05 0.0000000000000000e+00 2.8157227274912562e-05 3.7144335193595714e-05 0.0000000000000000e+00 0.0000000000000000e+00 0.0000000000000000e+00 0.0000000000000000e+00  2.2481264137165997e-06 -3.5256613736764032e-06 0.0000000000000000e+00 -3.5256613736764032e-06 1.3181406594523299e-06 0.0000000000000000e+00 0.0000000000000000e+00 0.0000000000000000e+00 0.0000000000000000e+00  1.2744262504454614e-05 2.5630344697616942e-06 0.0000000000000000e+00 2.5630344697616942e-06 1.8313597854770084e-05 0.0000000000000000e+00 0.0000000000000000e+00 0.0000000000000000e+00 0.0000000000000000e+00  1.3368663216934980e-05 -2.4740457015946704e-07 0.0000000000000000e+00 -2.4740457015946704e-07 1.9147472074755366e-05 0.0000000000000000e+00 0.0000000000000000e+00 0.0000000000000000e+00 0.0000000000000000e+00  1.5947103521139348e-05 -6.0244502815944846e-07 0.0000000000000000e+00 -6.0244502815944846e-07 2.0974021966309403e-05 0.0000000000000000e+00 0.0000000000000000e+00 0.0000000000000000e+00 0.0000000000000000e+00  1.7829087159673194e-05 -9.5507390540875149e-07 0.0000000000000000e+00 -9.5507390540875149e-07 2.1264437819009445e-05 0.0000000000000000e+00 0.0000000000000000e+00 0.0000000000000000e+00 0.0000000000000000e+00  1.9251893661200934e-05 -9.9955876044560883e-07 0.0000000000000000e+00 -9.9955876044560883e-07 2.1139853437722756e-05 0.0000000000000000e+00 0.0000000000000000e+00 0.0000000000000000e+00 0.0000000000000000e+00  2.0211091999530010e-05 -9.0697891551939597e-07 0.0000000000000000e+00 -9.0697891551939597e-07 2.0859073150801966e-05 0.0000000000000000e+00 0.0000000000000000e+00 0.0000000000000000e+00 0.0000000000000000e+00  2.0817309103937915e-05 -7.3210334175557234e-07 0.0000000000000000e+00 -7.3210334175557234e-07 2.0628367163380303e-05 0.0000000000000000e+00 0.0000000000000000e+00 0.0000000000000000e+00 0.0000000000000000e+00  2.1172275606531032e-05 -5.2303887356988291e-07 0.0000000000000000e+00 -5.2303887356988291e-07 2.0534769022136512e-05 0.0000000000000000e+00 0.0000000000000000e+00 0.0000000000000000e+00 0.0000000000000000e+00  2.1355303790444828e-05 -3.1360677173709146e-07 0.0000000000000000e+00 -3.1360677173709146e-07 2.0601153288721660e-05 0.0000000000000000e+00 0.0000000000000000e+00 0.0000000000000000e+00 0.0000000000000000e+00  2.1420341782720400e-05 -1.3213639501591095e-07 0.0000000000000000e+00 -1.3213639501591095e-07 2.0803172450967559e-05 0.0000000000000000e+00 0.0000000000000000e+00 0.0000000000000000e+00 0.0000000000000000e+00  2.1407397618414001e-05 -8.5295543195732567e-09 0.0000000000000000e+00 -8.5295543195732567e-09 2.1074164443806084e-05 0.0000000000000000e+00 0.0000000000000000e+00 0.0000000000000000e+00 0.0000000000000000e+00  2.1360359917100672e-05 1.3304487541858571e-08 0.0000000000000000e+00 1.3304487541858571e-08 2.1303998641578532e-05 0.0000000000000000e+00 0.0000000000000000e+00 0.0000000000000000e+00 0.0000000000000000e+00  2.4818685433902385e-04 -2.2590204391423498e-04 0.0000000000000000e+00 -2.2590204391423498e-04 2.1517292539353921e-04 0.0000000000000000e+00 0.0000000000000000e+00 0.0000000000000000e+00 0.0000000000000000e+00  -1.7393114121380278e-03 1.0242003348807061e-03 0.0000000000000000e+00 1.0242003348807061e-03 -1.3053788902238233e-03 0.0000000000000000e+00 0.0000000000000000e+00 0.0000000000000000e+00 0.0000000000000000e+00  3.9009555383142506e-03 -2.4914278989625464e-03 0.0000000000000000e+00 -2.4914278989625464e-03 1.3462370839643048e-03 0.0000000000000000e+00 0.0000000000000000e+00 0.0000000000000000e+00 0.0000000000000000e+00  2.7791040012401479e-03 1.7525766776213697e-03 0.0000000000000000e+00 1.7525766776213697e-03 3.1428828066269237e-03 0.0000000000000000e+00 0.0000000000000000e+00 0.0000000000000000e+00 0.0000000000000000e+00  -7.1499554764905496e-03 8.2550438613430161e-03 0.0000000000000000e+00 8.2550438613430161e-03 -6.7221196077928808e-04 0.0000000000000000e+00 0.0000000000000000e+00 0.0000000000000000e+00 0.0000000000000000e+00  3.5552483041609391e-03 2.5699983368968247e-03 0.0000000000000000e+00 2.5699983368968247e-03 1.1643698861475383e-02 0.0000000000000000e+00 0.0000000000000000e+00 0.0000000000000000e+00 0.0000000000000000e+00  3.5157650021614383e-03 -2.5987838911224639e-03 0.0000000000000000e+00 -2.5987838911224639e-03 1.1676974325360873e-02 0.0000000000000000e+00 0.0000000000000000e+00 0.0000000000000000e+00 0.0000000000000000e+00  -7.2669188035616806e-03 -8.2177008919743777e-03 0.0000000000000000e+00 -8.2177008919743777e-03 -8.1378747040052632e-04 0.0000000000000000e+00 0.0000000000000000e+00 0.0000000000000000e+00 0.0000000000000000e+00  3.3899717876229255e-03 -2.0614046292106490e-03 0.0000000000000000e+00 -2.0614046292106490e-03 3.6961913424398340e-03 0.0000000000000000e+00 0.0000000000000000e+00 0.0000000000000000e+00 0.0000000000000000e+00  2.2263574183563925e-03 3.5348486721716275e-03 0.0000000000000000e+00 3.5348486721716275e-03 1.3388471411819762e-04 0.0000000000000000e+00 0.0000000000000000e+00 0.0000000000000000e+00 0.0000000000000000e+00  2.2270725150339886e-03 -3.5523245587782120e-03 0.0000000000000000e+00 -3.5523245587782120e-03 1.3328405449603264e-04 0.0000000000000000e+00 0.0000000000000000e+00 0.0000000000000000e+00 0.0000000000000000e+00  3.3925809471143987e-03 2.0442285089277792e-03 0.0000000000000000e+00 2.0442285089277792e-03 3.6948549975551158e-03 0.0000000000000000e+00 0.0000000000000000e+00 0.0000000000000000e+00 0.0000000000000000e+00  -7.2535863071533568e-03 8.1947422025199328e-03 0.0000000000000000e+00 8.1947422025199328e-03 -8.0912987545490791e-04 0.0000000000000000e+00 0.0000000000000000e+00 0.0000000000000000e+00 0.0000000000000000e+00  3.5488341978125487e-03 2.5671557468097401e-03 0.0000000000000000e+00 2.5671557468097401e-03 1.1702272766256462e-02 0.0000000000000000e+00 0.0000000000000000e+00 0.0000000000000000e+00 0.0000000000000000e+00  3.6064662643594441e-03 -2.6039138421747746e-03 0.0000000000000000e+00 -2.6039138421747746e-03 1.1684215628604683e-02 0.0000000000000000e+00 0.0000000000000000e+00 0.0000000000000000e+00 0.0000000000000000e+00  -7.0711249337595426e-03 -8.2806689663629477e-03 0.0000000000000000e+00 -8.2806689663629477e-03 -6.0164816559299600e-04 0.0000000000000000e+00 0.0000000000000000e+00 0.0000000000000000e+00 0.0000000000000000e+00  2.8820259883575875e-03 -1.7651461396718249e-03 0.0000000000000000e+00 -1.7651461396718249e-03 3.2294895289721091e-03 0.0000000000000000e+00 0.0000000000000000e+00 0.0000000000000000e+00 0.0000000000000000e+00  4.0156300324762683e-03 2.4829906020272913e-03 0.0000000000000000e+00 2.4829906020272913e-03 1.4536421540137867e-03 0.0000000000000000e+00 0.0000000000000000e+00 0.0000000000000000e+00 0.0000000000000000e+00  -1.6354356945040001e-03 -1.0481747212916853e-03 0.0000000000000000e+00 -1.0481747212916853e-03 -1.2189076219060919e-03 0.0000000000000000e+00 0.0000000000000000e+00 0.0000000000000000e+00 0.0000000000000000e+00  4.6874337570345905e-04 2.9985698105883295e-04 0.0000000000000000e+00 2.9985698105883295e-04 4.5413956045740802e-04 0.0000000000000000e+00 0.0000000000000000e+00 0.0000000000000000e+00 0.0000000000000000e+00  -8.8444994892143992e-05 -7.4404328869034776e-05 0.0000000000000000e+00 -7.4404328869034776e-05 -1.1763581485606120e-04 0.0000000000000000e+00 0.0000000000000000e+00 0.0000000000000000e+00 0.0000000000000000e+00  2.4841024108300132e-05 1.8897809242214640e-05 0.0000000000000000e+00 1.8897809242214640e-05 3.8186464888044716e-05 0.0000000000000000e+00 0.0000000000000000e+00 0.0000000000000000e+00 0.0000000000000000e+00  8.5004928207316586e-06 -4.0882890227573742e-06 0.0000000000000000e+00 -4.0882890227573742e-06 1.4130597429972913e-05 0.0000000000000000e+00 0.0000000000000000e+00 0.0000000000000000e+00 0.0000000000000000e+00  1.3803813490850899e-05 -2.0457907280667227e-06 0.0000000000000000e+00 -2.0457907280667227e-06 2.0972572569166486e-05 0.0000000000000000e+00 0.0000000000000000e+00 0.0000000000000000e+00 0.0000000000000000e+00  1.5976818814635813e-05 -2.9936675444961197e-06 0.0000000000000000e+00 -2.9936675444961197e-06 2.1076448239596166e-05 0.0000000000000000e+00 0.0000000000000000e+00 0.0000000000000000e+00 0.0000000000000000e+00  1.8067971164707933e-05 -2.6957307700008745e-06 0.0000000000000000e+00 -2.6957307700008745e-06 2.1175380659641262e-05 0.0000000000000000e+00 0.0000000000000000e+00 0.0000000000000000e+00 0.0000000000000000e+00  1.9571375346156777e-05 -2.2472420774236663e-06 0.0000000000000000e+00 -2.2472420774236663e-06 2.0864394982303489e-05 0.0000000000000000e+00 0.0000000000000000e+00 0.0000000000000000e+00 0.0000000000000000e+00  2.0601739226782690e-05 -1.7227220018754582e-06 0.0000000000000000e+00 -1.7227220018754582e-06 2.0528918320800639e-05 0.0000000000000000e+00 0.0000000000000000e+00 0.0000000000000000e+00 0.0000000000000000e+00  2.1251979856904312e-05 -1.2257961074133639e-06 0.0000000000000000e+00 -1.2257961074133639e-06 2.0293998150102089e-05 0.0000000000000000e+00 0.0000000000000000e+00 0.0000000000000000e+00 0.0000000000000000e+00  2.1619387576153379e-05 -7.8621616617489787e-07 0.0000000000000000e+00 -7.8621616617489787e-07 2.0224880742325437e-05 0.0000000000000000e+00 0.0000000000000000e+00 0.0000000000000000e+00 0.0000000000000000e+00  2.1783044006781456e-05 -4.1529634556781732e-07 0.0000000000000000e+00 -4.1529634556781732e-07 2.0334519524570254e-05 0.0000000000000000e+00 0.0000000000000000e+00 0.0000000000000000e+00 0.0000000000000000e+00  2.1803716957253828e-05 -1.2287942415878628e-07 0.0000000000000000e+00 -1.2287942415878628e-07 2.0600993342258671e-05 0.0000000000000000e+00 0.0000000000000000e+00 0.0000000000000000e+00 0.0000000000000000e+00  2.1731078500697492e-05 6.6179773484115062e-08 0.0000000000000000e+00 6.6179773484115062e-08 2.0973287731897540e-05 0.0000000000000000e+00 0.0000000000000000e+00 0.0000000000000000e+00 0.0000000000000000e+00  2.1613036268555228e-05 9.6296774985869078e-08 0.0000000000000000e+00 9.6296774985869078e-08 2.1375362234310392e-05 0.0000000000000000e+00 0.0000000000000000e+00 0.0000000000000000e+00 0.0000000000000000e+00  -1.1897553160911628e-03 8.3648921430256619e-04 0.0000000000000000e+00 8.3648921430256619e-04 -1.4628852363440233e-03 0.0000000000000000e+00 0.0000000000000000e+00 0.0000000000000000e+00 0.0000000000000000e+00  6.0332635237000118e-03 -3.1331851439172927e-03 0.0000000000000000e+00 -3.1331851439172927e-03 6.0394246153623174e-03 0.0000000000000000e+00 0.0000000000000000e+00 0.0000000000000000e+00 0.0000000000000000e+00  -2.2768572985950024e-02 1.5927497403751843e-02 0.0000000000000000e+00 1.5927497403751843e-02 -1.5683634502905285e-02 0.0000000000000000e+00 0.0000000000000000e+00 0.0000000000000000e+00 0.0000000000000000e+00  6.2532123444526078e-02 -2.8011427539655642e-02 0.0000000000000000e+00 -2.8011427539655642e-02 7.1160171868645192e-03 0.0000000000000000e+00 0.0000000000000000e+00 0.0000000000000000e+00 0.0000000000000000e+00  2.1775705826694244e-01 -1.0416431212436947e-02 0.0000000000000000e+00 -1.0416431212436947e-02 1.1637373078255277e-01 0.0000000000000000e+00 0.0000000000000000e+00 0.0000000000000000e+00 0.0000000000000000e+00  7.9875203891479188e-02 9.9888118624892719e-02 0.0000000000000000e+00 9.9888118624892719e-02 1.4901384559542652e-01 0.0000000000000000e+00 0.0000000000000000e+00 0.0000000000000000e+00 0.0000000000000000e+00  7.9942746315068786e-02 -9.9802392968287426e-02 0.0000000000000000e+00 -9.9802392968287426e-02 1.4913828543097896e-01 0.0000000000000000e+00 0.0000000000000000e+00 0.0000000000000000e+00 0.0000000000000000e+00  2.1801291500894601e-01 1.0241167154653018e-02 0.0000000000000000e+00 1.0241167154653018e-02 1.1683134096687872e-01 0.0000000000000000e+00 0.0000000000000000e+00 0.0000000000000000e+00 0.0000000000000000e+00  6.0494949353108292e-02 2.8964814515923545e-02 0.0000000000000000e+00 2.8964814515923545e-02 4.9920136070368583e-03 0.0000000000000000e+00 0.0000000000000000e+00 0.0000000000000000e+00 0.0000000000000000e+00  -1.5529226235211259e-02 -1.9267013153034359e-02 0.0000000000000000e+00 -1.9267013153034359e-02 -9.2783809243115137e-03 0.0000000000000000e+00 0.0000000000000000e+00 0.0000000000000000e+00 0.0000000000000000e+00  -1.5535677379401629e-02 1.9255760106503747e-02 0.0000000000000000e+00 1.9255760106503747e-02 -9.2784082440877293e-03 0.0000000000000000e+00 0.0000000000000000e+00 0.0000000000000000e+00 0.0000000000000000e+00  6.0468640821590321e-02 -2.8979160779977944e-02 0.0000000000000000e+00 -2.8979160779977944e-02 5.0007089995676461e-03 0.0000000000000000e+00 0.0000000000000000e+00 0.0000000000000000e+00 0.0000000000000000e+00  2.1796289304719380e-01 -1.0277778475578644e-02 0.0000000000000000e+00 -1.0277778475578644e-02 1.1684382211437895e-01 0.0000000000000000e+00 0.0000000000000000e+00 0.0000000000000000e+00 0.0000000000000000e+00  7.9940812172977660e-02 9.9729342867340171e-02 0.0000000000000000e+00 9.9729342867340171e-02 1.4914815973289403e-01 0.0000000000000000e+00 0.0000000000000000e+00 0.0000000000000000e+00 0.0000000000000000e+00  7.9967216313083719e-02 -9.9979442017632605e-02 0.0000000000000000e+00 -9.9979442017632605e-02 1.4909834836880292e-01 0.0000000000000000e+00 0.0000000000000000e+00 0.0000000000000000e+00 0.0000000000000000e+00  2.1792679449280825e-01 1.0355485464131767e-02 0.0000000000000000e+00 1.0355485464131767e-02 1.1645806073640794e-01 0.0000000000000000e+00 0.0000000000000000e+00 0.0000000000000000e+00 0.0000000000000000e+00  6.2686733588657215e-02 2.7985810613342526e-02 0.0000000000000000e+00 2.7985810613342526e-02 7.1825292131233774e-03 0.0000000000000000e+00 0.0000000000000000e+00 0.0000000000000000e+00 0.0000000000000000e+00  -2.2627082272256894e-02 -1.5944239608128515e-02 0.0000000000000000e+00 -1.5944239608128515e-02 -1.5584568891704021e-02 0.0000000000000000e+00 0.0000000000000000e+00 0.0000000000000000e+00 0.0000000000000000e+00  6.1961385088979207e-03 3.1500271818003128e-03 0.0000000000000000e+00 3.1500271818003128e-03 6.1841605567814571e-03 0.0000000000000000e+00 0.0000000000000000e+00 0.0000000000000000e+00 0.0000000000000000e+00  -1.2060875664091949e-03 -1.0488786815479141e-03 0.0000000000000000e+00 -1.0488786815479141e-03 -1.6502208936297561e-03 0.0000000000000000e+00 0.0000000000000000e+00 0.0000000000000000e+00 0.0000000000000000e+00  1.6980237789979323e-04 2.0929719213226479e-04 0.0000000000000000e+00 2.0929719213226479e-04 3.1678195471780219e-04 0.0000000000000000e+00 0.0000000000000000e+00 0.0000000000000000e+00 0.0000000000000000e+00  -9.5650127685262121e-06 -3.2234436563109525e-05 0.0000000000000000e+00 -3.2234436563109525e-05 -2.0394234928519910e-05 0.0000000000000000e+00 0.0000000000000000e+00 0.0000000000000000e+00 0.0000000000000000e+00  1.3647701707440155e-05 -7.2044669324853756e-08 0.0000000000000000e+00 -7.2044669324853756e-08 2.4725528979579311e-05 0.0000000000000000e+00 0.0000000000000000e+00 0.0000000000000000e+00 0.0000000000000000e+00  1.5187273791978764e-05 -6.0046722828002347e-06 0.0000000000000000e+00 -6.0046722828002347e-06 2.0481724216192908e-05 0.0000000000000000e+00 0.0000000000000000e+00 0.0000000000000000e+00 0.0000000000000000e+00  1.7906364684637294e-05 -5.1137739499429775e-06 0.0000000000000000e+00 -5.1137739499429775e-06 2.0917950558803345e-05 0.0000000000000000e+00 0.0000000000000000e+00 0.0000000000000000e+00 0.0000000000000000e+00  1.9690355649933985e-05 -4.3687279193811084e-06 0.0000000000000000e+00 -4.3687279193811084e-06 2.0494147430689785e-05 0.0000000000000000e+00 0.0000000000000000e+00 0.0000000000000000e+00 0.0000000000000000e+00  2.0878258530502679e-05 -3.3698696929705387e-06 0.0000000000000000e+00 -3.3698696929705387e-06 2.0120881511312120e-05 0.0000000000000000e+00 0.0000000000000000e+00 0.0000000000000000e+00 0.0000000000000000e+00  2.1631001038468235e-05 -2.4408686464642166e-06 0.0000000000000000e+00 -2.4408686464642166e-06 1.9832700303181892e-05 0.0000000000000000e+00 0.0000000000000000e+00 0.0000000000000000e+00 0.0000000000000000e+00  2.2067914994867123e-05 -1.6399305904947437e-06 0.0000000000000000e+00 -1.6399305904947437e-06 1.9692251346082874e-05 0.0000000000000000e+00 0.0000000000000000e+00 0.0000000000000000e+00 0.0000000000000000e+00  2.2279309002252647e-05 -9.8040420624347811e-07 0.0000000000000000e+00 -9.8040420624347811e-07 1.9724343477021639e-05 0.0000000000000000e+00 0.0000000000000000e+00 0.0000000000000000e+00 0.0000000000000000e+00  2.2328885480010062e-05 -4.5216878390450327e-07 0.0000000000000000e+00 -4.5216878390450327e-07 1.9933824425518078e-05 0.0000000000000000e+00 0.0000000000000000e+00 0.0000000000000000e+00 0.0000000000000000e+00  2.2262559312650168e-05 -5.0079375094230495e-08 0.0000000000000000e+00 -5.0079375094230495e-08 2.0309361078000031e-05 0.0000000000000000e+00 0.0000000000000000e+00 0.0000000000000000e+00 0.0000000000000000e+00  2.2114664164975582e-05 2.0836941101218906e-07 0.0000000000000000e+00 2.0836941101218906e-07 2.0826986581141171e-05 0.0000000000000000e+00 0.0000000000000000e+00 0.0000000000000000e+00 0.0000000000000000e+00  2.1912429327453837e-05 2.6837620900122183e-07 0.0000000000000000e+00 2.6837620900122183e-07 2.1454902912436311e-05 0.0000000000000000e+00 0.0000000000000000e+00 0.0000000000000000e+00 0.0000000000000000e+00  1.2672234872091251e-03 -2.1901605571803284e-03 0.0000000000000000e+00 -2.1901605571803284e-03 3.6592110391947224e-03 0.0000000000000000e+00 0.0000000000000000e+00 0.0000000000000000e+00 0.0000000000000000e+00  -1.5741478889555061e-02 1.5894830066448897e-02 0.0000000000000000e+00 1.5894830066448897e-02 -2.2727648888938547e-02 0.0000000000000000e+00 0.0000000000000000e+00 0.0000000000000000e+00 0.0000000000000000e+00  8.5158078529109602e-02 -1.5148680245798692e-02 0.0000000000000000e+00 -1.5148680245798692e-02 8.5207039984756025e-02 0.0000000000000000e+00 0.0000000000000000e+00 0.0000000000000000e+00 0.0000000000000000e+00  -3.5620560253231043e-01 2.6926079914659778e-01 0.0000000000000000e+00 2.6926079914659778e-01 -3.1672677301351132e-01 0.0000000000000000e+00 0.0000000000000000e+00 0.0000000000000000e+00 0.0000000000000000e+00  -7.9284250266895429e-01 -3.1646652691044996e-01 0.0000000000000000e+00 -3.1646652691044996e-01 -2.9839115501686553e-01 0.0000000000000000e+00 0.0000000000000000e+00 0.0000000000000000e+00 0.0000000000000000e+00  -9.9540635976699793e-02 3.9113547764231094e-02 0.0000000000000000e+00 3.9113547764231094e-02 -1.8257899764282590e-01 0.0000000000000000e+00 0.0000000000000000e+00 0.0000000000000000e+00 0.0000000000000000e+00  -1.0393787352947645e-01 -3.6246897718425375e-02 0.0000000000000000e+00 -3.6246897718425375e-02 -1.8168806254877093e-01 0.0000000000000000e+00 0.0000000000000000e+00 0.0000000000000000e+00 0.0000000000000000e+00  -7.9937250654647451e-01 3.1342874632720680e-01 0.0000000000000000e+00 3.1342874632720680e-01 -2.9659131282223133e-01 0.0000000000000000e+00 0.0000000000000000e+00 0.0000000000000000e+00 0.0000000000000000e+00  -3.4871074129135599e-01 -2.6894636746603201e-01 0.0000000000000000e+00 -2.6894636746603201e-01 -3.1455668833515593e-01 0.0000000000000000e+00 0.0000000000000000e+00 0.0000000000000000e+00 0.0000000000000000e+00  5.2536651209610249e-02 3.5474434383535050e-02 0.0000000000000000e+00 3.5474434383535050e-02 5.7259138983067767e-02 0.0000000000000000e+00 0.0000000000000000e+00 0.0000000000000000e+00 0.0000000000000000e+00  5.2532827092464568e-02 -3.5475005901931547e-02 0.0000000000000000e+00 -3.5475005901931547e-02 5.7255304222789953e-02 0.0000000000000000e+00 0.0000000000000000e+00 0.0000000000000000e+00 0.0000000000000000e+00  -3.4871013079573038e-01 2.6892365062667362e-01 0.0000000000000000e+00 2.6892365062667362e-01 -3.1453381606297032e-01 0.0000000000000000e+00 0.0000000000000000e+00 0.0000000000000000e+00 0.0000000000000000e+00  -7.9931066533495221e-01 -3.1351795557659967e-01 0.0000000000000000e+00 -3.1351795557659967e-01 -2.9652368144455343e-01 0.0000000000000000e+00 0.0000000000000000e+00 0.0000000000000000e+00 0.0000000000000000e+00  -1.0387768442859124e-01 3.6155175085039203e-02 0.0000000000000000e+00 3.6155175085039203e-02 -1.8165888128287477e-01 0.0000000000000000e+00 0.0000000000000000e+00 0.0000000000000000e+00 0.0000000000000000e+00  -9.9491768850874712e-02 -3.9211177287605523e-02 0.0000000000000000e+00 -3.9211177287605523e-02 -1.8249790116008652e-01 0.0000000000000000e+00 0.0000000000000000e+00 0.0000000000000000e+00 0.0000000000000000e+00  -7.9277966607029182e-01 3.1633744658833174e-01 0.0000000000000000e+00 3.1633744658833174e-01 -2.9835548349774738e-01 0.0000000000000000e+00 0.0000000000000000e+00 0.0000000000000000e+00 0.0000000000000000e+00  -3.5604636094637643e-01 -2.6932785067512804e-01 0.0000000000000000e+00 -2.6932785067512804e-01 -3.1666874123394639e-01 0.0000000000000000e+00 0.0000000000000000e+00 0.0000000000000000e+00 0.0000000000000000e+00  8.5327526034395182e-02 1.5142035761915732e-02 0.0000000000000000e+00 1.5142035761915732e-02 8.5324834553484483e-02 0.0000000000000000e+00 0.0000000000000000e+00 0.0000000000000000e+00 0.0000000000000000e+00  -1.5582430474452718e-02 -1.5946674320375061e-02 0.0000000000000000e+00 -1.5946674320375061e-02 -2.2632195514464947e-02 0.0000000000000000e+00 0.0000000000000000e+00 0.0000000000000000e+00 0.0000000000000000e+00  1.4582247757815388e-03 2.4815495249030854e-03 0.0000000000000000e+00 2.4815495249030854e-03 3.9999525809184273e-03 0.0000000000000000e+00 0.0000000000000000e+00 0.0000000000000000e+00 0.0000000000000000e+00  -2.2805616180723564e-05 -2.8790824234249738e-04 0.0000000000000000e+00 -2.8790824234249738e-04 -2.2115483529732986e-04 0.0000000000000000e+00 0.0000000000000000e+00 0.0000000000000000e+00 0.0000000000000000e+00  7.7620456149020918e-06 1.9141769419186999e-05 0.0000000000000000e+00 1.9141769419186999e-05 3.5475791013158371e-05 0.0000000000000000e+00 0.0000000000000000e+00 0.0000000000000000e+00 0.0000000000000000e+00  1.8120654220189347e-05 -1.1230474951228522e-05 0.0000000000000000e+00 -1.1230474951228521e-05 2.1547234730961846e-05 0.0000000000000000e+00 0.0000000000000000e+00 0.0000000000000000e+00 0.0000000000000000e+00  1.9361510033275291e-05 -7.9512443235373274e-06 0.0000000000000000e+00 -7.9512443235373274e-06 2.0518870957027974e-05 0.0000000000000000e+00 0.0000000000000000e+00 0.0000000000000000e+00 0.0000000000000000e+00  2.1627308826608239e-05 -6.9996501096303664e-06 0.0000000000000000e+00 -6.9996501096303664e-06 1.9850982388458350e-05 0.0000000000000000e+00 0.0000000000000000e+00 0.0000000000000000e+00 0.0000000000000000e+00  2.2478661710553651e-05 -5.4346987206047547e-06 0.0000000000000000e+00 -5.4346987206047547e-06 1.9257506590478773e-05 0.0000000000000000e+00 0.0000000000000000e+00 0.0000000000000000e+00 0.0000000000000000e+00  2.2943148841067320e-05 -4.0082285027571105e-06 0.0000000000000000e+00 -4.0082285027571105e-06 1.8961156932859499e-05 0.0000000000000000e+00 0.0000000000000000e+00 0.0000000000000000e+00 0.0000000000000000e+00  2.3121624678931928e-05 -2.7852022991359886e-06 0.0000000000000000e+00 -2.7852022991359886e-06 1.8838973626558867e-05 0.0000000000000000e+00 0.0000000000000000e+00 0.0000000000000000e+00 0.0000000000000000e+00  2.3146935862181684e-05 -1.7874146911418311e-06 0.0000000000000000e+00 -1.7874146911418311e-06 1.8878001856326556e-05 0.0000000000000000e+00 0.0000000000000000e+00 0.0000000000000000e+00 0.0000000000000000e+00  2.3073886048490198e-05 -9.9003904059751907e-07 0.0000000000000000e+00 -9.9003904059751907e-07 1.9071604352885506e-05 0.0000000000000000e+00 0.0000000000000000e+00 0.0000000000000000e+00 0.0000000000000000e+00  2.2932719530801511e-05 -3.6211867282913749e-07 0.0000000000000000e+00 -3.6211867282913749e-07 1.9423622560855922e-05 0.0000000000000000e+00 0.0000000000000000e+00 0.0000000000000000e+00 0.0000000000000000e+00  2.2737879294837553e-05 1.1478772132780938e-07 0.0000000000000000e+00 1.1478772132780938e-07 1.9939823034836481e-05 0.0000000000000000e+00 0.0000000000000000e+00 0.0000000000000000e+00 0.0000000000000000e+00  2.2493937455487427e-05 4.3221772607038468e-07 0.0000000000000000e+00 4.3221772607038468e-07 2.0628545089071038e-05 0.0000000000000000e+00 0.0000000000000000e+00 0.0000000000000000e+00 0.0000000000000000e+00  2.2196705767731135e-05 5.4298021226489456e-07 0.0000000000000000e+00 5.4298021226489456e-07 2.1504671607065994e-05 0.0000000000000000e+00 0.0000000000000000e+00 0.0000000000000000e+00 0.0000000000000000e+00  2.8657927912832297e-03 1.8723209529251561e-03 0.0000000000000000e+00 1.8723209529251561e-03 2.4644022708402448e-03 0.0000000000000000e+00 0.0000000000000000e+00 0.0000000000000000e+00 0.0000000000000000e+00  7.1410600051322673e-03 -2.8043479243638831e-02 0.0000000000000000e+00 -2.8043479243638831e-02 6.2567078430571771e-02 0.0000000000000000e+00 0.0000000000000000e+00 0.0000000000000000e+00 0.0000000000000000e+00  -3.1669558984431784e-01 2.6922314213261378e-01 0.0000000000000000e+00 2.6922314213261378e-01 -3.5599061846363417e-01 0.0000000000000000e+00 0.0000000000000000e+00 0.0000000000000000e+00 0.0000000000000000e+00  -3.9744196450596597e-02 -2.2888129762670684e-01 0.0000000000000000e+00 -2.2888129762670684e-01 -4.0863173855326326e-02 0.0000000000000000e+00 0.0000000000000000e+00 0.0000000000000000e+00 0.0000000000000000e+00  -2.0020670445250657e-01 1.3234506227757606e-01 0.0000000000000000e+00 1.3234506227757606e-01 -2.2344090250925730e-01 0.0000000000000000e+00 0.0000000000000000e+00 0.0000000000000000e+00 0.0000000000000000e+00  -1.7138560820530013e-01 1.9284660651731934e-02 0.0000000000000000e+00 1.9284660651731934e-02 -9.7864859554849637e-02 0.0000000000000000e+00 0.0000000000000000e+00 0.0000000000000000e+00 0.0000000000000000e+00  -1.7680382085143967e-01 -5.7260301467920612e-03 0.0000000000000000e+00 -5.7260301467920612e-03 -9.2594627426899626e-02 0.0000000000000000e+00 0.0000000000000000e+00 0.0000000000000000e+00 0.0000000000000000e+00  -2.2431308127405744e-01 -1.2661958468949333e-01 0.0000000000000000e+00 -1.2661958468949333e-01 -2.0828844740167518e-01 0.0000000000000000e+00 0.0000000000000000e+00 0.0000000000000000e+00 0.0000000000000000e+00  -8.3514841057229394e-02 1.8965369866476742e-01 0.0000000000000000e+00 1.8965369866476742e-01 -3.3176349543625416e-02 0.0000000000000000e+00 0.0000000000000000e+00 0.0000000000000000e+00 0.0000000000000000e+00  -2.1350973446248186e-01 -2.8982351570704790e-01 0.0000000000000000e+00 -2.8982351570704790e-01 -3.1716358637395231e-01 0.0000000000000000e+00 0.0000000000000000e+00 0.0000000000000000e+00 0.0000000000000000e+00  -2.1350366214406050e-01 2.8981508400009565e-01 0.0000000000000000e+00 2.8981508400009565e-01 -3.1715415434872757e-01 0.0000000000000000e+00 0.0000000000000000e+00 0.0000000000000000e+00 0.0000000000000000e+00  -8.3453468988904003e-02 -1.8973228993072269e-01 0.0000000000000000e+00 -1.8973228993072269e-01 -3.3090600516469400e-02 0.0000000000000000e+00 0.0000000000000000e+00 0.0000000000000000e+00 0.0000000000000000e+00  -2.2427941758830916e-01 1.2656051196296314e-01 0.0000000000000000e+00 1.2656051196296314e-01 -2.0822509263345532e-01 0.0000000000000000e+00 0.0000000000000000e+00 0.0000000000000000e+00 0.0000000000000000e+00  -1.7679005004987880e-01 5.6638150050134532e-03 0.0000000000000000e+00 5.6638150050134532e-03 -9.2536740949956175e-02 0.0000000000000000e+00 0.0000000000000000e+00 0.0000000000000000e+00 0.0000000000000000e+00  -1.7140273729300856e-01 -1.9351876402178392e-02 0.0000000000000000e+00 -1.9351876402178392e-02 -9.7804755735711874e-02 0.0000000000000000e+00 0.0000000000000000e+00 0.0000000000000000e+00 0.0000000000000000e+00  -2.0026568268248798e-01 -1.3242652360838789e-01 0.0000000000000000e+00 -1.3242652360838789e-01 -2.2339566644947370e-01 0.0000000000000000e+00 0.0000000000000000e+00 0.0000000000000000e+00 0.0000000000000000e+00  -3.9876997127591636e-02 2.2872302499495972e-01 0.0000000000000000e+00 2.2872302499495972e-01 -4.0895605675380003e-02 0.0000000000000000e+00 0.0000000000000000e+00 0.0000000000000000e+00 0.0000000000000000e+00  -3.1670303215837081e-01 -2.6932044417096351e-01 0.0000000000000000e+00 -2.6932044417096351e-01 -3.5589520256091739e-01 0.0000000000000000e+00 0.0000000000000000e+00 0.0000000000000000e+00 0.0000000000000000e+00  7.1755566257522283e-03 2.7983647619687749e-02 0.0000000000000000e+00 2.7983647619687749e-02 6.2674507535516330e-02 0.0000000000000000e+00 0.0000000000000000e+00 0.0000000000000000e+00 0.0000000000000000e+00  3.2209714787650181e-03 -1.7658369707730926e-03 0.0000000000000000e+00 -1.7658369707730926e-03 2.8579105318608821e-03 0.0000000000000000e+00 0.0000000000000000e+00 0.0000000000000000e+00 0.0000000000000000e+00  -2.2879969186516134e-04 -1.1101097989479909e-04 0.0000000000000000e+00 -1.1101097989479909e-04 -3.4185931277939350e-04 0.0000000000000000e+00 0.0000000000000000e+00 0.0000000000000000e+00 0.0000000000000000e+00  6.9171018527198661e-05 2.0214591388956211e-06 0.0000000000000000e+00 2.0214591388956211e-06 7.6995856899827331e-05 0.0000000000000000e+00 0.0000000000000000e+00 0.0000000000000000e+00 0.0000000000000000e+00  1.8801938527808216e-05 -1.3573078241386703e-05 0.0000000000000000e+00 -1.3573078241386703e-05 1.3541024209790856e-05 0.0000000000000000e+00 0.0000000000000000e+00 0.0000000000000000e+00 0.0000000000000000e+00  2.7763044485524058e-05 -9.3913698633431898e-06 0.0000000000000000e+00 -9.3913698633431898e-06 2.0097318442182580e-05 0.0000000000000000e+00 0.0000000000000000e+00 0.0000000000000000e+00 0.0000000000000000e+00  2.6362584893580464e-05 -7.4531471495390006e-06 0.0000000000000000e+00 -7.4531471495390006e-06 1.7845388209305603e-05 0.0000000000000000e+00 0.0000000000000000e+00 0.0000000000000000e+00 0.0000000000000000e+00  2.5970806108945003e-05 -5.4527273937431520e-06 0.0000000000000000e+00 -5.4527273937431520e-06 1.7628814852103230e-05 0.0000000000000000e+00 0.0000000000000000e+00 0.0000000000000000e+00 0.0000000000000000e+00  2.5315454973405932e-05 -3.8530208651838985e-06 0.0000000000000000e+00 -3.8530208651838985e-06 1.7560659278956546e-05 0.0000000000000000e+00 0.0000000000000000e+00 0.0000000000000000e+00 0.0000000000000000e+00  2.4746131473125694e-05 -2.5663130448800247e-06 0.0000000000000000e+00 -2.5663130448800247e-06 1.7707457116076069e-05 0.0000000000000000e+00 0.0000000000000000e+00 0.0000000000000000e+00 0.0000000000000000e+00  2.4256074875839740e-05 -1.5484765634761959e-06 0.0000000000000000e+00 -1.5484765634761959e-06 1.7974990036114648e-05 0.0000000000000000e+00 0.0000000000000000e+00 0.0000000000000000e+00 0.0000000000000000e+00  2.3840323313042224e-05 -7.4255566875855391e-07 0.0000000000000000e+00 -7.4255566875855391e-07 1.8356053460719757e-05 0.0000000000000000e+00 0.0000000000000000e+00 0.0000000000000000e+00 0.0000000000000000e+00  2.3475740508564039e-05 -1.0428700075998990e-07 0.0000000000000000e+00 -1.0428700075998990e-07 1.8863222243749075e-05 0.0000000000000000e+00 0.0000000000000000e+00 0.0000000000000000e+00 0.0000000000000000e+00  2.3136016654814074e-05 3.9221643845017334e-07 0.0000000000000000e+00 3.9221643845017334e-07 1.9523867126854908e-05 0.0000000000000000e+00 0.0000000000000000e+00 0.0000000000000000e+00 0.0000000000000000e+00  2.2790497983744041e-05 7.4611357607024302e-07 0.0000000000000000e+00 7.4611357607024302e-07 2.0378901649979668e-05 0.0000000000000000e+00 0.0000000000000000e+00 0.0000000000000000e+00 0.0000000000000000e+00  2.2400784223659026e-05 9.2130214871134063e-07 0.0000000000000000e+00 9.2130214871134063e-07 2.1488153537119052e-05 0.0000000000000000e+00 0.0000000000000000e+00 0.0000000000000000e+00 0.0000000000000000e+00  8.5125176191271380e-05 7.8389441979322266e-03 0.0000000000000000e+00 7.8389441979322266e-03 -6.1716076359340189e-03 0.0000000000000000e+00 0.0000000000000000e+00 0.0000000000000000e+00 0.0000000000000000e+00  1.1655718101228556e-01 -1.0434226232958999e-02 0.0000000000000000e+00 -1.0434226232958999e-02 2.1746798780093185e-01 0.0000000000000000e+00 0.0000000000000000e+00 0.0000000000000000e+00 0.0000000000000000e+00  -2.9726043893456000e-01 -3.1783191388071724e-01 0.0000000000000000e+00 -3.1783191388071724e-01 -7.9097338706900056e-01 0.0000000000000000e+00 0.0000000000000000e+00 0.0000000000000000e+00 0.0000000000000000e+00  -2.2052187645498586e-01 1.3037428015362518e-01 0.0000000000000000e+00 1.3037428015362518e-01 -2.0221052009448581e-01 0.0000000000000000e+00 0.0000000000000000e+00 0.0000000000000000e+00 0.0000000000000000e+00  -1.4093538563185187e-01 -3.7784375934977986e-02 0.0000000000000000e+00 -3.7784375934977986e-02 -1.4728377780664653e-01 0.0000000000000000e+00 0.0000000000000000e+00 0.0000000000000000e+00 0.0000000000000000e+00  -1.4832398868859517e-01 1.3414382223204190e-02 0.0000000000000000e+00 1.3414382223204190e-02 -1.3990218539232280e-01 0.0000000000000000e+00 0.0000000000000000e+00 0.0000000000000000e+00 0.0000000000000000e+00  -1.4930792141683366e-01 7.8013775898362189e-03 0.0000000000000000e+00 7.8013775898362189e-03 -1.3326042815099082e-01 0.0000000000000000e+00 0.0000000000000000e+00 0.0000000000000000e+00 0.0000000000000000e+00  -1.4632074466816958e-01 6.1720212957901505e-02 0.0000000000000000e+00 6.1720212957901505e-02 -1.2680890143029563e-01 0.0000000000000000e+00 0.0000000000000000e+00 0.0000000000000000e+00 0.0000000000000000e+00  -2.9752701135005866e-01 -1.1878627932796927e-01 0.0000000000000000e+00 -1.1878627932796927e-01 -1.1757887592049016e-01 0.0000000000000000e+00 0.0000000000000000e+00 0.0000000000000000e+00 0.0000000000000000e+00  -6.4909288107319185e-01 1.2808343440708980e-01 0.0000000000000000e+00 1.2808343440708980e-01 -8.0859720601712604e-01 0.0000000000000000e+00 0.0000000000000000e+00 0.0000000000000000e+00 0.0000000000000000e+00  -6.4906165977096386e-01 -1.2815448978201538e-01 0.0000000000000000e+00 -1.2815448978201538e-01 -8.0852150009800783e-01 0.0000000000000000e+00 0.0000000000000000e+00 0.0000000000000000e+00 0.0000000000000000e+00  -2.9751336592342559e-01 1.1874176624888012e-01 0.0000000000000000e+00 1.1874176624888012e-01 -1.1751420114346005e-01 0.0000000000000000e+00 0.0000000000000000e+00 0.0000000000000000e+00 0.0000000000000000e+00  -1.4631801349277362e-01 -6.1761504545563027e-02 0.0000000000000000e+00 -6.1761504545563027e-02 -1.2674336107242268e-01 0.0000000000000000e+00 0.0000000000000000e+00 0.0000000000000000e+00 0.0000000000000000e+00  -1.4932402256295871e-01 -7.8389658644904790e-03 0.0000000000000000e+00 -7.8389658644904790e-03 -1.3319994004767260e-01 0.0000000000000000e+00 0.0000000000000000e+00 0.0000000000000000e+00 0.0000000000000000e+00  -1.4836459998990725e-01 -1.3447808514483265e-02 0.0000000000000000e+00 -1.3447808514483265e-02 -1.3984589204856926e-01 0.0000000000000000e+00 0.0000000000000000e+00 0.0000000000000000e+00 0.0000000000000000e+00  -1.4101109119576605e-01 3.7753774325789226e-02 0.0000000000000000e+00 3.7753774325789226e-02 -1.4723495397558140e-01 0.0000000000000000e+00 0.0000000000000000e+00 0.0000000000000000e+00 0.0000000000000000e+00  -2.2065646066940836e-01 -1.3041710654935834e-01 0.0000000000000000e+00 -1.3041710654935834e-01 -2.0215600592748034e-01 0.0000000000000000e+00 0.0000000000000000e+00 0.0000000000000000e+00 0.0000000000000000e+00  -2.9758773621789297e-01 3.1758910407434920e-01 0.0000000000000000e+00 3.1758910407434920e-01 -7.9094304668267224e-01 0.0000000000000000e+00 0.0000000000000000e+00 0.0000000000000000e+00 0.0000000000000000e+00  1.1649877362661715e-01 1.0320092118451616e-02 0.0000000000000000e+00 1.0320092118451616e-02 2.1769255451128436e-01 0.0000000000000000e+00 0.0000000000000000e+00 0.0000000000000000e+00 0.0000000000000000e+00  -6.2389478592311831e-04 -8.2644103770802193e-03 0.0000000000000000e+00 -8.2644103770802193e-03 -7.0835542911852631e-03 0.0000000000000000e+00 0.0000000000000000e+00 0.0000000000000000e+00 0.0000000000000000e+00  6.6566378590440822e-04 4.4648501641101723e-04 0.0000000000000000e+00 4.4648501641101723e-04 8.4215510103884616e-04 0.0000000000000000e+00 0.0000000000000000e+00 0.0000000000000000e+00 0.0000000000000000e+00  -3.6199245410316211e-05 -5.4562027929402352e-05 0.0000000000000000e+00 -5.4562027929402352e-05 -6.8998761585056201e-05 0.0000000000000000e+00 0.0000000000000000e+00 0.0000000000000000e+00 0.0000000000000000e+00  4.7564449885797954e-05 -5.7093139662276339e-06 0.0000000000000000e+00 -5.7093139662276339e-06 3.0124721671336156e-05 0.0000000000000000e+00 0.0000000000000000e+00 0.0000000000000000e+00 0.0000000000000000e+00  3.3151822199304491e-05 -8.8047388367422435e-06 0.0000000000000000e+00 -8.8047388367422435e-06 1.5159979313321014e-05 0.0000000000000000e+00 0.0000000000000000e+00 0.0000000000000000e+00 0.0000000000000000e+00  3.1616675797250805e-05 -5.7432015158894863e-06 0.0000000000000000e+00 -5.7432015158894854e-06 1.6098015106017464e-05 0.0000000000000000e+00 0.0000000000000000e+00 0.0000000000000000e+00 0.0000000000000000e+00  2.9107804847998785e-05 -4.1332570449387077e-06 0.0000000000000000e+00 -4.1332570449387077e-06 1.5913278901775367e-05 0.0000000000000000e+00 0.0000000000000000e+00 0.0000000000000000e+00 0.0000000000000000e+00  2.7379402283695555e-05 -2.7764255272214480e-06 0.0000000000000000e+00 -2.7764255272214480e-06 1.6246266411047065e-05 0.0000000000000000e+00 0.0000000000000000e+00 0.0000000000000000e+00 0.0000000000000000e+00  2.6071620176131043e-05 -1.7337218594592964e-06 0.0000000000000000e+00 -1.7337218594592964e-06 1.6663704443254092e-05 0.0000000000000000e+00 0.0000000000000000e+00 0.0000000000000000e+00 0.0000000000000000e+00  2.5105142525129564e-05 -9.0252527771906643e-07 0.0000000000000000e+00 -9.0252527771906643e-07 1.7146408943115693e-05 0.0000000000000000e+00 0.0000000000000000e+00 0.0000000000000000e+00 0.0000000000000000e+00  2.4379257583386818e-05 -2.3049391329216498e-07 0.0000000000000000e+00 -2.3049391329216498e-07 1.7690969086823895e-05 0.0000000000000000e+00 0.0000000000000000e+00 0.0000000000000000e+00 0.0000000000000000e+00  2.3816461711555091e-05 3.2245416201081311e-07 0.0000000000000000e+00 3.2245416201081311e-07 1.8327313152568105e-05 0.0000000000000000e+00 0.0000000000000000e+00 0.0000000000000000e+00 0.0000000000000000e+00  2.3350999091674502e-05 7.7901676549803696e-07 0.0000000000000000e+00 7.7901676549803696e-07 1.9103048640263441e-05 0.0000000000000000e+00 0.0000000000000000e+00 0.0000000000000000e+00 0.0000000000000000e+00  2.2920841414837809e-05 1.1421328045701728e-06 0.0000000000000000e+00 1.1421328045701728e-06 2.0086288105077702e-05 0.0000000000000000e+00 0.0000000000000000e+00 0.0000000000000000e+00 0.0000000000000000e+00  2.2458116834765093e-05 1.3892694749784647e-06 0.0000000000000000e+00 1.3892694749784647e-06 2.1373859495020938e-05 0.0000000000000000e+00 0.0000000000000000e+00 0.0000000000000000e+00 0.0000000000000000e+00  1.1584496988088335e-02 2.6364298152793614e-03 0.0000000000000000e+00 2.6364298152793614e-03 3.4983808497360976e-03 0.0000000000000000e+00 0.0000000000000000e+00 0.0000000000000000e+00 0.0000000000000000e+00  1.4947156934540920e-01 9.9709157814180535e-02 0.0000000000000000e+00 9.9709157814180535e-02 7.9944429728366434e-02 0.0000000000000000e+00 0.0000000000000000e+00 0.0000000000000000e+00 0.0000000000000000e+00  -1.8194046833397004e-01 3.6907693689543927e-02 0.0000000000000000e+00 3.6907693689543927e-02 -9.4837623901849494e-02 0.0000000000000000e+00 0.0000000000000000e+00 0.0000000000000000e+00 0.0000000000000000e+00  -9.5693927269677861e-02 1.3872662008966214e-02 0.0000000000000000e+00 1.3872662008966214e-02 -1.7222560015457997e-01 0.0000000000000000e+00 0.0000000000000000e+00 0.0000000000000000e+00 0.0000000000000000e+00  -1.3183670373289672e-01 7.3896014762252276e-03 0.0000000000000000e+00 7.3896014762252276e-03 -1.5803007026895199e-01 0.0000000000000000e+00 0.0000000000000000e+00 0.0000000000000000e+00 0.0000000000000000e+00  -1.2988387944448643e-01 -1.1036422287597279e-03 0.0000000000000000e+00 -1.1036422287597279e-03 -1.4680789384638820e-01 0.0000000000000000e+00 0.0000000000000000e+00 0.0000000000000000e+00 0.0000000000000000e+00  -1.1964253286443317e-01 1.2494769685160367e-02 0.0000000000000000e+00 1.2494769685160367e-02 -1.4391197513621720e-01 0.0000000000000000e+00 0.0000000000000000e+00 0.0000000000000000e+00 0.0000000000000000e+00  -9.9199655150283866e-02 9.6565203111341757e-03 0.0000000000000000e+00 9.6565203111341757e-03 -1.4265652025798811e-01 0.0000000000000000e+00 0.0000000000000000e+00 0.0000000000000000e+00 0.0000000000000000e+00  -6.6779143989465939e-02 2.6297621569514536e-02 0.0000000000000000e+00 2.6297621569514536e-02 -1.0385195997766486e-01 0.0000000000000000e+00 0.0000000000000000e+00 0.0000000000000000e+00 0.0000000000000000e+00  -9.6290912219632374e-02 -2.3939058225835838e-01 0.0000000000000000e+00 -2.3939058225835838e-01 1.9100019911464289e-01 0.0000000000000000e+00 0.0000000000000000e+00 0.0000000000000000e+00 0.0000000000000000e+00  -9.6295644089535948e-02 2.3932335609083427e-01 0.0000000000000000e+00 2.3932335609083427e-01 1.9104122940082283e-01 0.0000000000000000e+00 0.0000000000000000e+00 0.0000000000000000e+00 0.0000000000000000e+00  -6.6792349383376207e-02 -2.6337574598098341e-02 0.0000000000000000e+00 -2.6337574598098341e-02 -1.0379862591215849e-01 0.0000000000000000e+00 0.0000000000000000e+00 0.0000000000000000e+00 0.0000000000000000e+00  -9.9223320543416135e-02 -9.6838893269465334e-03 0.0000000000000000e+00 -9.6838893269465334e-03 -1.4259772737322995e-01 0.0000000000000000e+00 0.0000000000000000e+00 0.0000000000000000e+00 0.0000000000000000e+00  -1.1967712336282080e-01 -1.2516362528385269e-02 0.0000000000000000e+00 -1.2516362528385269e-02 -1.4385529742704695e-01 0.0000000000000000e+00 0.0000000000000000e+00 0.0000000000000000e+00 0.0000000000000000e+00  -1.2992865273987680e-01 1.0870334347471442e-03 0.0000000000000000e+00 1.0870334347471442e-03 -1.4675887540964480e-01 0.0000000000000000e+00 0.0000000000000000e+00 0.0000000000000000e+00 0.0000000000000000e+00  -1.3188456072226923e-01 -7.3966680203119521e-03 0.0000000000000000e+00 -7.3966680203119521e-03 -1.5798905970122415e-01 0.0000000000000000e+00 0.0000000000000000e+00 0.0000000000000000e+00 0.0000000000000000e+00  -9.5725747897356009e-02 -1.3889406261836617e-02 0.0000000000000000e+00 -1.3889406261836617e-02 -1.7216708722231081e-01 0.0000000000000000e+00 0.0000000000000000e+00 0.0000000000000000e+00 0.0000000000000000e+00  -1.8187483439518415e-01 -3.6899868047213714e-02 0.0000000000000000e+00 -3.6899868047213714e-02 -9.4534275194345888e-02 0.0000000000000000e+00 0.0000000000000000e+00 0.0000000000000000e+00 0.0000000000000000e+00  1.4928028674403315e-01 -9.9934822398479339e-02 0.0000000000000000e+00 -9.9934822398479339e-02 7.9704174378742762e-02 0.0000000000000000e+00 0.0000000000000000e+00 0.0000000000000000e+00 0.0000000000000000e+00  1.1647166161912975e-02 -2.5624544732298291e-03 0.0000000000000000e+00 -2.5624544732298291e-03 3.6571566477683506e-03 0.0000000000000000e+00 0.0000000000000000e+00 0.0000000000000000e+00 0.0000000000000000e+00  -3.7818882922285499e-04 -6.1502171583727568e-05 0.0000000000000000e+00 -6.1502171583727568e-05 -3.7597203610235090e-04 0.0000000000000000e+00 0.0000000000000000e+00 0.0000000000000000e+00 0.0000000000000000e+00  9.7811508895604167e-05 2.1932104764936987e-05 0.0000000000000000e+00 2.1932104764936987e-05 7.0347809181072932e-05 0.0000000000000000e+00 0.0000000000000000e+00 0.0000000000000000e+00 0.0000000000000000e+00  4.1829997320178301e-05 -9.9400192502506327e-06 0.0000000000000000e+00 -9.9400192502506327e-06 1.1085478828423390e-05 0.0000000000000000e+00 0.0000000000000000e+00 0.0000000000000000e+00 0.0000000000000000e+00  4.0030438347697842e-05 -2.4530525589853779e-06 0.0000000000000000e+00 -2.4530525589853775e-06 1.5368359226518902e-05 0.0000000000000000e+00 0.0000000000000000e+00 0.0000000000000000e+00 0.0000000000000000e+00  3.4374081920237222e-05 -2.5002156756595710e-06 0.0000000000000000e+00 -2.5002156756595706e-06 1.4384185958743109e-05 0.0000000000000000e+00 0.0000000000000000e+00 0.0000000000000000e+00 0.0000000000000000e+00  3.0934525685340580e-05 -1.5665194730967483e-06 0.0000000000000000e+00 -1.5665194730967483e-06 1.4826325921340538e-05 0.0000000000000000e+00 0.0000000000000000e+00 0.0000000000000000e+00 0.0000000000000000e+00  2.8440832758990636e-05 -9.5991434081568303e-07 0.0000000000000000e+00 -9.5991434081568303e-07 1.5353683388334518e-05 0.0000000000000000e+00 0.0000000000000000e+00 0.0000000000000000e+00 0.0000000000000000e+00  2.6681947759241507e-05 -4.1700349740328517e-07 0.0000000000000000e+00 -4.1700349740328517e-07 1.5943962452124992e-05 0.0000000000000000e+00 0.0000000000000000e+00 0.0000000000000000e+00 0.0000000000000000e+00  2.5422896710258328e-05 5.5492508465248313e-08 0.0000000000000000e+00 5.5492508465248313e-08 1.6547719730128089e-05 0.0000000000000000e+00 0.0000000000000000e+00 0.0000000000000000e+00 0.0000000000000000e+00  2.4509843636305195e-05 4.8172522918695173e-07 0.0000000000000000e+00 4.8172522918695173e-07 1.7181353016359749e-05 0.0000000000000000e+00 0.0000000000000000e+00 0.0000000000000000e+00 0.0000000000000000e+00  2.3828692684968845e-05 8.7496273346134741e-07 0.0000000000000000e+00 8.7496273346134741e-07 1.7884498581530523e-05 0.0000000000000000e+00 0.0000000000000000e+00 0.0000000000000000e+00 0.0000000000000000e+00  2.3289999912295619e-05 1.2449180863037453e-06 0.0000000000000000e+00 1.2449180863037453e-06 1.8716656404770790e-05 0.0000000000000000e+00 0.0000000000000000e+00 0.0000000000000000e+00 0.0000000000000000e+00  2.2812997462086520e-05 1.5945298346160584e-06 0.0000000000000000e+00 1.5945298346160584e-06 1.9761518972023073e-05 0.0000000000000000e+00 0.0000000000000000e+00 0.0000000000000000e+00 0.0000000000000000e+00  2.2312091552194925e-05 1.9168445436118707e-06 0.0000000000000000e+00 1.9168445436118707e-06 2.1137892372697236e-05 0.0000000000000000e+00 0.0000000000000000e+00 0.0000000000000000e+00 0.0000000000000000e+00  1.1597361073295839e-02 -2.6088521845251023e-03 0.0000000000000000e+00 -2.6088521845251023e-03 3.5082596639955856e-03 0.0000000000000000e+00 0.0000000000000000e+00 0.0000000000000000e+00 0.0000000000000000e+00  1.4947059254387127e-01 -9.9688445348828703e-02 0.0000000000000000e+00 -9.9688445348828703e-02 7.9947681388294181e-02 0.0000000000000000e+00 0.0000000000000000e+00 0.0000000000000000e+00 0.0000000000000000e+00  -1.8194814075056176e-01 -3.6913402140421783e-02 0.0000000000000000e+00 -3.6913402140421783e-02 -9.4841655418751655e-02 0.0000000000000000e+00 0.0000000000000000e+00 0.0000000000000000e+00 0.0000000000000000e+00  -9.5684220931509412e-02 -1.3878338130585290e-02 0.0000000000000000e+00 -1.3878338130585290e-02 -1.7222431378231834e-01 0.0000000000000000e+00 0.0000000000000000e+00 0.0000000000000000e+00 0.0000000000000000e+00  -1.3182314977293610e-01 -7.3938439804490620e-03 0.0000000000000000e+00 -7.3938439804490620e-03 -1.5803033703897060e-01 0.0000000000000000e+00 0.0000000000000000e+00 0.0000000000000000e+00 0.0000000000000000e+00  -1.2986906621646707e-01 1.0986064667260840e-03 0.0000000000000000e+00 1.0986064667260840e-03 -1.4680679997136431e-01 0.0000000000000000e+00 0.0000000000000000e+00 0.0000000000000000e+00 0.0000000000000000e+00  -1.1962502757057381e-01 -1.2502582021369930e-02 0.0000000000000000e+00 -1.2502582021369930e-02 -1.4391057327929033e-01 0.0000000000000000e+00 0.0000000000000000e+00 0.0000000000000000e+00 0.0000000000000000e+00  -9.9178204955929869e-02 -9.6665813874159089e-03 0.0000000000000000e+00 -9.6665813874159089e-03 -1.4265519013608233e-01 0.0000000000000000e+00 0.0000000000000000e+00 0.0000000000000000e+00 0.0000000000000000e+00  -6.6753337641009755e-02 -2.6314949175308095e-02 0.0000000000000000e+00 -2.6314949175308095e-02 -1.0384544334938853e-01 0.0000000000000000e+00 0.0000000000000000e+00 0.0000000000000000e+00 0.0000000000000000e+00  -9.6269210112737022e-02 2.3934760298275889e-01 0.0000000000000000e+00 2.3934760298275889e-01 1.9102615890656482e-01 0.0000000000000000e+00 0.0000000000000000e+00 0.0000000000000000e+00 0.0000000000000000e+00  -9.6280196003768290e-02 -2.3939844637447616e-01 0.0000000000000000e+00 -2.3939844637447616e-01 1.9103274805837303e-01 0.0000000000000000e+00 0.0000000000000000e+00 0.0000000000000000e+00 0.0000000000000000e+00  -6.6779762621597100e-02 2.6285871826291649e-02 0.0000000000000000e+00 2.6285871826291649e-02 -1.0380741300565322e-01 0.0000000000000000e+00 0.0000000000000000e+00 0.0000000000000000e+00 0.0000000000000000e+00  -9.9216177568562089e-02 9.6495673949974423e-03 0.0000000000000000e+00 9.6495673949974423e-03 -1.4260462682318156e-01 0.0000000000000000e+00 0.0000000000000000e+00 0.0000000000000000e+00 0.0000000000000000e+00  -1.1967376273032701e-01 1.2491117914850244e-02 0.0000000000000000e+00 1.2491117914850244e-02 -1.4385803750182447e-01 0.0000000000000000e+00 0.0000000000000000e+00 0.0000000000000000e+00 0.0000000000000000e+00  -1.2992669385103750e-01 -1.1090780394263791e-03 0.0000000000000000e+00 -1.1090780394263791e-03 -1.4676001018794985e-01 0.0000000000000000e+00 0.0000000000000000e+00 0.0000000000000000e+00 0.0000000000000000e+00  -1.3188275885369280e-01 7.3777475090365469e-03 0.0000000000000000e+00 7.3777475090365469e-03 -1.5799145288512170e-01 0.0000000000000000e+00 0.0000000000000000e+00 0.0000000000000000e+00 0.0000000000000000e+00  -9.5724052798049450e-02 1.3877299728381842e-02 0.0000000000000000e+00 1.3877299728381842e-02 -1.7217119222663846e-01 0.0000000000000000e+00 0.0000000000000000e+00 0.0000000000000000e+00 0.0000000000000000e+00  -1.8187369360167085e-01 3.6897074670418979e-02 0.0000000000000000e+00 3.6897074670418979e-02 -9.4538374527216668e-02 0.0000000000000000e+00 0.0000000000000000e+00 0.0000000000000000e+00 0.0000000000000000e+00  1.4928052330124791e-01 9.9934646779112832e-02 0.0000000000000000e+00 9.9934646779112832e-02 7.9704247881999452e-02 0.0000000000000000e+00 0.0000000000000000e+00 0.0000000000000000e+00 0.0000000000000000e+00  1.1646733323034935e-02 2.5626352525551844e-03 0.0000000000000000e+00 2.5626352525551844e-03 3.6570435199100152e-03 0.0000000000000000e+00 0.0000000000000000e+00 0.0000000000000000e+00 0.0000000000000000e+00  -3.7867580375533651e-04 6.1512160288763290e-05 0.0000000000000000e+00 6.1512160288763290e-05 -3.7586317072129522e-04 0.0000000000000000e+00 0.0000000000000000e+00 0.0000000000000000e+00 0.0000000000000000e+00  9.7338823304205229e-05 -2.2173685715987623e-05 0.0000000000000000e+00 -2.2173685715987623e-05 7.0476091840124949e-05 0.0000000000000000e+00 0.0000000000000000e+00 0.0000000000000000e+00 0.0000000000000000e+00  4.1380772055571113e-05 9.4854990242289165e-06 0.0000000000000000e+00 9.4854990242289165e-06 1.1163555466189183e-05 0.0000000000000000e+00 0.0000000000000000e+00 0.0000000000000000e+00 0.0000000000000000e+00  3.9613226865909002e-05 1.9211330628835007e-06 0.0000000000000000e+00 1.9211330628835007e-06 1.5364766945009468e-05 0.0000000000000000e+00 0.0000000000000000e+00 0.0000000000000000e+00 0.0000000000000000e+00  3.3985904769948355e-05 2.0631344185107612e-06 0.0000000000000000e+00 2.0631344185107612e-06 1.4294275861561486e-05 0.0000000000000000e+00 0.0000000000000000e+00 0.0000000000000000e+00 0.0000000000000000e+00  3.0563828857724248e-05 1.3856562566994223e-06 0.0000000000000000e+00 1.3856562566994218e-06 1.4663728616563041e-05 0.0000000000000000e+00 0.0000000000000000e+00 0.0000000000000000e+00 0.0000000000000000e+00  2.8074680561199890e-05 1.1607683783894353e-06 0.0000000000000000e+00 1.1607683783894353e-06 1.5138561334413897e-05 0.0000000000000000e+00 0.0000000000000000e+00 0.0000000000000000e+00 0.0000000000000000e+00  2.6310987076058900e-05 1.0855767173310893e-06 0.0000000000000000e+00 1.0855767173310893e-06 1.5694362401021396e-05 0.0000000000000000e+00 0.0000000000000000e+00 0.0000000000000000e+00 0.0000000000000000e+00  2.5043036227039246e-05 1.1365020977045532e-06 0.0000000000000000e+00 1.1365020977045532e-06 1.6275477546914362e-05 0.0000000000000000e+00 0.0000000000000000e+00 0.0000000000000000e+00 0.0000000000000000e+00  2.4121613525858798e-05 1.2725628360676040e-06 0.0000000000000000e+00 1.2725628360676040e-06 1.6891643514023984e-05 0.0000000000000000e+00 0.0000000000000000e+00 0.0000000000000000e+00 0.0000000000000000e+00  2.3435556694897749e-05 1.4756023065944727e-06 0.0000000000000000e+00 1.4756023065944727e-06 1.7577499178506928e-05 0.0000000000000000e+00 0.0000000000000000e+00 0.0000000000000000e+00 0.0000000000000000e+00  2.2896516401629861e-05 1.7386085748123990e-06 0.0000000000000000e+00 1.7386085748123990e-06 1.8390014512310284e-05 0.0000000000000000e+00 0.0000000000000000e+00 0.0000000000000000e+00 0.0000000000000000e+00  2.2423261668122556e-05 2.0638808549121902e-06 0.0000000000000000e+00 2.0638808549121902e-06 1.9412838577192979e-05 0.0000000000000000e+00 0.0000000000000000e+00 0.0000000000000000e+00 0.0000000000000000e+00  2.1928552262120862e-05 2.4615418535706416e-06 0.0000000000000000e+00 2.4615418535706416e-06 2.0766963960808085e-05 0.0000000000000000e+00 0.0000000000000000e+00 0.0000000000000000e+00 0.0000000000000000e+00  1.1405849958325806e-04 -7.8148111098090920e-03 0.0000000000000000e+00 -7.8148111098090920e-03 -6.1470248393103652e-03 0.0000000000000000e+00 0.0000000000000000e+00 0.0000000000000000e+00 0.0000000000000000e+00  1.1658065461612212e-01 1.0450653488436939e-02 0.0000000000000000e+00 1.0450653488436939e-02 2.1747631385969812e-01 0.0000000000000000e+00 0.0000000000000000e+00 0.0000000000000000e+00 0.0000000000000000e+00  -2.9723521240843093e-01 3.1783174990029256e-01 0.0000000000000000e+00 3.1783174990029256e-01 -7.9096595240663181e-01 0.0000000000000000e+00 0.0000000000000000e+00 0.0000000000000000e+00 0.0000000000000000e+00  -2.2048539947731377e-01 -1.3038303627807388e-01 0.0000000000000000e+00 -1.3038303627807388e-01 -2.0221128831901800e-01 0.0000000000000000e+00 0.0000000000000000e+00 0.0000000000000000e+00 0.0000000000000000e+00  -1.4089502532251658e-01 3.7778740740888495e-02 0.0000000000000000e+00 3.7778740740888495e-02 -1.4728543156561108e-01 0.0000000000000000e+00 0.0000000000000000e+00 0.0000000000000000e+00 0.0000000000000000e+00  -1.4828161466809914e-01 -1.3422095210991402e-02 0.0000000000000000e+00 -1.3422095210991402e-02 -1.3989689297557964e-01 0.0000000000000000e+00 0.0000000000000000e+00 0.0000000000000000e+00 0.0000000000000000e+00  -1.4925870047197801e-01 -7.8162144480722201e-03 0.0000000000000000e+00 -7.8162144480722201e-03 -1.3325461853427348e-01 0.0000000000000000e+00 0.0000000000000000e+00 0.0000000000000000e+00 0.0000000000000000e+00  -1.4625967279658278e-01 -6.1740012873960859e-02 0.0000000000000000e+00 -6.1740012873960859e-02 -1.2680457515452032e-01 0.0000000000000000e+00 0.0000000000000000e+00 0.0000000000000000e+00 0.0000000000000000e+00  -2.9745391929799925e-01 1.1876577153247533e-01 0.0000000000000000e+00 1.1876577153247533e-01 -1.1756596652436326e-01 0.0000000000000000e+00 0.0000000000000000e+00 0.0000000000000000e+00 0.0000000000000000e+00  -6.4898824852256931e-01 -1.2813265139019353e-01 0.0000000000000000e+00 -1.2813265139019353e-01 -8.0852266048021548e-01 0.0000000000000000e+00 0.0000000000000000e+00 0.0000000000000000e+00 0.0000000000000000e+00  -6.4900946415747029e-01 1.2810126104266806e-01 0.0000000000000000e+00 1.2810126104266806e-01 -8.0854071637701319e-01 0.0000000000000000e+00 0.0000000000000000e+00 0.0000000000000000e+00 0.0000000000000000e+00  -2.9748499875781437e-01 -1.1877969508793314e-01 0.0000000000000000e+00 -1.1877969508793314e-01 -1.1753977242389477e-01 0.0000000000000000e+00 0.0000000000000000e+00 0.0000000000000000e+00 0.0000000000000000e+00  -1.4630251463569258e-01 6.1734112443552071e-02 0.0000000000000000e+00 6.1734112443552071e-02 -1.2676243104835624e-01 0.0000000000000000e+00 0.0000000000000000e+00 0.0000000000000000e+00 0.0000000000000000e+00  -1.4931513458973131e-01 7.8177981342783167e-03 0.0000000000000000e+00 7.8177981342783167e-03 -1.3320596573066151e-01 0.0000000000000000e+00 0.0000000000000000e+00 0.0000000000000000e+00 0.0000000000000000e+00  -1.4835826475640584e-01 1.3426411669727308e-02 0.0000000000000000e+00 1.3426411669727308e-02 -1.3984798100983847e-01 0.0000000000000000e+00 0.0000000000000000e+00 0.0000000000000000e+00 0.0000000000000000e+00  -1.4100465936095075e-01 -3.7772710482015949e-02 0.0000000000000000e+00 -3.7772710482015949e-02 -1.4724258830373796e-01 0.0000000000000000e+00 0.0000000000000000e+00 0.0000000000000000e+00 0.0000000000000000e+00  -2.2065140304671027e-01 1.3040589831243354e-01 0.0000000000000000e+00 1.3040589831243354e-01 -2.0216841133311697e-01 0.0000000000000000e+00 0.0000000000000000e+00 0.0000000000000000e+00 0.0000000000000000e+00  -2.9758742797103332e-01 -3.1758831893351780e-01 0.0000000000000000e+00 -3.1758831893351780e-01 -7.9095461444104520e-01 0.0000000000000000e+00 0.0000000000000000e+00 0.0000000000000000e+00 0.0000000000000000e+00  1.1649862991622580e-01 -1.0319680944875778e-02 0.0000000000000000e+00 -1.0319680944875778e-02 2.1769323202337501e-01 0.0000000000000000e+00 0.0000000000000000e+00 0.0000000000000000e+00 0.0000000000000000e+00  -6.2494525431706200e-04 8.2646644480931283e-03 0.0000000000000000e+00 8.2646644480931283e-03 -7.0836559125822974e-03 0.0000000000000000e+00 0.0000000000000000e+00 0.0000000000000000e+00 0.0000000000000000e+00  6.6432962011469371e-04 -4.4643635367410501e-04 0.0000000000000000e+00 -4.4643635367410501e-04 8.4250903372710918e-04 0.0000000000000000e+00 0.0000000000000000e+00 0.0000000000000000e+00 0.0000000000000000e+00  -3.7589423060359669e-05 5.4304128557217274e-05 0.0000000000000000e+00 5.4304128557217274e-05 -6.8593146217750891e-05 0.0000000000000000e+00 0.0000000000000000e+00 0.0000000000000000e+00 0.0000000000000000e+00  4.6226569588011543e-05 5.1960739453891912e-06 0.0000000000000000e+00 5.1960739453891912e-06 3.0370731653702643e-05 0.0000000000000000e+00 0.0000000000000000e+00 0.0000000000000000e+00 0.0000000000000000e+00  3.1911625607694155e-05 8.2055943465420243e-06 0.0000000000000000e+00 8.2055943465420243e-06 1.5144712658091764e-05 0.0000000000000000e+00 0.0000000000000000e+00 0.0000000000000000e+00 0.0000000000000000e+00  3.0463108226212398e-05 5.2582035504981514e-06 0.0000000000000000e+00 5.2582035504981514e-06 1.5814929408641192e-05 0.0000000000000000e+00 0.0000000000000000e+00 0.0000000000000000e+00 0.0000000000000000e+00  2.8002111798212259e-05 3.9329646822824710e-06 0.0000000000000000e+00 3.9329646822824710e-06 1.5411687382491440e-05 0.0000000000000000e+00 0.0000000000000000e+00 0.0000000000000000e+00 0.0000000000000000e+00  2.6281513535974244e-05 2.9815925053376779e-06 0.0000000000000000e+00 2.9815925053376779e-06 1.5591527246747720e-05 0.0000000000000000e+00 0.0000000000000000e+00 0.0000000000000000e+00 0.0000000000000000e+00  2.4954626614731086e-05 2.4195967733936435e-06 0.0000000000000000e+00 2.4195967733936435e-06 1.5911231124054446e-05 0.0000000000000000e+00 0.0000000000000000e+00 0.0000000000000000e+00 0.0000000000000000e+00  2.3958813222909748e-05 2.1140838283853200e-06 0.0000000000000000e+00 2.1140838283853200e-06 1.6330731987574152e-05 0.0000000000000000e+00 0.0000000000000000e+00 0.0000000000000000e+00 0.0000000000000000e+00  2.3207063972548758e-05 1.9989726177893957e-06 0.0000000000000000e+00 1.9989726177893957e-06 1.6825739895379898e-05 0.0000000000000000e+00 0.0000000000000000e+00 0.0000000000000000e+00 0.0000000000000000e+00  2.2630047909985754e-05 2.0331967206353080e-06 0.0000000000000000e+00 2.0331967206353080e-06 1.7411164763492536e-05 0.0000000000000000e+00 0.0000000000000000e+00 0.0000000000000000e+00 0.0000000000000000e+00  2.2164625198672269e-05 2.2002174464068711e-06 0.0000000000000000e+00 2.2002174464068711e-06 1.8127398013911869e-05 0.0000000000000000e+00 0.0000000000000000e+00 0.0000000000000000e+00 0.0000000000000000e+00  2.1746912575124021e-05 2.5049711457964710e-06 0.0000000000000000e+00 2.5049711457964710e-06 1.9042782879030268e-05 0.0000000000000000e+00 0.0000000000000000e+00 0.0000000000000000e+00 0.0000000000000000e+00  2.1304011304427861e-05 2.9753704923797202e-06 0.0000000000000000e+00 2.9753704923797202e-06 2.0260639196655697e-05 0.0000000000000000e+00 0.0000000000000000e+00 0.0000000000000000e+00 0.0000000000000000e+00  2.9083654996382795e-03 -1.8532428700247833e-03 0.0000000000000000e+00 -1.8532428700247833e-03 2.4986356649580061e-03 0.0000000000000000e+00 0.0000000000000000e+00 0.0000000000000000e+00 0.0000000000000000e+00  7.1906753738110347e-03 2.8051616410285266e-02 0.0000000000000000e+00 2.8051616410285266e-02 6.2593092095266090e-02 0.0000000000000000e+00 0.0000000000000000e+00 0.0000000000000000e+00 0.0000000000000000e+00  -3.1664353799510803e-01 -2.6921941971116853e-01 0.0000000000000000e+00 -2.6921941971116853e-01 -3.5595441377319420e-01 0.0000000000000000e+00 0.0000000000000000e+00 0.0000000000000000e+00 0.0000000000000000e+00  -3.9695306940680478e-02 2.2886331862852841e-01 0.0000000000000000e+00 2.2886331862852841e-01 -4.0866976364747877e-02 0.0000000000000000e+00 0.0000000000000000e+00 0.0000000000000000e+00 0.0000000000000000e+00  -2.0014583398742636e-01 -1.3235464952662798e-01 0.0000000000000000e+00 -1.3235464952662798e-01 -2.2344260470766475e-01 0.0000000000000000e+00 0.0000000000000000e+00 0.0000000000000000e+00 0.0000000000000000e+00  -1.7131932508220435e-01 -1.9299476712791530e-02 0.0000000000000000e+00 -1.9299476712791530e-02 -9.7847030265376722e-02 0.0000000000000000e+00 0.0000000000000000e+00 0.0000000000000000e+00 0.0000000000000000e+00  -1.7673007448814979e-01 5.7035821203259909e-03 0.0000000000000000e+00 5.7035821203259909e-03 -9.2577578575524677e-02 0.0000000000000000e+00 0.0000000000000000e+00 0.0000000000000000e+00 0.0000000000000000e+00  -2.2423155772067568e-01 1.2658938557013621e-01 0.0000000000000000e+00 1.2658938557013621e-01 -2.0828301508343033e-01 0.0000000000000000e+00 0.0000000000000000e+00 0.0000000000000000e+00 0.0000000000000000e+00  -8.3428165119961512e-02 -1.8969705164198380e-01 0.0000000000000000e+00 -1.8969705164198380e-01 -3.3141907654244365e-02 0.0000000000000000e+00 0.0000000000000000e+00 0.0000000000000000e+00 0.0000000000000000e+00  -2.1347236104726530e-01 2.8981240907075656e-01 0.0000000000000000e+00 2.8981240907075656e-01 -3.1713495828390686e-01 0.0000000000000000e+00 0.0000000000000000e+00 0.0000000000000000e+00 0.0000000000000000e+00  -2.1347509578181434e-01 -2.8981411156161535e-01 0.0000000000000000e+00 -2.8981411156161535e-01 -3.1713811748378257e-01 0.0000000000000000e+00 0.0000000000000000e+00 0.0000000000000000e+00 0.0000000000000000e+00  -8.3450326620084114e-02 1.8969034734966519e-01 0.0000000000000000e+00 1.8969034734966519e-01 -3.3129586187378178e-02 0.0000000000000000e+00 0.0000000000000000e+00 0.0000000000000000e+00 0.0000000000000000e+00  -2.2426417285145067e-01 -1.2658406587196341e-01 0.0000000000000000e+00 -1.2658406587196341e-01 -2.0825153596160315e-01 0.0000000000000000e+00 0.0000000000000000e+00 0.0000000000000000e+00 0.0000000000000000e+00  -1.7677469468013110e-01 -5.6844649818344724e-03 0.0000000000000000e+00 -5.6844649818344724e-03 -9.2539867430100370e-02 0.0000000000000000e+00 0.0000000000000000e+00 0.0000000000000000e+00 0.0000000000000000e+00  -1.7138684875761234e-01 1.9332138487181735e-02 0.0000000000000000e+00 1.9332138487181735e-02 -9.7803508662204899e-02 0.0000000000000000e+00 0.0000000000000000e+00 0.0000000000000000e+00 0.0000000000000000e+00  -2.0025221724833753e-01 1.3241006906644318e-01 0.0000000000000000e+00 1.3241006906644318e-01 -2.2340918059188827e-01 0.0000000000000000e+00 0.0000000000000000e+00 0.0000000000000000e+00 0.0000000000000000e+00  -3.9870158929184697e-02 -2.2872533879960835e-01 0.0000000000000000e+00 -2.2872533879960835e-01 -4.0918515635195170e-02 0.0000000000000000e+00 0.0000000000000000e+00 0.0000000000000000e+00 0.0000000000000000e+00  -3.1670397566442043e-01 2.6932311785163054e-01 0.0000000000000000e+00 2.6932311785163054e-01 -3.5590600191644867e-01 0.0000000000000000e+00 0.0000000000000000e+00 0.0000000000000000e+00 0.0000000000000000e+00  7.1751526318018918e-03 -2.7983025809237956e-02 0.0000000000000000e+00 -2.7983025809237956e-02 6.2674714612991511e-02 0.0000000000000000e+00 0.0000000000000000e+00 0.0000000000000000e+00 0.0000000000000000e+00  3.2195710938089234e-03 1.7665087768924295e-03 0.0000000000000000e+00 1.7665087768924295e-03 2.8581287420828762e-03 0.0000000000000000e+00 0.0000000000000000e+00 0.0000000000000000e+00 0.0000000000000000e+00  -2.3094486380492553e-04 1.1130964262606833e-04 0.0000000000000000e+00 1.1130964262606833e-04 -3.4110500275511907e-04 0.0000000000000000e+00 0.0000000000000000e+00 0.0000000000000000e+00 0.0000000000000000e+00  6.6843509224985038e-05 -2.2864280761398295e-06 0.0000000000000000e+00 -2.2864280761398295e-06 7.7797104544692226e-05 0.0000000000000000e+00 0.0000000000000000e+00 0.0000000000000000e+00 0.0000000000000000e+00  1.6589184216297984e-05 1.2926695237403468e-05 0.0000000000000000e+00 1.2926695237403468e-05 1.3995628851020474e-05 0.0000000000000000e+00 0.0000000000000000e+00 0.0000000000000000e+00 0.0000000000000000e+00  2.5736089733849588e-05 8.6519922623570723e-06 0.0000000000000000e+00 8.6519922623570723e-06 2.0050605899198858e-05 0.0000000000000000e+00 0.0000000000000000e+00 0.0000000000000000e+00 0.0000000000000000e+00  2.4476975089711924e-05 6.8795857634596952e-06 0.0000000000000000e+00 6.8795857634596952e-06 1.7324600280063377e-05 0.0000000000000000e+00 0.0000000000000000e+00 0.0000000000000000e+00 0.0000000000000000e+00  2.4146359111568172e-05 5.2262122332404403e-06 0.0000000000000000e+00 5.2262122332404403e-06 1.6746115669711014e-05 0.0000000000000000e+00 0.0000000000000000e+00 0.0000000000000000e+00 0.0000000000000000e+00  2.3483486257706676e-05 4.0781033466573696e-06 0.0000000000000000e+00 4.0781033466573696e-06 1.6439835457846116e-05 0.0000000000000000e+00 0.0000000000000000e+00 0.0000000000000000e+00 0.0000000000000000e+00  2.2867417817428116e-05 3.2938348453036594e-06 0.0000000000000000e+00 3.2938348453036594e-06 1.6443377494584591e-05 0.0000000000000000e+00 0.0000000000000000e+00 0.0000000000000000e+00 0.0000000000000000e+00  2.2321122969617560e-05 2.8018444048070603e-06 0.0000000000000000e+00 2.8018444048070603e-06 1.6620948487553540e-05 0.0000000000000000e+00 0.0000000000000000e+00 0.0000000000000000e+00 0.0000000000000000e+00  2.1861124267338356e-05 2.5389577151993350e-06 0.0000000000000000e+00 2.5389577151993350e-06 1.6928195471163085e-05 0.0000000000000000e+00 0.0000000000000000e+00 0.0000000000000000e+00 0.0000000000000000e+00  2.1475485867990447e-05 2.4679994447702486e-06 0.0000000000000000e+00 2.4679994447702486e-06 1.7352970270560364e-05 0.0000000000000000e+00 0.0000000000000000e+00 0.0000000000000000e+00 0.0000000000000000e+00  2.1140009665560735e-05 2.5758781242773123e-06 0.0000000000000000e+00 2.5758781242773123e-06 1.7912050337393102e-05 0.0000000000000000e+00 0.0000000000000000e+00 0.0000000000000000e+00 0.0000000000000000e+00  2.0819471161953259e-05 2.8759882070027992e-06 0.0000000000000000e+00 2.8759882070027992e-06 1.8648101334508620e-05 0.0000000000000000e+00 0.0000000000000000e+00 0.0000000000000000e+00 0.0000000000000000e+00  2.0466809458242121e-05 3.4132369644416494e-06 0.0000000000000000e+00 3.4132369644416494e-06 1.9631790943791537e-05 0.0000000000000000e+00 0.0000000000000000e+00 0.0000000000000000e+00 0.0000000000000000e+00  1.3191668618990793e-03 2.2062941820865625e-03 0.0000000000000000e+00 2.2062941820865625e-03 3.7034705204797964e-03 0.0000000000000000e+00 0.0000000000000000e+00 0.0000000000000000e+00 0.0000000000000000e+00  -1.5686367175416251e-02 -1.5890126009535301e-02 0.0000000000000000e+00 -1.5890126009535301e-02 -2.2687920116009775e-02 0.0000000000000000e+00 0.0000000000000000e+00 0.0000000000000000e+00 0.0000000000000000e+00  8.5217814584080967e-02 1.5146791904388099e-02 0.0000000000000000e+00 1.5146791904388099e-02 8.5255521518690133e-02 0.0000000000000000e+00 0.0000000000000000e+00 0.0000000000000000e+00 0.0000000000000000e+00  -3.5613875660749683e-01 -2.6929007138653965e-01 0.0000000000000000e+00 -2.6929007138653965e-01 -3.1671234832443557e-01 0.0000000000000000e+00 0.0000000000000000e+00 0.0000000000000000e+00 0.0000000000000000e+00  -7.9275492893004784e-01 3.1642046586991168e-01 0.0000000000000000e+00 3.1642046586991168e-01 -2.9839338298843232e-01 0.0000000000000000e+00 0.0000000000000000e+00 0.0000000000000000e+00 0.0000000000000000e+00  -9.9413157168350849e-02 -3.9129806784074857e-02 0.0000000000000000e+00 -3.9129806784074857e-02 -1.8252445100498454e-01 0.0000000000000000e+00 0.0000000000000000e+00 0.0000000000000000e+00 0.0000000000000000e+00  -1.0380950012767606e-01 3.6212199057733985e-02 0.0000000000000000e+00 3.6212199057733985e-02 -1.8164959753963580e-01 0.0000000000000000e+00 0.0000000000000000e+00 0.0000000000000000e+00 0.0000000000000000e+00  -7.9928847255515401e-01 -3.1344031042915832e-01 0.0000000000000000e+00 -3.1344031042915832e-01 -2.9658773338823985e-01 0.0000000000000000e+00 0.0000000000000000e+00 0.0000000000000000e+00 0.0000000000000000e+00  -3.4868044521100994e-01 2.6895190838154243e-01 0.0000000000000000e+00 2.6895190838154243e-01 -3.1454544120650174e-01 0.0000000000000000e+00 0.0000000000000000e+00 0.0000000000000000e+00 0.0000000000000000e+00  5.2561326147798230e-02 -3.5473858990579657e-02 0.0000000000000000e+00 -3.5473858990579657e-02 5.7282663439976414e-02 0.0000000000000000e+00 0.0000000000000000e+00 0.0000000000000000e+00 0.0000000000000000e+00  5.2560409786362006e-02 3.5474114167273356e-02 0.0000000000000000e+00 3.5474114167273356e-02 5.7281778514346272e-02 0.0000000000000000e+00 0.0000000000000000e+00 0.0000000000000000e+00 0.0000000000000000e+00  -3.4868271937274514e-01 -2.6894570174281729e-01 0.0000000000000000e+00 -2.6894570174281729e-01 -3.1453995936799428e-01 0.0000000000000000e+00 0.0000000000000000e+00 0.0000000000000000e+00 0.0000000000000000e+00  -7.9929447664998143e-01 3.1346151525201887e-01 0.0000000000000000e+00 3.1346151525201887e-01 -2.9656861813509466e-01 0.0000000000000000e+00 0.0000000000000000e+00 0.0000000000000000e+00 0.0000000000000000e+00  -1.0382385922365697e-01 -3.6177678975528725e-02 0.0000000000000000e+00 -3.6177678975528725e-02 -1.8164021901955826e-01 0.0000000000000000e+00 0.0000000000000000e+00 0.0000000000000000e+00 0.0000000000000000e+00  -9.9425424330474244e-02 3.9181892394457254e-02 0.0000000000000000e+00 3.9181892394457254e-02 -1.8248622803046521e-01 0.0000000000000000e+00 0.0000000000000000e+00 0.0000000000000000e+00 0.0000000000000000e+00  -7.9273673774666487e-01 -3.1633532951640653e-01 0.0000000000000000e+00 -3.1633532951640653e-01 -2.9837205717258564e-01 0.0000000000000000e+00 0.0000000000000000e+00 0.0000000000000000e+00 0.0000000000000000e+00  -3.5603677272029166e-01 2.6934737144937326e-01 0.0000000000000000e+00 2.6934737144937326e-01 -3.1670192471450459e-01 0.0000000000000000e+00 0.0000000000000000e+00 0.0000000000000000e+00 0.0000000000000000e+00  8.5331925712825218e-02 -1.5139847929266065e-02 0.0000000000000000e+00 -1.5139847929266065e-02 8.5321214442692708e-02 0.0000000000000000e+00 0.0000000000000000e+00 0.0000000000000000e+00 0.0000000000000000e+00  -1.5583223660887907e-02 1.5949670097015728e-02 0.0000000000000000e+00 1.5949670097015728e-02 -2.2633528604237226e-02 0.0000000000000000e+00 0.0000000000000000e+00 0.0000000000000000e+00 0.0000000000000000e+00  1.4553260111717678e-03 -2.4795350028439843e-03 0.0000000000000000e+00 -2.4795350028439843e-03 4.0008880302495817e-03 0.0000000000000000e+00 0.0000000000000000e+00 0.0000000000000000e+00 0.0000000000000000e+00  -2.6307783197587205e-05 2.8854005999168713e-04 0.0000000000000000e+00 2.8854005999168713e-04 -2.1948916239775097e-04 0.0000000000000000e+00 0.0000000000000000e+00 0.0000000000000000e+00 0.0000000000000000e+00  4.3748516713557250e-06 -1.9554121111879206e-05 0.0000000000000000e+00 -1.9554121111879206e-05 3.6919637395288043e-05 0.0000000000000000e+00 0.0000000000000000e+00 0.0000000000000000e+00 0.0000000000000000e+00  1.5078589130400795e-05 1.0311710137537033e-05 0.0000000000000000e+00 1.0311710137537033e-05 2.2248420929734293e-05 0.0000000000000000e+00 0.0000000000000000e+00 0.0000000000000000e+00 0.0000000000000000e+00  1.6628939997040679e-05 6.9943229751509253e-06 0.0000000000000000e+00 6.9943229751509253e-06 2.0377479253196968e-05 0.0000000000000000e+00 0.0000000000000000e+00 0.0000000000000000e+00 0.0000000000000000e+00  1.9063989768295254e-05 6.3221198045750094e-06 0.0000000000000000e+00 6.3221198045750094e-06 1.9004514234010323e-05 0.0000000000000000e+00 0.0000000000000000e+00 0.0000000000000000e+00 0.0000000000000000e+00  1.9949056483833376e-05 5.2047649488114432e-06 0.0000000000000000e+00 5.2047649488114432e-06 1.7924192982641037e-05 0.0000000000000000e+00 0.0000000000000000e+00 0.0000000000000000e+00 0.0000000000000000e+00  2.0357674326062818e-05 4.2907011498947600e-06 0.0000000000000000e+00 4.2907011498947600e-06 1.7337412691444952e-05 0.0000000000000000e+00 0.0000000000000000e+00 0.0000000000000000e+00 0.0000000000000000e+00  2.0443628541819751e-05 3.5897385791615876e-06 0.0000000000000000e+00 3.5897385791615876e-06 1.7056914438319473e-05 0.0000000000000000e+00 0.0000000000000000e+00 0.0000000000000000e+00 0.0000000000000000e+00  2.0380725593263758e-05 3.1069564445477606e-06 0.0000000000000000e+00 3.1069564445477606e-06 1.7000214272391812e-05 0.0000000000000000e+00 0.0000000000000000e+00 0.0000000000000000e+00 0.0000000000000000e+00  2.0248371515356961e-05 2.8247667813813068e-06 0.0000000000000000e+00 2.8247667813813068e-06 1.7106083072749802e-05 0.0000000000000000e+00 0.0000000000000000e+00 0.0000000000000000e+00 0.0000000000000000e+00  2.0086509728910421e-05 2.7312252612697612e-06 0.0000000000000000e+00 2.7312252612697612e-06 1.7345551649100329e-05 0.0000000000000000e+00 0.0000000000000000e+00 0.0000000000000000e+00 0.0000000000000000e+00  1.9908033277300650e-05 2.8295407499293862e-06 0.0000000000000000e+00 2.8295407499293862e-06 1.7712990562003810e-05 0.0000000000000000e+00 0.0000000000000000e+00 0.0000000000000000e+00 0.0000000000000000e+00  1.9708505841581060e-05 3.1463202821243219e-06 0.0000000000000000e+00 3.1463202821243219e-06 1.8222441964817624e-05 0.0000000000000000e+00 0.0000000000000000e+00 0.0000000000000000e+00 0.0000000000000000e+00  1.9471125595918431e-05 3.7404702776247868e-06 0.0000000000000000e+00 3.7404702776247868e-06 1.8904939503032101e-05 0.0000000000000000e+00 0.0000000000000000e+00 0.0000000000000000e+00 0.0000000000000000e+00  -1.1358533916831972e-03 -8.2283695384139147e-04 0.0000000000000000e+00 -8.2283695384139147e-04 -1.4097585009942377e-03 0.0000000000000000e+00 0.0000000000000000e+00 0.0000000000000000e+00 0.0000000000000000e+00  6.0884892042269859e-03 3.1348242499966796e-03 0.0000000000000000e+00 3.1348242499966796e-03 6.0915239356880936e-03 0.0000000000000000e+00 0.0000000000000000e+00 0.0000000000000000e+00 0.0000000000000000e+00  -2.2707804456799041e-02 -1.5936069162746709e-02 0.0000000000000000e+00 -1.5936069162746709e-02 -1.5633415651083279e-02 0.0000000000000000e+00 0.0000000000000000e+00 0.0000000000000000e+00 0.0000000000000000e+00  6.2610199705479999e-02 2.7994247438472408e-02 0.0000000000000000e+00 2.7994247438472408e-02 7.1479803393673597e-03 0.0000000000000000e+00 0.0000000000000000e+00 0.0000000000000000e+00 0.0000000000000000e+00  2.1783975077897233e-01 1.0374345192365634e-02 0.0000000000000000e+00 1.0374345192365634e-02 1.1639851824609100e-01 0.0000000000000000e+00 0.0000000000000000e+00 0.0000000000000000e+00 0.0000000000000000e+00  7.9900792204483886e-02 -9.9938697045422131e-02 0.0000000000000000e+00 -9.9938697045422131e-02 1.4904726890659423e-01 0.0000000000000000e+00 0.0000000000000000e+00 0.0000000000000000e+00 0.0000000000000000e+00  7.9943054970718103e-02 9.9810852326188748e-02 0.0000000000000000e+00 9.9810852326188748e-02 1.4915054301362657e-01 0.0000000000000000e+00 0.0000000000000000e+00 0.0000000000000000e+00 0.0000000000000000e+00  2.1803479384193458e-01 -1.0226667065131721e-02 0.0000000000000000e+00 -1.0226667065131721e-02 1.1683588921931994e-01 0.0000000000000000e+00 0.0000000000000000e+00 0.0000000000000000e+00 0.0000000000000000e+00  6.0521266243517696e-02 -2.8960250666601114e-02 0.0000000000000000e+00 -2.8960250666601114e-02 5.0108649192096627e-03 0.0000000000000000e+00 0.0000000000000000e+00 0.0000000000000000e+00 0.0000000000000000e+00  -1.5508865321171133e-02 1.9266472494183621e-02 0.0000000000000000e+00 1.9266472494183621e-02 -9.2511477637354737e-03 0.0000000000000000e+00 0.0000000000000000e+00 0.0000000000000000e+00 0.0000000000000000e+00  -1.5511747362907119e-02 -1.9262168445849111e-02 0.0000000000000000e+00 -1.9262168445849111e-02 -9.2515909408008301e-03 0.0000000000000000e+00 0.0000000000000000e+00 0.0000000000000000e+00 0.0000000000000000e+00  6.0509915336385819e-02 2.8965363333822290e-02 0.0000000000000000e+00 2.8965363333822290e-02 5.0124171155267383e-03 0.0000000000000000e+00 0.0000000000000000e+00 0.0000000000000000e+00 0.0000000000000000e+00  2.1801442672680121e-01 1.0239568734047036e-02 0.0000000000000000e+00 1.0239568734047036e-02 1.1683634325629433e-01 0.0000000000000000e+00 0.0000000000000000e+00 0.0000000000000000e+00 0.0000000000000000e+00  7.9937472336352067e-02 -9.9785114019414201e-02 0.0000000000000000e+00 -9.9785114019414201e-02 1.4914764821628895e-01 0.0000000000000000e+00 0.0000000000000000e+00 0.0000000000000000e+00 0.0000000000000000e+00  7.9935758140982652e-02 9.9980521897388666e-02 0.0000000000000000e+00 9.9980521897388666e-02 1.4908010038353303e-01 0.0000000000000000e+00 0.0000000000000000e+00 0.0000000000000000e+00 0.0000000000000000e+00  2.1791918174646743e-01 -1.0338113631463334e-02 0.0000000000000000e+00 -1.0338113631463334e-02 1.1643281623413390e-01 0.0000000000000000e+00 0.0000000000000000e+00 0.0000000000000000e+00 0.0000000000000000e+00  6.2689037328299571e-02 -2.7977354462856621e-02 0.0000000000000000e+00 -2.7977354462856621e-02 7.1582027460499525e-03 0.0000000000000000e+00 0.0000000000000000e+00 0.0000000000000000e+00 0.0000000000000000e+00  -2.2630808923974281e-02 1.5950100888588337e-02 0.0000000000000000e+00 1.5950100888588337e-02 -1.5590564317112263e-02 0.0000000000000000e+00 0.0000000000000000e+00 0.0000000000000000e+00 0.0000000000000000e+00  6.1900608693681736e-03 -3.1450395704365661e-03 0.0000000000000000e+00 -3.1450395704365661e-03 6.1843393940843932e-03 0.0000000000000000e+00 0.0000000000000000e+00 0.0000000000000000e+00 0.0000000000000000e+00  -1.2120175174534986e-03 1.0512993234559386e-03 0.0000000000000000e+00 1.0512993234559386e-03 -1.6473855021168363e-03 0.0000000000000000e+00 0.0000000000000000e+00 0.0000000000000000e+00 0.0000000000000000e+00  1.6463464151389806e-04 -2.0903468244837890e-04 0.0000000000000000e+00 -2.0903468244837890e-04 3.1997567237991841e-04 0.0000000000000000e+00 0.0000000000000000e+00 0.0000000000000000e+00 0.0000000000000000e+00  -1.3882947913308338e-05 3.1263250568536930e-05 0.0000000000000000e+00 3.1263250568536930e-05 -1.8157802507937947e-05 0.0000000000000000e+00 0.0000000000000000e+00 0.0000000000000000e+00 0.0000000000000000e+00  1.0003724244039851e-05 -1.3070176373477003e-06 0.0000000000000000e+00 -1.3070176373476997e-06 2.5595517654866222e-05 0.0000000000000000e+00 0.0000000000000000e+00 0.0000000000000000e+00 0.0000000000000000e+00  1.1901009239008130e-05 4.8033748107050562e-06 0.0000000000000000e+00 4.8033748107050562e-06 2.0088695007350192e-05 0.0000000000000000e+00 0.0000000000000000e+00 0.0000000000000000e+00 0.0000000000000000e+00  1.4719061922033808e-05 4.3830146325340745e-06 0.0000000000000000e+00 4.3830146325340745e-06 1.9608934567664501e-05 0.0000000000000000e+00 0.0000000000000000e+00 0.0000000000000000e+00 0.0000000000000000e+00  1.6430826483060941e-05 4.2091151408921929e-06 0.0000000000000000e+00 4.2091151408921929e-06 1.8625697044428618e-05 0.0000000000000000e+00 0.0000000000000000e+00 0.0000000000000000e+00 0.0000000000000000e+00  1.7473686740381386e-05 3.7735491119551049e-06 0.0000000000000000e+00 3.7735491119551049e-06 1.7963759040820259e-05 0.0000000000000000e+00 0.0000000000000000e+00 0.0000000000000000e+00 0.0000000000000000e+00  1.8077511279754628e-05 3.3640689237420006e-06 0.0000000000000000e+00 3.3640689237420006e-06 1.7541832039723819e-05 0.0000000000000000e+00 0.0000000000000000e+00 0.0000000000000000e+00 0.0000000000000000e+00  1.8402000507678254e-05 3.0441996817732170e-06 0.0000000000000000e+00 3.0441996817732170e-06 1.7322613053117587e-05 0.0000000000000000e+00 0.0000000000000000e+00 0.0000000000000000e+00 0.0000000000000000e+00  1.8554093654800040e-05 2.8531032705898077e-06 0.0000000000000000e+00 2.8531032705898077e-06 1.7261263483780705e-05 0.0000000000000000e+00 0.0000000000000000e+00 0.0000000000000000e+00 0.0000000000000000e+00  1.8598740096418301e-05 2.8127974277656315e-06 0.0000000000000000e+00 2.8127974277656315e-06 1.7325582095106180e-05 0.0000000000000000e+00 0.0000000000000000e+00 0.0000000000000000e+00 0.0000000000000000e+00  1.8573619449635903e-05 2.9484919484163292e-06 0.0000000000000000e+00 2.9484919484163292e-06 1.7495618252558891e-05 0.0000000000000000e+00 0.0000000000000000e+00 0.0000000000000000e+00 0.0000000000000000e+00  1.8499061099702334e-05 3.3009206241163919e-06 0.0000000000000000e+00 3.3009206241163919e-06 1.7760418089091450e-05 0.0000000000000000e+00 0.0000000000000000e+00 0.0000000000000000e+00 0.0000000000000000e+00  1.8386000098397252e-05 3.9375945302769125e-06 0.0000000000000000e+00 3.9375945302769125e-06 1.8112791461394377e-05 0.0000000000000000e+00 0.0000000000000000e+00 0.0000000000000000e+00 0.0000000000000000e+00  3.0295603189006866e-04 2.4096949097652677e-04 0.0000000000000000e+00 2.4096949097652677e-04 2.7819516926503050e-04 0.0000000000000000e+00 0.0000000000000000e+00 0.0000000000000000e+00 0.0000000000000000e+00  -1.6875920904274495e-03 -1.0220310285775809e-03 0.0000000000000000e+00 -1.0220310285775809e-03 -1.2400204050324456e-03 0.0000000000000000e+00 0.0000000000000000e+00 0.0000000000000000e+00 0.0000000000000000e+00  3.9482885110087495e-03 2.4811308472516918e-03 0.0000000000000000e+00 2.4811308472516918e-03 1.4050331214744819e-03 0.0000000000000000e+00 0.0000000000000000e+00 0.0000000000000000e+00 0.0000000000000000e+00  2.8205657699076933e-03 -1.7656299974025277e-03 0.0000000000000000e+00 -1.7656299974025277e-03 3.1866662658006982e-03 0.0000000000000000e+00 0.0000000000000000e+00 0.0000000000000000e+00 0.0000000000000000e+00  -7.1221491920340418e-03 -8.2691517356763659e-03 0.0000000000000000e+00 -8.2691517356763659e-03 -6.5669510535965806e-04 0.0000000000000000e+00 0.0000000000000000e+00 0.0000000000000000e+00 0.0000000000000000e+00  3.5693820107925958e-03 -2.5815788116857834e-03 0.0000000000000000e+00 -2.5815788116857834e-03 1.1627025056714946e-02 0.0000000000000000e+00 0.0000000000000000e+00 0.0000000000000000e+00 0.0000000000000000e+00  3.5248517422232358e-03 2.5938466072296406e-03 0.0000000000000000e+00 2.5938466072296406e-03 1.1657574181774122e-02 0.0000000000000000e+00 0.0000000000000000e+00 0.0000000000000000e+00 0.0000000000000000e+00  -7.2582696298811658e-03 8.2195987167982612e-03 0.0000000000000000e+00 8.2195987167982612e-03 -8.1283986672099184e-04 0.0000000000000000e+00 0.0000000000000000e+00 0.0000000000000000e+00 0.0000000000000000e+00  3.4000227912867080e-03 2.0666596657095233e-03 0.0000000000000000e+00 2.0666596657095233e-03 3.7198345823345161e-03 0.0000000000000000e+00 0.0000000000000000e+00 0.0000000000000000e+00 0.0000000000000000e+00  2.2357392206502308e-03 -3.5345228715544280e-03 0.0000000000000000e+00 -3.5345228715544280e-03 1.6873386427578946e-04 0.0000000000000000e+00 0.0000000000000000e+00 0.0000000000000000e+00 0.0000000000000000e+00  2.2352333774805994e-03 3.5424831714353463e-03 0.0000000000000000e+00 3.5424831714353463e-03 1.6821309531358448e-04 0.0000000000000000e+00 0.0000000000000000e+00 0.0000000000000000e+00 0.0000000000000000e+00  3.3987598004160541e-03 -2.0588396358848173e-03 0.0000000000000000e+00 -2.0588396358848173e-03 3.7178358057566789e-03 0.0000000000000000e+00 0.0000000000000000e+00 0.0000000000000000e+00 0.0000000000000000e+00  -7.2572479221180526e-03 -8.2096627938589087e-03 0.0000000000000000e+00 -8.2096627938589087e-03 -8.1491250509059738e-04 0.0000000000000000e+00 0.0000000000000000e+00 0.0000000000000000e+00 0.0000000000000000e+00  3.5317342241310639e-03 -2.5798526346851448e-03 0.0000000000000000e+00 -2.5798526346851448e-03 1.1659521748140358e-02 0.0000000000000000e+00 0.0000000000000000e+00 0.0000000000000000e+00 0.0000000000000000e+00  3.5826670715813458e-03 2.5976814798462314e-03 0.0000000000000000e+00 2.5976814798462314e-03 1.1629778962959695e-02 0.0000000000000000e+00 0.0000000000000000e+00 0.0000000000000000e+00 0.0000000000000000e+00  -7.0944641764258565e-03 8.2807304190925073e-03 0.0000000000000000e+00 8.2807304190925073e-03 -6.4364813470162944e-04 0.0000000000000000e+00 0.0000000000000000e+00 0.0000000000000000e+00 0.0000000000000000e+00  2.8646560862948980e-03 1.7677929182981209e-03 0.0000000000000000e+00 1.7677929182981209e-03 3.2083651032087973e-03 0.0000000000000000e+00 0.0000000000000000e+00 0.0000000000000000e+00 0.0000000000000000e+00  4.0015991098979291e-03 -2.4773313582018772e-03 0.0000000000000000e+00 -2.4773313582018772e-03 1.4478654266346269e-03 0.0000000000000000e+00 0.0000000000000000e+00 0.0000000000000000e+00 0.0000000000000000e+00  -1.6461772892053831e-03 1.0517102460912222e-03 0.0000000000000000e+00 1.0517102460912222e-03 -1.2161265900140423e-03 0.0000000000000000e+00 0.0000000000000000e+00 0.0000000000000000e+00 0.0000000000000000e+00  4.6092712363273954e-04 -2.9914739388243420e-04 0.0000000000000000e+00 -2.9914739388243420e-04 4.5952517171074248e-04 0.0000000000000000e+00 0.0000000000000000e+00 0.0000000000000000e+00 0.0000000000000000e+00  -9.4229991094722115e-05 7.3315657357327167e-05 0.0000000000000000e+00 7.3315657357327167e-05 -1.1293291278935522e-04 0.0000000000000000e+00 0.0000000000000000e+00 0.0000000000000000e+00 0.0000000000000000e+00  2.0505841505505124e-05 -2.0843637139267530e-05 0.0000000000000000e+00 -2.0843637139267530e-05 4.1005555049654396e-05 0.0000000000000000e+00 0.0000000000000000e+00 0.0000000000000000e+00 0.0000000000000000e+00  4.7275738446130950e-06 2.2645927863503898e-06 0.0000000000000000e+00 2.2645927863503902e-06 1.4839814431389407e-05 0.0000000000000000e+00 0.0000000000000000e+00 0.0000000000000000e+00 0.0000000000000000e+00  1.0140564824481771e-05 7.5268652634563502e-07 0.0000000000000000e+00 7.5268652634563513e-07 2.0080073828431881e-05 0.0000000000000000e+00 0.0000000000000000e+00 0.0000000000000000e+00 0.0000000000000000e+00  1.2120673826257152e-05 2.3891126097743707e-06 0.0000000000000000e+00 2.3891126097743707e-06 1.9150679684265902e-05 0.0000000000000000e+00 0.0000000000000000e+00 0.0000000000000000e+00 0.0000000000000000e+00  1.3937933443574259e-05 2.7389370451051394e-06 0.0000000000000000e+00 2.7389370451051394e-06 1.8714293859723373e-05 0.0000000000000000e+00 0.0000000000000000e+00 0.0000000000000000e+00 0.0000000000000000e+00  1.5188852374886787e-05 2.8458285871621941e-06 0.0000000000000000e+00 2.8458285871621941e-06 1.8180100153705606e-05 0.0000000000000000e+00 0.0000000000000000e+00 0.0000000000000000e+00 0.0000000000000000e+00  1.6040357134914776e-05 2.7888681806828732e-06 0.0000000000000000e+00 2.7888681806828732e-06 1.7770603467387309e-05 0.0000000000000000e+00 0.0000000000000000e+00 0.0000000000000000e+00 0.0000000000000000e+00  1.6594290862237731e-05 2.7073697261258227e-06 0.0000000000000000e+00 2.7073697261258227e-06 1.7486888427539498e-05 0.0000000000000000e+00 0.0000000000000000e+00 0.0000000000000000e+00 0.0000000000000000e+00  1.6938916133790157e-05 2.6728790325879408e-06 0.0000000000000000e+00 2.6728790325879408e-06 1.7318102590360048e-05 0.0000000000000000e+00 0.0000000000000000e+00 0.0000000000000000e+00 0.0000000000000000e+00  1.7138685677836162e-05 2.7363566678693250e-06 0.0000000000000000e+00 2.7363566678693250e-06 1.7241417251217996e-05 0.0000000000000000e+00 0.0000000000000000e+00 0.0000000000000000e+00 0.0000000000000000e+00  1.7239835339846047e-05 2.9418564484455331e-06 0.0000000000000000e+00 2.9418564484455331e-06 1.7231948744954701e-05 0.0000000000000000e+00 0.0000000000000000e+00 0.0000000000000000e+00 0.0000000000000000e+00  1.7277400491092167e-05 3.3405523222894048e-06 0.0000000000000000e+00 3.3405523222894048e-06 1.7261270966876720e-05 0.0000000000000000e+00 0.0000000000000000e+00 0.0000000000000000e+00 0.0000000000000000e+00  1.7282760192922732e-05 4.0015073504221734e-06 0.0000000000000000e+00 4.0015073504221734e-06 1.7291736296372130e-05 0.0000000000000000e+00 0.0000000000000000e+00 0.0000000000000000e+00 0.0000000000000000e+00  -1.1609547297028450e-04 -2.7636445118063669e-05 0.0000000000000000e+00 -2.7636445118063669e-05 -1.0135008696571514e-04 0.0000000000000000e+00 0.0000000000000000e+00 0.0000000000000000e+00 0.0000000000000000e+00  2.7579260004073820e-04 2.1127000184294220e-04 0.0000000000000000e+00 2.1127000184294220e-04 1.1118444721258973e-04 0.0000000000000000e+00 0.0000000000000000e+00 0.0000000000000000e+00 0.0000000000000000e+00  -2.5248407991625106e-04 -2.8602469219242882e-04 0.0000000000000000e+00 -2.8602469219242882e-04 -6.4268314355700828e-05 0.0000000000000000e+00 0.0000000000000000e+00 0.0000000000000000e+00 0.0000000000000000e+00  -3.7562825772642351e-04 -1.1494862943794829e-04 0.0000000000000000e+00 -1.1494862943794829e-04 -2.6223314912551918e-04 0.0000000000000000e+00 0.0000000000000000e+00 0.0000000000000000e+00 0.0000000000000000e+00  8.0918803271046570e-04 4.4453245058922146e-04 0.0000000000000000e+00 4.4453245058922146e-04 6.4386101066413854e-04 0.0000000000000000e+00 0.0000000000000000e+00 0.0000000000000000e+00 0.0000000000000000e+00  -4.0419795102184121e-04 -5.7084764415087636e-05 0.0000000000000000e+00 -5.7084764415087636e-05 -3.9175494356036625e-04 0.0000000000000000e+00 0.0000000000000000e+00 0.0000000000000000e+00 0.0000000000000000e+00  -4.0689646246719211e-04 5.9574895209534990e-05 0.0000000000000000e+00 5.9574895209534990e-05 -4.0330839589687849e-04 0.0000000000000000e+00 0.0000000000000000e+00 0.0000000000000000e+00 0.0000000000000000e+00  8.5348140426419038e-04 -4.1497639786899551e-04 0.0000000000000000e+00 -4.1497639786899551e-04 6.9024562374184965e-04 0.0000000000000000e+00 0.0000000000000000e+00 0.0000000000000000e+00 0.0000000000000000e+00  -5.0534508888960871e-04 4.8205825311968638e-05 0.0000000000000000e+00 4.8205825311968638e-05 -3.6120480185957549e-04 0.0000000000000000e+00 0.0000000000000000e+00 0.0000000000000000e+00 0.0000000000000000e+00  7.5271421413249136e-05 5.0596955407422432e-04 0.0000000000000000e+00 5.0596955407422432e-04 1.0060664605345357e-04 0.0000000000000000e+00 0.0000000000000000e+00 0.0000000000000000e+00 0.0000000000000000e+00  7.6213461277985803e-05 -4.9892986645156269e-04 0.0000000000000000e+00 -4.9892986645156269e-04 9.9886860671413776e-05 0.0000000000000000e+00 0.0000000000000000e+00 0.0000000000000000e+00 0.0000000000000000e+00  -5.0227012823091696e-04 -4.1658129380953847e-05 0.0000000000000000e+00 -4.1658129380953847e-05 -3.6290316948356610e-04 0.0000000000000000e+00 0.0000000000000000e+00 0.0000000000000000e+00 0.0000000000000000e+00  8.5964017652251248e-04 4.2129621234931417e-04 0.0000000000000000e+00 4.2129621234931417e-04 6.8905531814834680e-04 0.0000000000000000e+00 0.0000000000000000e+00 0.0000000000000000e+00 0.0000000000000000e+00  -3.9620462737913816e-04 -5.3842663259809370e-05 0.0000000000000000e+00 -5.3842663259809356e-05 -4.0278399024506361e-04 0.0000000000000000e+00 0.0000000000000000e+00 0.0000000000000000e+00 0.0000000000000000e+00  -3.8695650541725822e-04 6.1062186035546620e-05 0.0000000000000000e+00 6.1062186035546633e-05 -3.8898032018788877e-04 0.0000000000000000e+00 0.0000000000000000e+00 0.0000000000000000e+00 0.0000000000000000e+00  8.3309820189680689e-04 -4.4352555698136772e-04 0.0000000000000000e+00 -4.4352555698136772e-04 6.5397424730714501e-04 0.0000000000000000e+00 0.0000000000000000e+00 0.0000000000000000e+00 0.0000000000000000e+00  -3.4623297679965259e-04 1.1284278302987473e-04 0.0000000000000000e+00 1.1284278302987473e-04 -2.3969385568212465e-04 0.0000000000000000e+00 0.0000000000000000e+00 0.0000000000000000e+00 0.0000000000000000e+00  -2.2191970751539192e-04 2.8884843378469959e-04 0.0000000000000000e+00 2.8884843378469959e-04 -3.2362793492491554e-05 0.0000000000000000e+00 0.0000000000000000e+00 0.0000000000000000e+00 0.0000000000000000e+00  3.1828166022480339e-04 -2.0904328508971029e-04 0.0000000000000000e+00 -2.0904328508971029e-04 1.6097373764185880e-04 0.0000000000000000e+00 0.0000000000000000e+00 0.0000000000000000e+00 0.0000000000000000e+00  -1.1402373550772122e-04 7.3113290851154714e-05 0.0000000000000000e+00 7.3113290851154714e-05 -9.5545862639376849e-05 0.0000000000000000e+00 0.0000000000000000e+00 0.0000000000000000e+00 0.0000000000000000e+00  4.2154312152453845e-05 -3.1213145486979195e-05 0.0000000000000000e+00 -3.1213145486979195e-05 4.2854232826537184e-05 0.0000000000000000e+00 0.0000000000000000e+00 0.0000000000000000e+00 0.0000000000000000e+00  -8.0188892073219502e-07 1.2001283843650208e-06 0.0000000000000000e+00 1.2001283843650195e-06 3.8335300851063903e-06 0.0000000000000000e+00 0.0000000000000000e+00 0.0000000000000000e+00 0.0000000000000000e+00  9.4333205419163904e-06 -4.2972366952271920e-06 0.0000000000000000e+00 -4.2972366952271920e-06 1.8483793194955229e-05 0.0000000000000000e+00 0.0000000000000000e+00 0.0000000000000000e+00 0.0000000000000000e+00  9.1905411141332122e-06 -6.0542965185671342e-07 0.0000000000000000e+00 -6.0542965185671342e-07 1.7510389263731393e-05 0.0000000000000000e+00 0.0000000000000000e+00 0.0000000000000000e+00 0.0000000000000000e+00  1.1067387735075076e-05 4.4056687101643462e-07 0.0000000000000000e+00 4.4056687101643462e-07 1.8392259288433429e-05 0.0000000000000000e+00 0.0000000000000000e+00 0.0000000000000000e+00 0.0000000000000000e+00  1.2438618105391877e-05 1.3457674710261216e-06 0.0000000000000000e+00 1.3457674710261216e-06 1.8255102983398387e-05 0.0000000000000000e+00 0.0000000000000000e+00 0.0000000000000000e+00 0.0000000000000000e+00  1.3588323553985422e-05 1.8104504439284502e-06 0.0000000000000000e+00 1.8104504439284502e-06 1.8010311072291839e-05 0.0000000000000000e+00 0.0000000000000000e+00 0.0000000000000000e+00 0.0000000000000000e+00  1.4452557089462078e-05 2.0677858065908803e-06 0.0000000000000000e+00 2.0677858065908803e-06 1.7715409138130709e-05 0.0000000000000000e+00 0.0000000000000000e+00 0.0000000000000000e+00 0.0000000000000000e+00  1.5077989708815068e-05 2.2217811411322025e-06 0.0000000000000000e+00 2.2217811411322025e-06 1.7452730637366206e-05 0.0000000000000000e+00 0.0000000000000000e+00 0.0000000000000000e+00 0.0000000000000000e+00  1.5512341624233005e-05 2.3600160496393070e-06 0.0000000000000000e+00 2.3600160496393070e-06 1.7237838429028727e-05 0.0000000000000000e+00 0.0000000000000000e+00 0.0000000000000000e+00 0.0000000000000000e+00  1.5802781581121318e-05 2.5460230599745789e-06 0.0000000000000000e+00 2.5460230599745789e-06 1.7063658479679758e-05 0.0000000000000000e+00 0.0000000000000000e+00 0.0000000000000000e+00 0.0000000000000000e+00  1.5991247022667095e-05 2.8339944054012821e-06 0.0000000000000000e+00 2.8339944054012821e-06 1.6907169401637607e-05 0.0000000000000000e+00 0.0000000000000000e+00 0.0000000000000000e+00 0.0000000000000000e+00  1.6117446364659324e-05 3.2786517948346230e-06 0.0000000000000000e+00 3.2786517948346230e-06 1.6730749419130083e-05 0.0000000000000000e+00 0.0000000000000000e+00 0.0000000000000000e+00 0.0000000000000000e+00  1.6224137085842887e-05 3.9433696626914445e-06 0.0000000000000000e+00 3.9433696626914445e-06 1.6477243716604733e-05 0.0000000000000000e+00 0.0000000000000000e+00 0.0000000000000000e+00 0.0000000000000000e+00  7.7562876572958341e-06 3.3301146199693653e-05 0.0000000000000000e+00 3.3301146199693653e-05 -1.4411712672090255e-05 0.0000000000000000e+00 0.0000000000000000e+00 0.0000000000000000e+00 0.0000000000000000e+00  -3.8183745673685156e-05 -2.1125639214347735e-05 0.0000000000000000e+00 -2.1125639214347735e-05 -4.6000919517710150e-05 0.0000000000000000e+00 0.0000000000000000e+00 0.0000000000000000e+00 0.0000000000000000e+00  1.2899341946847214e-05 2.0060109496093830e-05 0.0000000000000000e+00 2.0060109496093830e-05 -3.0621256557678426e-05 0.0000000000000000e+00 0.0000000000000000e+00 0.0000000000000000e+00 0.0000000000000000e+00  5.3398145081344669e-05 -1.3800969983218274e-07 0.0000000000000000e+00 -1.3800969983218274e-07 3.8097600639256720e-05 0.0000000000000000e+00 0.0000000000000000e+00 0.0000000000000000e+00 0.0000000000000000e+00  -9.3774750239865879e-05 -5.6679110112213649e-05 0.0000000000000000e+00 -5.6679110112213649e-05 -6.0059671343013504e-05 0.0000000000000000e+00 0.0000000000000000e+00 0.0000000000000000e+00 0.0000000000000000e+00  4.4856797460519005e-05 2.1543580213521268e-05 0.0000000000000000e+00 2.1543580213521268e-05 7.8263447284584702e-05 0.0000000000000000e+00 0.0000000000000000e+00 0.0000000000000000e+00 0.0000000000000000e+00  4.8942980757406223e-05 -1.6156404654696215e-05 0.0000000000000000e+00 -1.6156404654696215e-05 8.3511303007186691e-05 0.0000000000000000e+00 0.0000000000000000e+00 0.0000000000000000e+00 0.0000000000000000e+00  -1.0040050011747054e-04 5.5969584816006317e-05 0.0000000000000000e+00 5.5969584816006317e-05 -6.6003412584979485e-05 0.0000000000000000e+00 0.0000000000000000e+00 0.0000000000000000e+00 0.0000000000000000e+00  8.7689308092786018e-05 2.3741649239011882e-05 0.0000000000000000e+00 2.3741649239011882e-05 5.7480608112216031e-05 0.0000000000000000e+00 0.0000000000000000e+00 0.0000000000000000e+00 0.0000000000000000e+00  -1.1650018647689560e-05 -4.6646214447710939e-05 0.0000000000000000e+00 -4.6646214447710939e-05 -4.6455309536112096e-05 0.0000000000000000e+00 0.0000000000000000e+00 0.0000000000000000e+00 0.0000000000000000e+00  -1.0237239260437848e-05 5.1183172046644422e-05 0.0000000000000000e+00 5.1183172046644422e-05 -4.6857868599936560e-05 0.0000000000000000e+00 0.0000000000000000e+00 0.0000000000000000e+00 0.0000000000000000e+00  9.1987869832103398e-05 -1.9897156781650850e-05 0.0000000000000000e+00 -1.9897156781650850e-05 5.6703302332551385e-05 0.0000000000000000e+00 0.0000000000000000e+00 0.0000000000000000e+00 0.0000000000000000e+00  -9.3021006418827183e-05 -5.3335707256339245e-05 0.0000000000000000e+00 -5.3335707256339245e-05 -6.6118786602704460e-05 0.0000000000000000e+00 0.0000000000000000e+00 0.0000000000000000e+00 0.0000000000000000e+00  5.9783178681650463e-05 1.7181954604571707e-05 0.0000000000000000e+00 1.7181954604571707e-05 8.5346634220072787e-05 0.0000000000000000e+00 0.0000000000000000e+00 0.0000000000000000e+00 0.0000000000000000e+00  5.9299031987735983e-05 -2.2710144214002408e-05 0.0000000000000000e+00 -2.2710144214002408e-05 8.3806143585771640e-05 0.0000000000000000e+00 0.0000000000000000e+00 0.0000000000000000e+00 0.0000000000000000e+00  -7.6596204671131005e-05 5.3366722702614703e-05 0.0000000000000000e+00 5.3366722702614703e-05 -4.7961576432257568e-05 0.0000000000000000e+00 0.0000000000000000e+00 0.0000000000000000e+00 0.0000000000000000e+00  7.1632652133118442e-05 -3.1010548979200908e-06 0.0000000000000000e+00 -3.1010548979200908e-06 5.8730099156708379e-05 0.0000000000000000e+00 0.0000000000000000e+00 0.0000000000000000e+00 0.0000000000000000e+00  3.2213518322517676e-05 -2.0433733684573699e-05 0.0000000000000000e+00 -2.0433733684573699e-05 -1.3634996661814870e-06 0.0000000000000000e+00 0.0000000000000000e+00 0.0000000000000000e+00 0.0000000000000000e+00  -2.1749272733886644e-05 3.0362252180680426e-05 0.0000000000000000e+00 3.0362252180680426e-05 -1.7388553816107086e-05 0.0000000000000000e+00 0.0000000000000000e+00 0.0000000000000000e+00 0.0000000000000000e+00  3.8132790653903975e-05 -2.1585558288117892e-05 0.0000000000000000e+00 -2.1585558288117892e-05 1.9043541282827734e-05 0.0000000000000000e+00 0.0000000000000000e+00 0.0000000000000000e+00 0.0000000000000000e+00  1.5169799703110612e-06 7.6534588392858348e-07 0.0000000000000000e+00 7.6534588392858348e-07 -4.6041812080004718e-07 0.0000000000000000e+00 0.0000000000000000e+00 0.0000000000000000e+00 0.0000000000000000e+00  1.2422687775571117e-05 -6.9697652317013936e-06 0.0000000000000000e+00 -6.9697652317013945e-06 1.4253025867605423e-05 0.0000000000000000e+00 0.0000000000000000e+00 0.0000000000000000e+00 0.0000000000000000e+00  8.8278708058552996e-06 -3.0577060570140237e-06 0.0000000000000000e+00 -3.0577060570140246e-06 1.3783995970943083e-05 0.0000000000000000e+00 0.0000000000000000e+00 0.0000000000000000e+00 0.0000000000000000e+00  1.0075492055242295e-05 -2.1640210553884330e-06 0.0000000000000000e+00 -2.1640210553884330e-06 1.6489289862731854e-05 0.0000000000000000e+00 0.0000000000000000e+00 0.0000000000000000e+00 0.0000000000000000e+00  1.0755647159065250e-05 -7.1843159355679035e-07 0.0000000000000000e+00 -7.1843159355679035e-07 1.7176433423172471e-05 0.0000000000000000e+00 0.0000000000000000e+00 0.0000000000000000e+00 0.0000000000000000e+00  1.1715068401986592e-05 2.1958366034318530e-07 0.0000000000000000e+00 2.1958366034318530e-07 1.7544427174503879e-05 0.0000000000000000e+00 0.0000000000000000e+00 0.0000000000000000e+00 0.0000000000000000e+00  1.2577042441933230e-05 9.0042102475802124e-07 0.0000000000000000e+00 9.0042102475802124e-07 1.7554400839193680e-05 0.0000000000000000e+00 0.0000000000000000e+00 0.0000000000000000e+00 0.0000000000000000e+00  1.3309681087272236e-05 1.3637291154868074e-06 0.0000000000000000e+00 1.3637291154868074e-06 1.7424522320590301e-05 0.0000000000000000e+00 0.0000000000000000e+00 0.0000000000000000e+00 0.0000000000000000e+00  1.3889018078466318e-05 1.7032120743509417e-06 0.0000000000000000e+00 1.7032120743509417e-06 1.7232428784081490e-05 0.0000000000000000e+00 0.0000000000000000e+00 0.0000000000000000e+00 0.0000000000000000e+00  1.4327388290024723e-05 1.9917011308663178e-06 0.0000000000000000e+00 1.9917011308663178e-06 1.7018130563177767e-05 0.0000000000000000e+00 0.0000000000000000e+00 0.0000000000000000e+00 0.0000000000000000e+00  1.4649087128051735e-05 2.2914025418784549e-06 0.0000000000000000e+00 2.2914025418784549e-06 1.6787028916361791e-05 0.0000000000000000e+00 0.0000000000000000e+00 0.0000000000000000e+00 0.0000000000000000e+00  1.4885131006415874e-05 2.6560252721957636e-06 0.0000000000000000e+00 2.6560252721957636e-06 1.6521241809636659e-05 0.0000000000000000e+00 0.0000000000000000e+00 0.0000000000000000e+00 0.0000000000000000e+00  1.5072570592581172e-05 3.1364045181385520e-06 0.0000000000000000e+00 3.1364045181385520e-06 1.6180757523215245e-05 0.0000000000000000e+00 0.0000000000000000e+00 0.0000000000000000e+00 0.0000000000000000e+00  1.5257219102096695e-05 3.7843410572361143e-06 0.0000000000000000e+00 3.7843410572361143e-06 1.5700021181474240e-05 0.0000000000000000e+00 0.0000000000000000e+00 0.0000000000000000e+00 0.0000000000000000e+00  1.3178207265827975e-06 1.5381037197530985e-05 0.0000000000000000e+00 1.5381037197530985e-05 -1.0759285278370135e-05 0.0000000000000000e+00 0.0000000000000000e+00 0.0000000000000000e+00 0.0000000000000000e+00  1.0356359040349977e-05 9.3219940573758622e-06 0.0000000000000000e+00 9.3219940573758622e-06 -1.7540299114197252e-05 0.0000000000000000e+00 0.0000000000000000e+00 0.0000000000000000e+00 0.0000000000000000e+00  6.9571631370073197e-06 -7.6225075116784295e-06 0.0000000000000000e+00 -7.6225075116784295e-06 -1.3809241488657258e-05 0.0000000000000000e+00 0.0000000000000000e+00 0.0000000000000000e+00 0.0000000000000000e+00  -3.3068016037675917e-06 -1.3888024942254769e-05 0.0000000000000000e+00 -1.3888024942254769e-05 -1.0491818958095326e-05 0.0000000000000000e+00 0.0000000000000000e+00 0.0000000000000000e+00 0.0000000000000000e+00  1.1595297147997028e-05 -6.9266061738859043e-06 0.0000000000000000e+00 -6.9266061738859043e-06 2.2654624697285190e-05 0.0000000000000000e+00 0.0000000000000000e+00 0.0000000000000000e+00 0.0000000000000000e+00  -7.8131528519492217e-06 -9.6877899371581682e-06 0.0000000000000000e+00 -9.6877899371581682e-06 2.0698413486767758e-05 0.0000000000000000e+00 0.0000000000000000e+00 0.0000000000000000e+00 0.0000000000000000e+00  -7.7624097631689995e-06 1.1283119541092150e-05 0.0000000000000000e+00 1.1283119541092150e-05 2.0502372931900660e-05 0.0000000000000000e+00 0.0000000000000000e+00 0.0000000000000000e+00 0.0000000000000000e+00  1.7094600050901765e-05 1.0627414928429479e-05 0.0000000000000000e+00 1.0627414928429479e-05 2.6263964508678799e-05 0.0000000000000000e+00 0.0000000000000000e+00 0.0000000000000000e+00 0.0000000000000000e+00  -1.3066502655369202e-06 1.3237186985485269e-05 0.0000000000000000e+00 1.3237186985485269e-05 -1.0502591265884713e-05 0.0000000000000000e+00 0.0000000000000000e+00 0.0000000000000000e+00 0.0000000000000000e+00  2.0243510103380447e-05 1.3496259932109249e-05 0.0000000000000000e+00 1.3496259932109249e-05 -8.9329505861214162e-06 0.0000000000000000e+00 0.0000000000000000e+00 0.0000000000000000e+00 0.0000000000000000e+00  2.1580991927413332e-05 -1.1765093651333850e-05 0.0000000000000000e+00 -1.1765093651333850e-05 -8.9583547950652411e-06 0.0000000000000000e+00 0.0000000000000000e+00 0.0000000000000000e+00 0.0000000000000000e+00  2.6538709822020001e-06 -1.2202908536218729e-05 0.0000000000000000e+00 -1.2202908536218729e-05 -1.0271147064189089e-05 0.0000000000000000e+00 0.0000000000000000e+00 0.0000000000000000e+00 0.0000000000000000e+00  2.3539257915139633e-05 -1.0835063395337957e-05 0.0000000000000000e+00 -1.0835063395337957e-05 2.7589646999307479e-05 0.0000000000000000e+00 0.0000000000000000e+00 0.0000000000000000e+00 0.0000000000000000e+00  9.0162093696970640e-07 -1.3072699462043654e-05 0.0000000000000000e+00 -1.3072699462043654e-05 2.4122854981796557e-05 0.0000000000000000e+00 0.0000000000000000e+00 0.0000000000000000e+00 0.0000000000000000e+00  2.5156121293543232e-06 6.3098625346162590e-06 0.0000000000000000e+00 6.3098625346162590e-06 2.8127600510500548e-05 0.0000000000000000e+00 0.0000000000000000e+00 0.0000000000000000e+00 0.0000000000000000e+00  2.2608050062959469e-05 2.7365070557746801e-06 0.0000000000000000e+00 2.7365070557746801e-06 3.5451093593093958e-05 0.0000000000000000e+00 0.0000000000000000e+00 0.0000000000000000e+00 0.0000000000000000e+00  7.4561204167844347e-06 1.0689959974380213e-05 0.0000000000000000e+00 1.0689959974380213e-05 8.3920775489723641e-06 0.0000000000000000e+00 0.0000000000000000e+00 0.0000000000000000e+00 0.0000000000000000e+00  1.6702882518824983e-05 8.3261491885235323e-06 0.0000000000000000e+00 8.3261491885235323e-06 9.2264965378225581e-06 0.0000000000000000e+00 0.0000000000000000e+00 0.0000000000000000e+00 0.0000000000000000e+00  2.0868144619059096e-05 -3.0111156132475243e-06 0.0000000000000000e+00 -3.0111156132475243e-06 6.3044487438514380e-06 0.0000000000000000e+00 0.0000000000000000e+00 0.0000000000000000e+00 0.0000000000000000e+00  1.0784095036714540e-05 8.9807063977135832e-07 0.0000000000000000e+00 8.9807063977135832e-07 2.9621368536965280e-06 0.0000000000000000e+00 0.0000000000000000e+00 0.0000000000000000e+00 0.0000000000000000e+00  1.4987261812269944e-05 -5.2520885073761555e-06 0.0000000000000000e+00 -5.2520885073761546e-06 9.3596351014042807e-06 0.0000000000000000e+00 0.0000000000000000e+00 0.0000000000000000e+00 0.0000000000000000e+00  1.0793746691719567e-05 -3.5460685491463440e-06 0.0000000000000000e+00 -3.5460685491463431e-06 1.0179573704335471e-05 0.0000000000000000e+00 0.0000000000000000e+00 0.0000000000000000e+00 0.0000000000000000e+00  1.1020596526909255e-05 -3.5975050108616824e-06 0.0000000000000000e+00 -3.5975050108616820e-06 1.3521913634163516e-05 0.0000000000000000e+00 0.0000000000000000e+00 0.0000000000000000e+00 0.0000000000000000e+00  1.0617427468159892e-05 -2.3954997782065168e-06 0.0000000000000000e+00 -2.3954997782065168e-06 1.5007600837882776e-05 0.0000000000000000e+00 0.0000000000000000e+00 0.0000000000000000e+00 0.0000000000000000e+00  1.0957024963980233e-05 -1.4184306645579382e-06 0.0000000000000000e+00 -1.4184306645579382e-06 1.6165995410364407e-05 0.0000000000000000e+00 0.0000000000000000e+00 0.0000000000000000e+00 0.0000000000000000e+00  1.1434534214170500e-05 -5.0755216059071846e-07 0.0000000000000000e+00 -5.0755216059071846e-07 1.6721729495359266e-05 0.0000000000000000e+00 0.0000000000000000e+00 0.0000000000000000e+00 0.0000000000000000e+00  1.1997508796530910e-05 2.1186256765362490e-07 0.0000000000000000e+00 2.1186256765362490e-07 1.6956807048951900e-05 0.0000000000000000e+00 0.0000000000000000e+00 0.0000000000000000e+00 0.0000000000000000e+00  1.2534730729604724e-05 7.7808907856405628e-07 0.0000000000000000e+00 7.7808907856405628e-07 1.6976649898123813e-05 0.0000000000000000e+00 0.0000000000000000e+00 0.0000000000000000e+00 0.0000000000000000e+00  1.3004171488538288e-05 1.2330020912099858e-06 0.0000000000000000e+00 1.2330020912099858e-06 1.6870806237419609e-05 0.0000000000000000e+00 0.0000000000000000e+00 0.0000000000000000e+00 0.0000000000000000e+00  1.3390634062386311e-05 1.6291599885887107e-06 0.0000000000000000e+00 1.6291599885887107e-06 1.6682718673168635e-05 0.0000000000000000e+00 0.0000000000000000e+00 0.0000000000000000e+00 0.0000000000000000e+00  1.3699744490032764e-05 2.0159051880009375e-06 0.0000000000000000e+00 2.0159051880009375e-06 1.6425552206938775e-05 0.0000000000000000e+00 0.0000000000000000e+00 0.0000000000000000e+00 0.0000000000000000e+00  1.3950430952226040e-05 2.4384031904725853e-06 0.0000000000000000e+00 2.4384031904725853e-06 1.6086321810056276e-05 0.0000000000000000e+00 0.0000000000000000e+00 0.0000000000000000e+00 0.0000000000000000e+00  1.4173222237771205e-05 2.9377048844938979e-06 0.0000000000000000e+00 2.9377048844938979e-06 1.5627237589042415e-05 0.0000000000000000e+00 0.0000000000000000e+00 0.0000000000000000e+00 0.0000000000000000e+00  1.4410845006718232e-05 3.5505839080105761e-06 0.0000000000000000e+00 3.5505839080105761e-06 1.4983499543732374e-05 0.0000000000000000e+00 0.0000000000000000e+00 0.0000000000000000e+00 0.0000000000000000e+00  8.5143142379033732e-06 1.2513316548881336e-05 0.0000000000000000e+00 1.2513316548881336e-05 -1.3352198177288942e-06 0.0000000000000000e+00 0.0000000000000000e+00 0.0000000000000000e+00 0.0000000000000000e+00  1.0317416948921262e-05 4.0164994405570784e-06 0.0000000000000000e+00 4.0164994405570784e-06 -8.8220566966093634e-06 0.0000000000000000e+00 0.0000000000000000e+00 0.0000000000000000e+00 0.0000000000000000e+00  9.7711191932077941e-06 -3.0266858833018977e-06 0.0000000000000000e+00 -3.0266858833018977e-06 -8.0815688148981400e-06 0.0000000000000000e+00 0.0000000000000000e+00 0.0000000000000000e+00 0.0000000000000000e+00  8.0980161366827063e-06 -7.8373566745030290e-06 0.0000000000000000e+00 -7.8373566745030290e-06 9.0316849995650546e-07 0.0000000000000000e+00 0.0000000000000000e+00 0.0000000000000000e+00 0.0000000000000000e+00  1.8637907217491220e-06 -8.7711752045163947e-06 0.0000000000000000e+00 -8.7711752045163947e-06 8.4617982557973724e-06 0.0000000000000000e+00 0.0000000000000000e+00 0.0000000000000000e+00 0.0000000000000000e+00  1.4953601735556233e-06 -2.4696035430199229e-06 0.0000000000000000e+00 -2.4696035430199229e-06 1.7382036623307994e-05 0.0000000000000000e+00 0.0000000000000000e+00 0.0000000000000000e+00 0.0000000000000000e+00  2.4545542842456378e-06 2.7210244144041754e-06 0.0000000000000000e+00 2.7210244144041754e-06 1.8204453282165211e-05 0.0000000000000000e+00 0.0000000000000000e+00 0.0000000000000000e+00 0.0000000000000000e+00  3.6899683582866186e-06 8.7565179069936894e-06 0.0000000000000000e+00 8.7565179069936894e-06 9.9072424568985254e-06 0.0000000000000000e+00 0.0000000000000000e+00 0.0000000000000000e+00 0.0000000000000000e+00  1.2457828784152673e-05 8.5241196645200007e-06 0.0000000000000000e+00 8.5241196645200007e-06 3.9226388873509203e-06 0.0000000000000000e+00 0.0000000000000000e+00 0.0000000000000000e+00 0.0000000000000000e+00  1.4220070588716912e-05 2.4184936865296353e-06 0.0000000000000000e+00 2.4184936865296353e-06 -4.2894176803029368e-06 0.0000000000000000e+00 0.0000000000000000e+00 0.0000000000000000e+00 0.0000000000000000e+00  1.5262078359302192e-05 -3.0825236325934964e-06 0.0000000000000000e+00 -3.0825236325934964e-06 -3.9907011256661791e-06 0.0000000000000000e+00 0.0000000000000000e+00 0.0000000000000000e+00 0.0000000000000000e+00  1.5488658725983606e-05 -9.7324995875955199e-06 0.0000000000000000e+00 -9.7324995875955199e-06 5.0477327096373694e-06 0.0000000000000000e+00 0.0000000000000000e+00 0.0000000000000000e+00 0.0000000000000000e+00  8.4271710437942480e-06 -1.0911150033389666e-05 0.0000000000000000e+00 -1.0911150033389666e-05 1.2492474622270778e-05 0.0000000000000000e+00 0.0000000000000000e+00 0.0000000000000000e+00 0.0000000000000000e+00  8.4275454725582548e-06 -5.9532389275219886e-06 0.0000000000000000e+00 -5.9532389275219886e-06 2.3162365514601367e-05 0.0000000000000000e+00 0.0000000000000000e+00 0.0000000000000000e+00 0.0000000000000000e+00  8.0366943453947934e-06 -1.5480928266162788e-06 0.0000000000000000e+00 -1.5480928266162788e-06 2.5715043119248132e-05 0.0000000000000000e+00 0.0000000000000000e+00 0.0000000000000000e+00 0.0000000000000000e+00  8.2069757470373514e-06 4.8613360442602240e-06 0.0000000000000000e+00 4.8613360442602240e-06 2.0907234237428402e-05 0.0000000000000000e+00 0.0000000000000000e+00 0.0000000000000000e+00 0.0000000000000000e+00  1.3619173556549049e-05 5.6043757075866713e-06 0.0000000000000000e+00 5.6043757075866713e-06 1.7249605258810296e-05 0.0000000000000000e+00 0.0000000000000000e+00 0.0000000000000000e+00 0.0000000000000000e+00  1.4524938943820806e-05 4.2712959890958831e-06 0.0000000000000000e+00 4.2712959890958831e-06 1.0468402200234149e-05 0.0000000000000000e+00 0.0000000000000000e+00 0.0000000000000000e+00 0.0000000000000000e+00  1.4789717071270733e-05 2.4598157273435482e-06 0.0000000000000000e+00 2.4598157273435482e-06 7.8440778827850581e-06 0.0000000000000000e+00 0.0000000000000000e+00 0.0000000000000000e+00 0.0000000000000000e+00  1.5294200682160996e-05 -1.1651825936791067e-06 0.0000000000000000e+00 -1.1651825936791067e-06 7.9618886311221531e-06 0.0000000000000000e+00 0.0000000000000000e+00 0.0000000000000000e+00 0.0000000000000000e+00  1.3203769825565479e-05 -2.0594032255100513e-06 0.0000000000000000e+00 -2.0594032255100513e-06 8.6545211070111176e-06 0.0000000000000000e+00 0.0000000000000000e+00 0.0000000000000000e+00 0.0000000000000000e+00  1.2642970039546190e-05 -3.1295800043196427e-06 0.0000000000000000e+00 -3.1295800043196427e-06 1.0937662048033285e-05 0.0000000000000000e+00 0.0000000000000000e+00 0.0000000000000000e+00 0.0000000000000000e+00  1.1617330136162595e-05 -2.8692392231025758e-06 0.0000000000000000e+00 -2.8692392231025762e-06 1.2632252918040437e-05 0.0000000000000000e+00 0.0000000000000000e+00 0.0000000000000000e+00 0.0000000000000000e+00  1.1293352022330724e-05 -2.3829844128354482e-06 0.0000000000000000e+00 -2.3829844128354482e-06 1.4225893831030643e-05 0.0000000000000000e+00 0.0000000000000000e+00 0.0000000000000000e+00 0.0000000000000000e+00  1.1210011303075064e-05 -1.6416872351299516e-06 0.0000000000000000e+00 -1.6416872351299516e-06 1.5282047863005162e-05 0.0000000000000000e+00 0.0000000000000000e+00 0.0000000000000000e+00 0.0000000000000000e+00  1.1386777981127085e-05 -9.0740449743178721e-07 0.0000000000000000e+00 -9.0740449743178721e-07 1.5963323079345994e-05 0.0000000000000000e+00 0.0000000000000000e+00 0.0000000000000000e+00 0.0000000000000000e+00  1.1684401645769182e-05 -2.3466972575547965e-07 0.0000000000000000e+00 -2.3466972575547965e-07 1.6321911222490934e-05 0.0000000000000000e+00 0.0000000000000000e+00 0.0000000000000000e+00 0.0000000000000000e+00  1.2029979331835632e-05 3.4792206766999199e-07 0.0000000000000000e+00 3.4792206766999199e-07 1.6453912620685609e-05 0.0000000000000000e+00 0.0000000000000000e+00 0.0000000000000000e+00 0.0000000000000000e+00  1.2370034377635599e-05 8.5393507231699758e-07 0.0000000000000000e+00 8.5393507231699758e-07 1.6422763518051934e-05 0.0000000000000000e+00 0.0000000000000000e+00 0.0000000000000000e+00 0.0000000000000000e+00  1.2678732690871219e-05 1.3106113705536628e-06 0.0000000000000000e+00 1.3106113705536628e-06 1.6268326489947742e-05 0.0000000000000000e+00 0.0000000000000000e+00 0.0000000000000000e+00 0.0000000000000000e+00  1.2949699910618474e-05 1.7506644494694516e-06 0.0000000000000000e+00 1.7506644494694516e-06 1.6004564201855548e-05 0.0000000000000000e+00 0.0000000000000000e+00 0.0000000000000000e+00 0.0000000000000000e+00  1.3192203520849838e-05 2.2061379357558799e-06 0.0000000000000000e+00 2.2061379357558799e-06 1.5621915551308539e-05 0.0000000000000000e+00 0.0000000000000000e+00 0.0000000000000000e+00 0.0000000000000000e+00  1.3429201536661560e-05 2.7051787810850526e-06 0.0000000000000000e+00 2.7051787810850526e-06 1.5087261531345203e-05 0.0000000000000000e+00 0.0000000000000000e+00 0.0000000000000000e+00 0.0000000000000000e+00  1.3696748156469229e-05 3.2687529921079180e-06 0.0000000000000000e+00 3.2687529921079180e-06 1.4342828675313252e-05 0.0000000000000000e+00 0.0000000000000000e+00 0.0000000000000000e+00 0.0000000000000000e+00  1.0376819512486579e-05 8.9224681925666561e-06 0.0000000000000000e+00 8.9224681925666561e-06 3.8166049736779797e-06 0.0000000000000000e+00 0.0000000000000000e+00 0.0000000000000000e+00 0.0000000000000000e+00  1.2032606297967768e-05 3.9804158771208105e-06 0.0000000000000000e+00 3.9804158771208105e-06 -1.9215058792345705e-06 0.0000000000000000e+00 0.0000000000000000e+00 0.0000000000000000e+00 0.0000000000000000e+00  1.1407368126760906e-05 -1.3828550803736957e-06 0.0000000000000000e+00 -1.3828550803736957e-06 -1.9143425315499068e-06 0.0000000000000000e+00 0.0000000000000000e+00 0.0000000000000000e+00 0.0000000000000000e+00  8.8765305012601095e-06 -4.7777795493561423e-06 0.0000000000000000e+00 -4.7777795493561423e-06 1.9271785176943365e-06 0.0000000000000000e+00 0.0000000000000000e+00 0.0000000000000000e+00 0.0000000000000000e+00  6.4402845622200842e-06 -4.9043489193635549e-06 0.0000000000000000e+00 -4.9043489193635549e-06 7.8903787952627150e-06 0.0000000000000000e+00 0.0000000000000000e+00 0.0000000000000000e+00 0.0000000000000000e+00  4.4748941159201193e-06 -2.5215300411453211e-06 0.0000000000000000e+00 -2.5215300411453211e-06 1.1835665991167557e-05 0.0000000000000000e+00 0.0000000000000000e+00 0.0000000000000000e+00 0.0000000000000000e+00  4.8284898816492309e-06 1.5509905829596002e-06 0.0000000000000000e+00 1.5509905829596002e-06 1.2361565244407135e-05 0.0000000000000000e+00 0.0000000000000000e+00 0.0000000000000000e+00 0.0000000000000000e+00  7.6944346220776627e-06 4.0683212237261165e-06 0.0000000000000000e+00 4.0683212237261165e-06 9.5917805029073154e-06 0.0000000000000000e+00 0.0000000000000000e+00 0.0000000000000000e+00 0.0000000000000000e+00  1.0627677318736264e-05 3.9544132139162298e-06 0.0000000000000000e+00 3.9544132139162298e-06 4.5648201388766714e-06 0.0000000000000000e+00 0.0000000000000000e+00 0.0000000000000000e+00 0.0000000000000000e+00  1.3631173803709296e-05 1.0842234320201520e-06 0.0000000000000000e+00 1.0842234320201520e-06 1.6951926599743340e-06 0.0000000000000000e+00 0.0000000000000000e+00 0.0000000000000000e+00 0.0000000000000000e+00  1.4332661423853602e-05 -3.4853852902090019e-06 0.0000000000000000e+00 -3.4853852902090019e-06 2.2277361842008148e-06 0.0000000000000000e+00 0.0000000000000000e+00 0.0000000000000000e+00 0.0000000000000000e+00  1.2631693049433695e-05 -6.6999315672356774e-06 0.0000000000000000e+00 -6.6999315672356774e-06 6.3200844451393395e-06 0.0000000000000000e+00 0.0000000000000000e+00 0.0000000000000000e+00 0.0000000000000000e+00  1.0709753008031456e-05 -7.3709199279644690e-06 0.0000000000000000e+00 -7.3709199279644690e-06 1.3001750119144635e-05 0.0000000000000000e+00 0.0000000000000000e+00 0.0000000000000000e+00 0.0000000000000000e+00  8.4026943460670186e-06 -5.3696454384823769e-06 0.0000000000000000e+00 -5.3696454384823769e-06 1.8013727901360374e-05 0.0000000000000000e+00 0.0000000000000000e+00 0.0000000000000000e+00 0.0000000000000000e+00  8.0585032595887312e-06 -1.4105970470423181e-06 0.0000000000000000e+00 -1.4105970470423181e-06 2.0272815535892482e-05 0.0000000000000000e+00 0.0000000000000000e+00 0.0000000000000000e+00 0.0000000000000000e+00  9.5150897491709954e-06 1.6867595108142146e-06 0.0000000000000000e+00 1.6867595108142146e-06 1.9295982013436437e-05 0.0000000000000000e+00 0.0000000000000000e+00 0.0000000000000000e+00 0.0000000000000000e+00  1.1181330038852146e-05 3.4421683210148587e-06 0.0000000000000000e+00 3.4421683210148587e-06 1.5732318425392371e-05 0.0000000000000000e+00 0.0000000000000000e+00 0.0000000000000000e+00 0.0000000000000000e+00  1.3124071559319319e-05 3.1693732951955493e-06 0.0000000000000000e+00 3.1693732951955493e-06 1.2556287461650715e-05 0.0000000000000000e+00 0.0000000000000000e+00 0.0000000000000000e+00 0.0000000000000000e+00  1.4051691711052206e-05 1.6040417613955652e-06 0.0000000000000000e+00 1.6040417613955652e-06 1.0255053383192155e-05 0.0000000000000000e+00 0.0000000000000000e+00 0.0000000000000000e+00 0.0000000000000000e+00  1.3945694455062025e-05 4.3225222847073092e-08 0.0000000000000000e+00 4.3225222847073092e-08 9.4902300343062538e-06 0.0000000000000000e+00 0.0000000000000000e+00 0.0000000000000000e+00 0.0000000000000000e+00  1.3557048257346938e-05 -1.4362139153185707e-06 0.0000000000000000e+00 -1.4362139153185707e-06 1.0050555912154943e-05 0.0000000000000000e+00 0.0000000000000000e+00 0.0000000000000000e+00 0.0000000000000000e+00  1.2726260267431559e-05 -2.1095741211035681e-06 0.0000000000000000e+00 -2.1095741211035681e-06 1.1126398537897863e-05 0.0000000000000000e+00 0.0000000000000000e+00 0.0000000000000000e+00 0.0000000000000000e+00  1.2116120539479367e-05 -2.3253020562366312e-06 0.0000000000000000e+00 -2.3253020562366316e-06 1.2489381156945465e-05 0.0000000000000000e+00 0.0000000000000000e+00 0.0000000000000000e+00 0.0000000000000000e+00  1.1645795272796353e-05 -2.0811951630898736e-06 0.0000000000000000e+00 -2.0811951630898736e-06 1.3685579895479291e-05 0.0000000000000000e+00 0.0000000000000000e+00 0.0000000000000000e+00 0.0000000000000000e+00  1.1432972880478625e-05 -1.6201953565847389e-06 0.0000000000000000e+00 -1.6201953565847389e-06 1.4647709331848974e-05 0.0000000000000000e+00 0.0000000000000000e+00 0.0000000000000000e+00 0.0000000000000000e+00  1.1406716807784736e-05 -1.0549038157019629e-06 0.0000000000000000e+00 -1.0549038157019629e-06 1.5315563131693920e-05 0.0000000000000000e+00 0.0000000000000000e+00 0.0000000000000000e+00 0.0000000000000000e+00  1.1517527699404888e-05 -4.7893770092842079e-07 0.0000000000000000e+00 -4.7893770092842079e-07 1.5725265321865335e-05 0.0000000000000000e+00 0.0000000000000000e+00 0.0000000000000000e+00 0.0000000000000000e+00  1.1705124678293069e-05 6.8554627416753079e-08 0.0000000000000000e+00 6.8554627416753079e-08 1.5918840979768818e-05 0.0000000000000000e+00 0.0000000000000000e+00 0.0000000000000000e+00 0.0000000000000000e+00  1.1926398272022240e-05 5.7651079955015553e-07 0.0000000000000000e+00 5.7651079955015553e-07 1.5938833393075544e-05 0.0000000000000000e+00 0.0000000000000000e+00 0.0000000000000000e+00 0.0000000000000000e+00  1.2154124820729410e-05 1.0527512234660308e-06 0.0000000000000000e+00 1.0527512234660308e-06 1.5813256616388765e-05 0.0000000000000000e+00 0.0000000000000000e+00 0.0000000000000000e+00 0.0000000000000000e+00  1.2377194932733800e-05 1.5135014660027730e-06 0.0000000000000000e+00 1.5135014660027730e-06 1.5552887393864157e-05 0.0000000000000000e+00 0.0000000000000000e+00 0.0000000000000000e+00 0.0000000000000000e+00  1.2598659380833052e-05 1.9768920026915212e-06 0.0000000000000000e+00 1.9768920026915212e-06 1.5149738828125234e-05 0.0000000000000000e+00 0.0000000000000000e+00 0.0000000000000000e+00 0.0000000000000000e+00  1.2834619470172562e-05 2.4577509573776042e-06 0.0000000000000000e+00 2.4577509573776042e-06 1.4576311555205578e-05 0.0000000000000000e+00 0.0000000000000000e+00 0.0000000000000000e+00 0.0000000000000000e+00  1.3113071481468344e-05 2.9627051206022755e-06 0.0000000000000000e+00 2.9627051206022755e-06 1.3785211734901062e-05 0.0000000000000000e+00 0.0000000000000000e+00 0.0000000000000000e+00 0.0000000000000000e+00  1.1202936990947427e-05 6.6482235523462129e-06 0.0000000000000000e+00 6.6482235523462129e-06 6.8786178868148249e-06 0.0000000000000000e+00 0.0000000000000000e+00 0.0000000000000000e+00 0.0000000000000000e+00  1.2348628878797080e-05 3.5386685816497411e-06 0.0000000000000000e+00 3.5386685816497411e-06 2.6518586800968599e-06 0.0000000000000000e+00 0.0000000000000000e+00 0.0000000000000000e+00 0.0000000000000000e+00  1.1952689611231473e-05 5.1693948815960420e-08 0.0000000000000000e+00 5.1693948815960420e-08 1.8634209800822430e-06 0.0000000000000000e+00 0.0000000000000000e+00 0.0000000000000000e+00 0.0000000000000000e+00  1.0453811706647590e-05 -2.3536115133647713e-06 0.0000000000000000e+00 -2.3536115133647713e-06 3.8309377792849029e-06 0.0000000000000000e+00 0.0000000000000000e+00 0.0000000000000000e+00 0.0000000000000000e+00  8.5754763324889976e-06 -2.9149510993579004e-06 0.0000000000000000e+00 -2.9149510993579004e-06 6.8314642667376186e-06 0.0000000000000000e+00 0.0000000000000000e+00 0.0000000000000000e+00 0.0000000000000000e+00  7.4428924522151384e-06 -1.6907747051039284e-06 0.0000000000000000e+00 -1.6907747051039284e-06 9.2395496734761955e-06 0.0000000000000000e+00 0.0000000000000000e+00 0.0000000000000000e+00 0.0000000000000000e+00  7.6043974099037026e-06 1.9800821995340357e-07 0.0000000000000000e+00 1.9800821995340357e-07 9.7561750801785733e-06 0.0000000000000000e+00 0.0000000000000000e+00 0.0000000000000000e+00 0.0000000000000000e+00  8.9881038385375281e-06 1.5542052785818968e-06 0.0000000000000000e+00 1.5542052785818968e-06 8.3155115595535262e-06 0.0000000000000000e+00 0.0000000000000000e+00 0.0000000000000000e+00 0.0000000000000000e+00  1.1063047472391846e-05 1.3357915214379032e-06 0.0000000000000000e+00 1.3357915214379032e-06 6.1872693236761947e-06 0.0000000000000000e+00 0.0000000000000000e+00 0.0000000000000000e+00 0.0000000000000000e+00  1.2591280457990753e-05 -4.9381565886483979e-07 0.0000000000000000e+00 -4.9381565886483979e-07 4.7940890175476880e-06 0.0000000000000000e+00 0.0000000000000000e+00 0.0000000000000000e+00 0.0000000000000000e+00  1.2991669286111209e-05 -2.9938129899696152e-06 0.0000000000000000e+00 -2.9938129899696152e-06 5.4617729485025977e-06 0.0000000000000000e+00 0.0000000000000000e+00 0.0000000000000000e+00 0.0000000000000000e+00  1.2180688706022980e-05 -4.9821025385714955e-06 0.0000000000000000e+00 -4.9821025385714955e-06 8.2870444030181873e-06 0.0000000000000000e+00 0.0000000000000000e+00 0.0000000000000000e+00 0.0000000000000000e+00  1.0586454860498498e-05 -5.4104759033562320e-06 0.0000000000000000e+00 -5.4104759033562320e-06 1.2103046697497832e-05 0.0000000000000000e+00 0.0000000000000000e+00 0.0000000000000000e+00 0.0000000000000000e+00  9.3377675796901438e-06 -4.1145239242104234e-06 0.0000000000000000e+00 -4.1145239242104234e-06 1.5544100731245108e-05 0.0000000000000000e+00 0.0000000000000000e+00 0.0000000000000000e+00 0.0000000000000000e+00  8.9355628723566699e-06 -1.8728639741538238e-06 0.0000000000000000e+00 -1.8728639741538238e-06 1.7229212539914786e-05 0.0000000000000000e+00 0.0000000000000000e+00 0.0000000000000000e+00 0.0000000000000000e+00  9.5436864098856127e-06 3.7896636468903272e-07 0.0000000000000000e+00 3.7896636468903272e-07 1.6887918140452276e-05 0.0000000000000000e+00 0.0000000000000000e+00 0.0000000000000000e+00 0.0000000000000000e+00  1.0851132392181653e-05 1.6743015375153369e-06 0.0000000000000000e+00 1.6743015375153369e-06 1.5234363348159488e-05 0.0000000000000000e+00 0.0000000000000000e+00 0.0000000000000000e+00 0.0000000000000000e+00  1.2108960687486405e-05 1.8454393322832242e-06 0.0000000000000000e+00 1.8454393322832242e-06 1.3142236006076814e-05 0.0000000000000000e+00 0.0000000000000000e+00 0.0000000000000000e+00 0.0000000000000000e+00  1.2970313671507569e-05 1.1666517667808904e-06 0.0000000000000000e+00 1.1666517667808904e-06 1.1581367799885037e-05 0.0000000000000000e+00 0.0000000000000000e+00 0.0000000000000000e+00 0.0000000000000000e+00  1.3279806530894682e-05 9.0633517522672080e-08 0.0000000000000000e+00 9.0633517522672080e-08 1.0869051401911004e-05 0.0000000000000000e+00 0.0000000000000000e+00 0.0000000000000000e+00 0.0000000000000000e+00  1.3089119427648616e-05 -8.6360428263743798e-07 0.0000000000000000e+00 -8.6360428263743798e-07 1.0954626113856285e-05 0.0000000000000000e+00 0.0000000000000000e+00 0.0000000000000000e+00 0.0000000000000000e+00  1.2686039757602914e-05 -1.5302252030560440e-06 0.0000000000000000e+00 -1.5302252030560440e-06 1.1609784524733985e-05 0.0000000000000000e+00 0.0000000000000000e+00 0.0000000000000000e+00 0.0000000000000000e+00  1.2203526365770923e-05 -1.7955085144543101e-06 0.0000000000000000e+00 -1.7955085144543101e-06 1.2498454597656352e-05 0.0000000000000000e+00 0.0000000000000000e+00 0.0000000000000000e+00 0.0000000000000000e+00  1.1811128659392990e-05 -1.7447636750921956e-06 0.0000000000000000e+00 -1.7447636750921956e-06 1.3413851917650213e-05 0.0000000000000000e+00 0.0000000000000000e+00 0.0000000000000000e+00 0.0000000000000000e+00  1.1547235302937665e-05 -1.4616721573923110e-06 0.0000000000000000e+00 -1.4616721573923110e-06 1.4200035588387983e-05 0.0000000000000000e+00 0.0000000000000000e+00 0.0000000000000000e+00 0.0000000000000000e+00  1.1424786362639471e-05 -1.0482577466661315e-06 0.0000000000000000e+00 -1.0482577466661315e-06 1.4800283677250563e-05 0.0000000000000000e+00 0.0000000000000000e+00 0.0000000000000000e+00 0.0000000000000000e+00  1.1417259544074681e-05 -5.7519067613409164e-07 0.0000000000000000e+00 -5.7519067613409164e-07 1.5199763719226746e-05 0.0000000000000000e+00 0.0000000000000000e+00 0.0000000000000000e+00 0.0000000000000000e+00  1.1492369273163982e-05 -8.8235939044664683e-08 0.0000000000000000e+00 -8.8235939044664683e-08 1.5412217609686646e-05 0.0000000000000000e+00 0.0000000000000000e+00 0.0000000000000000e+00 0.0000000000000000e+00  1.1619412415292377e-05 3.9091715471605482e-07 0.0000000000000000e+00 3.9091715471605482e-07 1.5457197467262161e-05 0.0000000000000000e+00 0.0000000000000000e+00 0.0000000000000000e+00 0.0000000000000000e+00  1.1776621796145965e-05 8.5636672793565681e-07 0.0000000000000000e+00 8.5636672793565681e-07 1.5350325843774309e-05 0.0000000000000000e+00 0.0000000000000000e+00 0.0000000000000000e+00 0.0000000000000000e+00  1.1952943810486191e-05 1.3111946104382042e-06 0.0000000000000000e+00 1.3111946104382042e-06 1.5097002280813027e-05 0.0000000000000000e+00 0.0000000000000000e+00 0.0000000000000000e+00 0.0000000000000000e+00  1.2148392176309908e-05 1.7612499104649116e-06 0.0000000000000000e+00 1.7612499104649116e-06 1.4689652847483519e-05 0.0000000000000000e+00 0.0000000000000000e+00 0.0000000000000000e+00 0.0000000000000000e+00  1.2373641978876512e-05 2.2096756766803162e-06 0.0000000000000000e+00 2.2096756766803162e-06 1.4106390826663552e-05 0.0000000000000000e+00 0.0000000000000000e+00 0.0000000000000000e+00 0.0000000000000000e+00  1.2648797298370163e-05 2.6516464231166213e-06 0.0000000000000000e+00 2.6516464231166213e-06 1.3311180631471398e-05 0.0000000000000000e+00 0.0000000000000000e+00 0.0000000000000000e+00 0.0000000000000000e+00  1.1516173336415557e-05 5.0855192787348609e-06 0.0000000000000000e+00 5.0855192787348609e-06 8.6604435330749967e-06 0.0000000000000000e+00 0.0000000000000000e+00 0.0000000000000000e+00 0.0000000000000000e+00  1.2358973836867929e-05 3.1834433488037089e-06 0.0000000000000000e+00 3.1834433488037089e-06 5.5582810648472359e-06 0.0000000000000000e+00 0.0000000000000000e+00 0.0000000000000000e+00 0.0000000000000000e+00  1.2235660020834098e-05 8.8739755024575218e-07 0.0000000000000000e+00 8.8739755024575218e-07 4.5214520716080216e-06 0.0000000000000000e+00 0.0000000000000000e+00 0.0000000000000000e+00 0.0000000000000000e+00  1.1341828697500860e-05 -8.6013907116321720e-07 0.0000000000000000e+00 -8.6013907116321720e-07 5.1955790746339440e-06 0.0000000000000000e+00 0.0000000000000000e+00 0.0000000000000000e+00 0.0000000000000000e+00  1.0223670939775955e-05 -1.5373889779737029e-06 0.0000000000000000e+00 -1.5373889779737029e-06 6.7094083008740632e-06 0.0000000000000000e+00 0.0000000000000000e+00 0.0000000000000000e+00 0.0000000000000000e+00  9.4609898457391312e-06 -1.2133543357767868e-06 0.0000000000000000e+00 -1.2133543357767868e-06 8.0179411266988058e-06 0.0000000000000000e+00 0.0000000000000000e+00 0.0000000000000000e+00 0.0000000000000000e+00  9.4561684542554621e-06 -4.1493532519090520e-07 0.0000000000000000e+00 -4.1493532519090520e-07 8.4441617379029651e-06 0.0000000000000000e+00 0.0000000000000000e+00 0.0000000000000000e+00 0.0000000000000000e+00  1.0202876579651613e-05 1.0133002606180239e-07 0.0000000000000000e+00 1.0133002606180239e-07 7.9426562562419379e-06 0.0000000000000000e+00 0.0000000000000000e+00 0.0000000000000000e+00 0.0000000000000000e+00  1.1269442771009408e-05 -1.7708601232853175e-07 0.0000000000000000e+00 -1.7708601232853175e-07 7.0642914740433254e-06 0.0000000000000000e+00 0.0000000000000000e+00 0.0000000000000000e+00 0.0000000000000000e+00  1.2113929511606562e-05 -1.2836334807584714e-06 0.0000000000000000e+00 -1.2836334807584710e-06 6.6812910589360708e-06 0.0000000000000000e+00 0.0000000000000000e+00 0.0000000000000000e+00 0.0000000000000000e+00  1.2283283580147678e-05 -2.7570419349105180e-06 0.0000000000000000e+00 -2.7570419349105180e-06 7.3998078622679062e-06 0.0000000000000000e+00 0.0000000000000000e+00 0.0000000000000000e+00 0.0000000000000000e+00  1.1718087924673859e-05 -3.8796241329512400e-06 0.0000000000000000e+00 -3.8796241329512400e-06 9.2689604761293045e-06 0.0000000000000000e+00 0.0000000000000000e+00 0.0000000000000000e+00 0.0000000000000000e+00  1.0767000876490589e-05 -4.1117758585453830e-06 0.0000000000000000e+00 -4.1117758585453830e-06 1.1753703656822279e-05 0.0000000000000000e+00 0.0000000000000000e+00 0.0000000000000000e+00 0.0000000000000000e+00  9.9108429957171975e-06 -3.3460243846775533e-06 0.0000000000000000e+00 -3.3460243846775533e-06 1.3973742779696574e-05 0.0000000000000000e+00 0.0000000000000000e+00 0.0000000000000000e+00 0.0000000000000000e+00  9.5915841485752229e-06 -1.9255393744523570e-06 0.0000000000000000e+00 -1.9255393744523570e-06 1.5246862869709699e-05 0.0000000000000000e+00 0.0000000000000000e+00 0.0000000000000000e+00 0.0000000000000000e+00  9.9186960346766576e-06 -4.6550633417584439e-07 0.0000000000000000e+00 -4.6550633417584439e-07 1.5337841998269036e-05 0.0000000000000000e+00 0.0000000000000000e+00 0.0000000000000000e+00 0.0000000000000000e+00  1.0689158100817742e-05 5.4012198502073467e-07 0.0000000000000000e+00 5.4012198502073467e-07 1.4508066123975331e-05 0.0000000000000000e+00 0.0000000000000000e+00 0.0000000000000000e+00 0.0000000000000000e+00  1.1578963418714013e-05 8.6056587543068391e-07 0.0000000000000000e+00 8.6056587543068391e-07 1.3326689028429032e-05 0.0000000000000000e+00 0.0000000000000000e+00 0.0000000000000000e+00 0.0000000000000000e+00  1.2270870389133059e-05 5.8810016560561225e-07 0.0000000000000000e+00 5.8810016560561225e-07 1.2295320976915347e-05 0.0000000000000000e+00 0.0000000000000000e+00 0.0000000000000000e+00 0.0000000000000000e+00  1.2620378255454254e-05 -5.3189438358203060e-09 0.0000000000000000e+00 -5.3189438358203060e-09 1.1726029673244675e-05 0.0000000000000000e+00 0.0000000000000000e+00 0.0000000000000000e+00 0.0000000000000000e+00  1.2643787222055173e-05 -6.5215328950736971e-07 0.0000000000000000e+00 -6.5215328950736971e-07 1.1674538409310456e-05 0.0000000000000000e+00 0.0000000000000000e+00 0.0000000000000000e+00 0.0000000000000000e+00  1.2433230736454658e-05 -1.1452414120842473e-06 0.0000000000000000e+00 -1.1452414120842473e-06 1.2027612331644344e-05 0.0000000000000000e+00 0.0000000000000000e+00 0.0000000000000000e+00 0.0000000000000000e+00  1.2125107744007699e-05 -1.4070422148593313e-06 0.0000000000000000e+00 -1.4070422148593313e-06 1.2618655809846873e-05 0.0000000000000000e+00 0.0000000000000000e+00 0.0000000000000000e+00 0.0000000000000000e+00  1.1815191759814761e-05 -1.4297864856315847e-06 0.0000000000000000e+00 -1.4297864856315847e-06 1.3280783494100490e-05 0.0000000000000000e+00 0.0000000000000000e+00 0.0000000000000000e+00 0.0000000000000000e+00  1.1569749895792490e-05 -1.2611318987251908e-06 0.0000000000000000e+00 -1.2611318987251908e-06 1.3898203504312350e-05 0.0000000000000000e+00 0.0000000000000000e+00 0.0000000000000000e+00 0.0000000000000000e+00  1.1412137034483086e-05 -9.5898293945635371e-07 0.0000000000000000e+00 -9.5898293945635371e-07 1.4399726969986669e-05 0.0000000000000000e+00 0.0000000000000000e+00 0.0000000000000000e+00 0.0000000000000000e+00  1.1342398281616355e-05 -5.7769259521563640e-07 0.0000000000000000e+00 -5.7769259521563640e-07 1.4754411278161063e-05 0.0000000000000000e+00 0.0000000000000000e+00 0.0000000000000000e+00 0.0000000000000000e+00  1.1346471069362681e-05 -1.5707288203387630e-07 0.0000000000000000e+00 -1.5707288203387630e-07 1.4954308199095156e-05 0.0000000000000000e+00 0.0000000000000000e+00 0.0000000000000000e+00 0.0000000000000000e+00  1.1407169869582357e-05 2.7762069665087828e-07 0.0000000000000000e+00 2.7762069665087828e-07 1.5002573374979533e-05 0.0000000000000000e+00 0.0000000000000000e+00 0.0000000000000000e+00 0.0000000000000000e+00  1.1510022976703312e-05 7.1300998762444964e-07 0.0000000000000000e+00 7.1300998762444964e-07 1.4903718764496907e-05 0.0000000000000000e+00 0.0000000000000000e+00 0.0000000000000000e+00 0.0000000000000000e+00  1.1646698144358315e-05 1.1430350080644969e-06 0.0000000000000000e+00 1.1430350080644969e-06 1.4657820495401699e-05 0.0000000000000000e+00 0.0000000000000000e+00 0.0000000000000000e+00 0.0000000000000000e+00  1.1816327293664772e-05 1.5641853322304153e-06 0.0000000000000000e+00 1.5641853322304153e-06 1.4257224065092734e-05 0.0000000000000000e+00 0.0000000000000000e+00 0.0000000000000000e+00 0.0000000000000000e+00  1.2025663745308910e-05 1.9706363963363827e-06 0.0000000000000000e+00 1.9706363963363827e-06 1.3685177400423922e-05 0.0000000000000000e+00 0.0000000000000000e+00 0.0000000000000000e+00 0.0000000000000000e+00  1.2287966304216146e-05 2.3495509021932716e-06 0.0000000000000000e+00 2.3495509021932716e-06 1.2916343705424976e-05 0.0000000000000000e+00 0.0000000000000000e+00 0.0000000000000000e+00 0.0000000000000000e+00  1.1668555994237947e-05 4.0110872319357499e-06 0.0000000000000000e+00 4.0110872319357499e-06 9.7185983374711331e-06 0.0000000000000000e+00 0.0000000000000000e+00 0.0000000000000000e+00 0.0000000000000000e+00  1.2312696828362294e-05 2.8211596196638116e-06 0.0000000000000000e+00 2.8211596196638116e-06 7.4189529924828505e-06 0.0000000000000000e+00 0.0000000000000000e+00 0.0000000000000000e+00 0.0000000000000000e+00  1.2362363350510242e-05 1.2965529011490998e-06 0.0000000000000000e+00 1.2965529011490998e-06 6.3310977839195444e-06 0.0000000000000000e+00 0.0000000000000000e+00 0.0000000000000000e+00 0.0000000000000000e+00  1.1913077158538852e-05 8.0733802758509064e-09 0.0000000000000000e+00 8.0733802758509064e-09 6.3405457394126767e-06 0.0000000000000000e+00 0.0000000000000000e+00 0.0000000000000000e+00 0.0000000000000000e+00  1.1268046406020641e-05 -7.0760128902987371e-07 0.0000000000000000e+00 -7.0760128902987371e-07 6.9697723559538348e-06 0.0000000000000000e+00 0.0000000000000000e+00 0.0000000000000000e+00 0.0000000000000000e+00  1.0788446962152405e-05 -8.4477525836351052e-07 0.0000000000000000e+00 -8.4477525836351052e-07 7.6500991719912465e-06 0.0000000000000000e+00 0.0000000000000000e+00 0.0000000000000000e+00 0.0000000000000000e+00  1.0708556304021743e-05 -6.8819088297574743e-07 0.0000000000000000e+00 -6.8819088297574743e-07 7.9810256392031514e-06 0.0000000000000000e+00 0.0000000000000000e+00 0.0000000000000000e+00 0.0000000000000000e+00  1.1031350488992186e-05 -6.2725651452890932e-07 0.0000000000000000e+00 -6.2725651452890932e-07 7.9060162378372401e-06 0.0000000000000000e+00 0.0000000000000000e+00 0.0000000000000000e+00 0.0000000000000000e+00  1.1542218880691365e-05 -9.4724838260583033e-07 0.0000000000000000e+00 -9.4724838260583033e-07 7.7051676058409983e-06 0.0000000000000000e+00 0.0000000000000000e+00 0.0000000000000000e+00 0.0000000000000000e+00  1.1920614601011024e-05 -1.6677328441384525e-06 0.0000000000000000e+00 -1.6677328441384525e-06 7.7997523982314507e-06 0.0000000000000000e+00 0.0000000000000000e+00 0.0000000000000000e+00 0.0000000000000000e+00  1.1930053788989455e-05 -2.5374516736161785e-06 0.0000000000000000e+00 -2.5374516736161785e-06 8.5075948055305571e-06 0.0000000000000000e+00 0.0000000000000000e+00 0.0000000000000000e+00 0.0000000000000000e+00  1.1534046028967504e-05 -3.1793551615793035e-06 0.0000000000000000e+00 -3.1793551615793035e-06 9.8442586273188603e-06 0.0000000000000000e+00 0.0000000000000000e+00 0.0000000000000000e+00 0.0000000000000000e+00  1.0908366549533312e-05 -3.2908330232846106e-06 0.0000000000000000e+00 -3.2908330232846106e-06 1.1503382663880658e-05 0.0000000000000000e+00 0.0000000000000000e+00 0.0000000000000000e+00 0.0000000000000000e+00  1.0348536477302760e-05 -2.8032774544241620e-06 0.0000000000000000e+00 -2.8032774544241620e-06 1.3019162944656352e-05 0.0000000000000000e+00 0.0000000000000000e+00 0.0000000000000000e+00 0.0000000000000000e+00  1.0098903542390523e-05 -1.9063963173251598e-06 0.0000000000000000e+00 -1.9063963173251598e-06 1.3984431796505481e-05 0.0000000000000000e+00 0.0000000000000000e+00 0.0000000000000000e+00 0.0000000000000000e+00  1.0250299241370300e-05 -9.3048392551195587e-07 0.0000000000000000e+00 -9.3048392551195587e-07 1.4238996227004379e-05 0.0000000000000000e+00 0.0000000000000000e+00 0.0000000000000000e+00 0.0000000000000000e+00  1.0716609626323588e-05 -1.9046259387288377e-07 0.0000000000000000e+00 -1.9046259387288377e-07 1.3901274447218657e-05 0.0000000000000000e+00 0.0000000000000000e+00 0.0000000000000000e+00 0.0000000000000000e+00  1.1302347699555233e-05 1.5052223636255738e-07 0.0000000000000000e+00 1.5052223636255738e-07 1.3261284882984592e-05 0.0000000000000000e+00 0.0000000000000000e+00 0.0000000000000000e+00 0.0000000000000000e+00  1.1815418608646745e-05 1.0284947213570470e-07 0.0000000000000000e+00 1.0284947213570470e-07 1.2636244232841879e-05 0.0000000000000000e+00 0.0000000000000000e+00 0.0000000000000000e+00 0.0000000000000000e+00  1.2134321540864788e-05 -2.0212661658438696e-07 0.0000000000000000e+00 -2.0212661658438696e-07 1.2242028550058482e-05 0.0000000000000000e+00 0.0000000000000000e+00 0.0000000000000000e+00 0.0000000000000000e+00  1.2230403584487944e-05 -5.9313715087412441e-07 0.0000000000000000e+00 -5.9313715087412441e-07 1.2159938821606010e-05 0.0000000000000000e+00 0.0000000000000000e+00 0.0000000000000000e+00 0.0000000000000000e+00  1.2147273236618070e-05 -9.3162438758027332e-07 0.0000000000000000e+00 -9.3162438758027332e-07 1.2359456629334655e-05 0.0000000000000000e+00 0.0000000000000000e+00 0.0000000000000000e+00 0.0000000000000000e+00  1.1956577720651758e-05 -1.1336332260345287e-06 0.0000000000000000e+00 -1.1336332260345287e-06 1.2748120322882357e-05 0.0000000000000000e+00 0.0000000000000000e+00 0.0000000000000000e+00 0.0000000000000000e+00  1.1731791595191496e-05 -1.1739314877337261e-06 0.0000000000000000e+00 -1.1739314877337261e-06 1.3221479819159681e-05 0.0000000000000000e+00 0.0000000000000000e+00 0.0000000000000000e+00 0.0000000000000000e+00  1.1525880904218447e-05 -1.0645526508359077e-06 0.0000000000000000e+00 -1.0645526508359077e-06 1.3689368955510116e-05 0.0000000000000000e+00 0.0000000000000000e+00 0.0000000000000000e+00 0.0000000000000000e+00  1.1369917169680910e-05 -8.3758461971708807e-07 0.0000000000000000e+00 -8.3758461971708807e-07 1.4088935948347773e-05 0.0000000000000000e+00 0.0000000000000000e+00 0.0000000000000000e+00 0.0000000000000000e+00  1.1275200906282451e-05 -5.2889174071315868e-07 0.0000000000000000e+00 -5.2889174071315868e-07 1.4382507782092452e-05 0.0000000000000000e+00 0.0000000000000000e+00 0.0000000000000000e+00 0.0000000000000000e+00  1.1240779402362822e-05 -1.7001826866821508e-07 0.0000000000000000e+00 -1.7001826866821508e-07 1.4551458124814033e-05 0.0000000000000000e+00 0.0000000000000000e+00 0.0000000000000000e+00 0.0000000000000000e+00  1.1259833133749107e-05 2.1526198576660954e-07 0.0000000000000000e+00 2.1526198576660954e-07 1.4588067882567682e-05 0.0000000000000000e+00 0.0000000000000000e+00 0.0000000000000000e+00 0.0000000000000000e+00  1.1324895211474063e-05 6.1050742316207240e-07 0.0000000000000000e+00 6.1050742316207240e-07 1.4488845851864268e-05 0.0000000000000000e+00 0.0000000000000000e+00 0.0000000000000000e+00 0.0000000000000000e+00  1.1431094694461822e-05 1.0042876578848353e-06 0.0000000000000000e+00 1.0042876578848353e-06 1.4249656424388279e-05 0.0000000000000000e+00 0.0000000000000000e+00 0.0000000000000000e+00 0.0000000000000000e+00  1.1577843412621150e-05 1.3868713993942938e-06 0.0000000000000000e+00 1.3868713993942938e-06 1.3862840156266764e-05 0.0000000000000000e+00 0.0000000000000000e+00 0.0000000000000000e+00 0.0000000000000000e+00  1.1769218383292358e-05 1.7464542407403374e-06 0.0000000000000000e+00 1.7464542407403374e-06 1.3316091844511626e-05 0.0000000000000000e+00 0.0000000000000000e+00 0.0000000000000000e+00 0.0000000000000000e+00  1.2013038703246735e-05 2.0654869418782596e-06 0.0000000000000000e+00 2.0654869418782596e-06 1.2593193739520552e-05 0.0000000000000000e+00 0.0000000000000000e+00 0.0000000000000000e+00 0.0000000000000000e+00  1.1775731275410423e-05 3.2427422627589111e-06 0.0000000000000000e+00 3.2427422627589111e-06 1.0378076183433964e-05 0.0000000000000000e+00 0.0000000000000000e+00 0.0000000000000000e+00 0.0000000000000000e+00  1.2284994768176013e-05 2.4708393663898414e-06 0.0000000000000000e+00 2.4708393663898414e-06 8.6263722268936307e-06 0.0000000000000000e+00 0.0000000000000000e+00 0.0000000000000000e+00 0.0000000000000000e+00  1.2432849929446935e-05 1.4313834185791452e-06 0.0000000000000000e+00 1.4313834185791452e-06 7.5987964976118173e-06 0.0000000000000000e+00 0.0000000000000000e+00 0.0000000000000000e+00 0.0000000000000000e+00  1.2252593570275133e-05 4.6106073219008640e-07 0.0000000000000000e+00 4.6106073219008640e-07 7.2783649143732993e-06 0.0000000000000000e+00 0.0000000000000000e+00 0.0000000000000000e+00 0.0000000000000000e+00  1.1911900678379108e-05 -2.2101333316721263e-07 0.0000000000000000e+00 -2.2101333316721263e-07 7.4281937901421779e-06 0.0000000000000000e+00 0.0000000000000000e+00 0.0000000000000000e+00 0.0000000000000000e+00  1.1616765127782829e-05 -5.8310915718345309e-07 0.0000000000000000e+00 -5.8310915718345309e-07 7.7361025607455274e-06 0.0000000000000000e+00 0.0000000000000000e+00 0.0000000000000000e+00 0.0000000000000000e+00  1.1509285417449706e-05 -7.5611113877067580e-07 0.0000000000000000e+00 -7.5611113877067580e-07 7.9719102454739053e-06 0.0000000000000000e+00 0.0000000000000000e+00 0.0000000000000000e+00 0.0000000000000000e+00  1.1603454405452077e-05 -9.3945795910686022e-07 0.0000000000000000e+00 -9.3945795910686022e-07 8.0830361532546762e-06 0.0000000000000000e+00 0.0000000000000000e+00 0.0000000000000000e+00 0.0000000000000000e+00  1.1788645397564340e-05 -1.2793148055254552e-06 0.0000000000000000e+00 -1.2793148055254552e-06 8.1916388792942268e-06 0.0000000000000000e+00 0.0000000000000000e+00 0.0000000000000000e+00 0.0000000000000000e+00  1.1899542435455390e-05 -1.7857833618702076e-06 0.0000000000000000e+00 -1.7857833618702076e-06 8.5010189343308476e-06 0.0000000000000000e+00 0.0000000000000000e+00 0.0000000000000000e+00 0.0000000000000000e+00  1.1808441350586814e-05 -2.3270362174977999e-06 0.0000000000000000e+00 -2.3270362174977999e-06 9.1593405263777000e-06 0.0000000000000000e+00 0.0000000000000000e+00 0.0000000000000000e+00 0.0000000000000000e+00  1.1496975433048925e-05 -2.7015837500354270e-06 0.0000000000000000e+00 -2.7015837500354270e-06 1.0160885794258077e-05 0.0000000000000000e+00 0.0000000000000000e+00 0.0000000000000000e+00 0.0000000000000000e+00  1.1065336265296832e-05 -2.7477531652961126e-06 0.0000000000000000e+00 -2.7477531652961126e-06 1.1332940173714520e-05 0.0000000000000000e+00 0.0000000000000000e+00 0.0000000000000000e+00 0.0000000000000000e+00  1.0677394163499631e-05 -2.4275931285597947e-06 0.0000000000000000e+00 -2.4275931285597947e-06 1.2411245682786400e-05 0.0000000000000000e+00 0.0000000000000000e+00 0.0000000000000000e+00 0.0000000000000000e+00  1.0480084595893416e-05 -1.8434409746218213e-06 0.0000000000000000e+00 -1.8434409746218213e-06 1.3162172409124600e-05 0.0000000000000000e+00 0.0000000000000000e+00 0.0000000000000000e+00 0.0000000000000000e+00  1.0535427740827004e-05 -1.1856685455173189e-06 0.0000000000000000e+00 -1.1856685455173189e-06 1.3478328319430872e-05 0.0000000000000000e+00 0.0000000000000000e+00 0.0000000000000000e+00 0.0000000000000000e+00  1.0804258317625552e-05 -6.4341177893997386e-07 0.0000000000000000e+00 -6.4341177893997386e-07 1.3406589690665049e-05 0.0000000000000000e+00 0.0000000000000000e+00 0.0000000000000000e+00 0.0000000000000000e+00  1.1178878680567326e-05 -3.3352845465283079e-07 0.0000000000000000e+00 -3.3352845465283079e-07 1.3104716045175546e-05 0.0000000000000000e+00 0.0000000000000000e+00 0.0000000000000000e+00 0.0000000000000000e+00  1.1537087218451994e-05 -2.7306091352021197e-07 0.0000000000000000e+00 -2.7306091352021197e-07 1.2760124616635019e-05 0.0000000000000000e+00 0.0000000000000000e+00 0.0000000000000000e+00 0.0000000000000000e+00  1.1789787035811451e-05 -3.9929405406949483e-07 0.0000000000000000e+00 -3.9929405406949483e-07 1.2521269332069364e-05 0.0000000000000000e+00 0.0000000000000000e+00 0.0000000000000000e+00 0.0000000000000000e+00  1.1900590471406648e-05 -6.1329260177513993e-07 0.0000000000000000e+00 -6.1329260177513993e-07 1.2462479101086359e-05 0.0000000000000000e+00 0.0000000000000000e+00 0.0000000000000000e+00 0.0000000000000000e+00  1.1880001253832136e-05 -8.1975020221196085e-07 0.0000000000000000e+00 -8.1975020221196085e-07 1.2586854046568729e-05 0.0000000000000000e+00 0.0000000000000000e+00 0.0000000000000000e+00 0.0000000000000000e+00  1.1767211254320594e-05 -9.5221954553823113e-07 0.0000000000000000e+00 -9.5221954553823113e-07 1.2850014596901752e-05 0.0000000000000000e+00 0.0000000000000000e+00 0.0000000000000000e+00 0.0000000000000000e+00  1.1609046888145651e-05 -9.7818118175860634e-07 0.0000000000000000e+00 -9.7818118175860634e-07 1.3187266201598234e-05 0.0000000000000000e+00 0.0000000000000000e+00 0.0000000000000000e+00 0.0000000000000000e+00  1.1446710692200401e-05 -8.9385865820577764e-07 0.0000000000000000e+00 -8.9385865820577764e-07 1.3535039824347580e-05 0.0000000000000000e+00 0.0000000000000000e+00 0.0000000000000000e+00 0.0000000000000000e+00  1.1308884298000029e-05 -7.1324356624600470e-07 0.0000000000000000e+00 -7.1324356624600470e-07 1.3841853909770740e-05 0.0000000000000000e+00 0.0000000000000000e+00 0.0000000000000000e+00 0.0000000000000000e+00  1.1211619885960011e-05 -4.5836824254187035e-07 0.0000000000000000e+00 -4.5836824254187035e-07 1.4071628871212176e-05 0.0000000000000000e+00 0.0000000000000000e+00 0.0000000000000000e+00 0.0000000000000000e+00  1.1161074580647129e-05 -1.5218624912123399e-07 0.0000000000000000e+00 -1.5218624912123399e-07 1.4201637061300336e-05 0.0000000000000000e+00 0.0000000000000000e+00 0.0000000000000000e+00 0.0000000000000000e+00  1.1157507497713130e-05 1.8503538607276110e-07 0.0000000000000000e+00 1.8503538607276110e-07 1.4218470762007195e-05 0.0000000000000000e+00 0.0000000000000000e+00 0.0000000000000000e+00 0.0000000000000000e+00  1.1198852886234632e-05 5.3667136377002756e-07 0.0000000000000000e+00 5.3667136377002756e-07 1.4113747139001068e-05 0.0000000000000000e+00 0.0000000000000000e+00 0.0000000000000000e+00 0.0000000000000000e+00  1.1283367260375047e-05 8.8882241805218493e-07 0.0000000000000000e+00 8.8882241805218493e-07 1.3880687981974473e-05 0.0000000000000000e+00 0.0000000000000000e+00 0.0000000000000000e+00 0.0000000000000000e+00  1.1411138707403632e-05 1.2283030330460208e-06 0.0000000000000000e+00 1.2283030330460208e-06 1.3511963881676772e-05 0.0000000000000000e+00 0.0000000000000000e+00 0.0000000000000000e+00 0.0000000000000000e+00  1.1584477960443458e-05 1.5400216754199463e-06 0.0000000000000000e+00 1.5400216754199463e-06 1.2998976605300642e-05 0.0000000000000000e+00 0.0000000000000000e+00 0.0000000000000000e+00 0.0000000000000000e+00  1.1807182501130867e-05 1.8044549159546954e-06 0.0000000000000000e+00 1.8044549159546954e-06 1.2332691148209307e-05 0.0000000000000000e+00 0.0000000000000000e+00 0.0000000000000000e+00 0.0000000000000000e+00  1.1869378258363978e-05 2.6680983039067227e-06 0.0000000000000000e+00 2.6680983039067227e-06 1.0813706195795783e-05 0.0000000000000000e+00 0.0000000000000000e+00 0.0000000000000000e+00 0.0000000000000000e+00  1.2284221367332152e-05 2.1435907906918882e-06 0.0000000000000000e+00 2.1435907906918882e-06 9.4369792191043948e-06 0.0000000000000000e+00 0.0000000000000000e+00 0.0000000000000000e+00 0.0000000000000000e+00  1.2475447723611064e-05 1.4099445181626358e-06 0.0000000000000000e+00 1.4099445181626358e-06 8.5087325455012099e-06 0.0000000000000000e+00 0.0000000000000000e+00 0.0000000000000000e+00 0.0000000000000000e+00  1.2448321022167967e-05 6.6401267736737423e-07 0.0000000000000000e+00 6.6401267736737423e-07 8.0499694383898515e-06 0.0000000000000000e+00 0.0000000000000000e+00 0.0000000000000000e+00 0.0000000000000000e+00  1.2289081434527863e-05 4.7602887631089937e-08 0.0000000000000000e+00 4.7602887631089937e-08 7.9495877274690328e-06 0.0000000000000000e+00 0.0000000000000000e+00 0.0000000000000000e+00 0.0000000000000000e+00  1.2113165166477574e-05 -3.9789857942417373e-07 0.0000000000000000e+00 -3.9789857942417373e-07 8.0423402829227724e-06 0.0000000000000000e+00 0.0000000000000000e+00 0.0000000000000000e+00 0.0000000000000000e+00  1.2005287515868948e-05 -7.2350225451599771e-07 0.0000000000000000e+00 -7.2350225451599771e-07 8.1954865293871231e-06 0.0000000000000000e+00 0.0000000000000000e+00 0.0000000000000000e+00 0.0000000000000000e+00  1.1982217111187244e-05 -1.0220560634460125e-06 0.0000000000000000e+00 -1.0220560634460125e-06 8.3643023028359688e-06 0.0000000000000000e+00 0.0000000000000000e+00 0.0000000000000000e+00 0.0000000000000000e+00  1.1993511438667006e-05 -1.3640652701382517e-06 0.0000000000000000e+00 -1.3640652701382517e-06 8.5941365095854071e-06 0.0000000000000000e+00 0.0000000000000000e+00 0.0000000000000000e+00 0.0000000000000000e+00  1.1956971924237056e-05 -1.7518674062893535e-06 0.0000000000000000e+00 -1.7518674062893535e-06 8.9726182502881888e-06 0.0000000000000000e+00 0.0000000000000000e+00 0.0000000000000000e+00 0.0000000000000000e+00  1.1809619900559080e-05 -2.1152305012588030e-06 0.0000000000000000e+00 -2.1152305012588030e-06 9.5609925995824617e-06 0.0000000000000000e+00 0.0000000000000000e+00 0.0000000000000000e+00 0.0000000000000000e+00  1.1545739329715574e-05 -2.3483736032484258e-06 0.0000000000000000e+00 -2.3483736032484258e-06 1.0341697901317847e-05 0.0000000000000000e+00 0.0000000000000000e+00 0.0000000000000000e+00 0.0000000000000000e+00  1.1223146745878906e-05 -2.3665740435851031e-06 0.0000000000000000e+00 -2.3665740435851031e-06 1.1210338228086813e-05 0.0000000000000000e+00 0.0000000000000000e+00 0.0000000000000000e+00 0.0000000000000000e+00  1.0936156197686895e-05 -2.1516232976166116e-06 0.0000000000000000e+00 -2.1516232976166116e-06 1.2014506913528947e-05 0.0000000000000000e+00 0.0000000000000000e+00 0.0000000000000000e+00 0.0000000000000000e+00  1.0770921755240927e-05 -1.7629882699078107e-06 0.0000000000000000e+00 -1.7629882699078107e-06 1.2616203357475925e-05 0.0000000000000000e+00 0.0000000000000000e+00 0.0000000000000000e+00 0.0000000000000000e+00  1.0768413708190141e-05 -1.3116092916085896e-06 0.0000000000000000e+00 -1.3116092916085896e-06 1.2945365587459815e-05 0.0000000000000000e+00 0.0000000000000000e+00 0.0000000000000000e+00 0.0000000000000000e+00  1.0911557386292679e-05 -9.1385932806274365e-07 0.0000000000000000e+00 -9.1385932806274365e-07 1.3018884551558722e-05 0.0000000000000000e+00 0.0000000000000000e+00 0.0000000000000000e+00 0.0000000000000000e+00  1.1139257223205622e-05 -6.4941817731160855e-07 0.0000000000000000e+00 -6.4941817731160855e-07 1.2921626630133759e-05 0.0000000000000000e+00 0.0000000000000000e+00 0.0000000000000000e+00 0.0000000000000000e+00  1.1375737575887358e-05 -5.4179495694579748e-07 0.0000000000000000e+00 -5.4179495694579748e-07 1.2765485302748075e-05 0.0000000000000000e+00 0.0000000000000000e+00 0.0000000000000000e+00 0.0000000000000000e+00  1.1558421723646544e-05 -5.6380561059236733e-07 0.0000000000000000e+00 -5.6380561059236733e-07 1.2648173621864278e-05 0.0000000000000000e+00 0.0000000000000000e+00 0.0000000000000000e+00 0.0000000000000000e+00  1.1653727723013768e-05 -6.5888783927157760e-07 0.0000000000000000e+00 -6.5888783927157760e-07 1.2628607902020997e-05 0.0000000000000000e+00 0.0000000000000000e+00 0.0000000000000000e+00 0.0000000000000000e+00  1.1658430251453506e-05 -7.6532800124273120e-07 0.0000000000000000e+00 -7.6532800124273120e-07 1.2722006176446119e-05 0.0000000000000000e+00 0.0000000000000000e+00 0.0000000000000000e+00 0.0000000000000000e+00  1.1591094644476712e-05 -8.3345716013861913e-07 0.0000000000000000e+00 -8.3345716013861913e-07 1.2909375880625653e-05 0.0000000000000000e+00 0.0000000000000000e+00 0.0000000000000000e+00 0.0000000000000000e+00  1.1480608702171184e-05 -8.3340649276784646e-07 0.0000000000000000e+00 -8.3340649276784646e-07 1.3152671288519542e-05 0.0000000000000000e+00 0.0000000000000000e+00 0.0000000000000000e+00 0.0000000000000000e+00  1.1356225249008018e-05 -7.5454483522876776e-07 0.0000000000000000e+00 -7.5454483522876776e-07 1.3408540477854616e-05 0.0000000000000000e+00 0.0000000000000000e+00 0.0000000000000000e+00 0.0000000000000000e+00  1.1241748534449866e-05 -6.0071785205788251e-07 0.0000000000000000e+00 -6.0071785205788251e-07 1.3637586804707010e-05 0.0000000000000000e+00 0.0000000000000000e+00 0.0000000000000000e+00 0.0000000000000000e+00  1.1153417272283666e-05 -3.8426939477241259e-07 0.0000000000000000e+00 -3.8426939477241259e-07 1.3808576716089400e-05 0.0000000000000000e+00 0.0000000000000000e+00 0.0000000000000000e+00 0.0000000000000000e+00  1.1100544963401303e-05 -1.2110105901206818e-07 0.0000000000000000e+00 -1.2110105901206818e-07 1.3898975479438339e-05 0.0000000000000000e+00 0.0000000000000000e+00 0.0000000000000000e+00 0.0000000000000000e+00  1.1087440974607779e-05 1.7250716016054146e-07 0.0000000000000000e+00 1.7250716016054146e-07 1.3893349889068831e-05 0.0000000000000000e+00 0.0000000000000000e+00 0.0000000000000000e+00 0.0000000000000000e+00  1.1115622982796687e-05 4.8125625864155132e-07 0.0000000000000000e+00 4.8125625864155132e-07 1.3781062683314388e-05 0.0000000000000000e+00 0.0000000000000000e+00 0.0000000000000000e+00 0.0000000000000000e+00  1.1185645744471406e-05 7.9075994528989574e-07 0.0000000000000000e+00 7.9075994528989574e-07 1.3554164688155280e-05 0.0000000000000000e+00 0.0000000000000000e+00 0.0000000000000000e+00 0.0000000000000000e+00  1.1298229310736980e-05 1.0864981006082410e-06 0.0000000000000000e+00 1.0864981006082410e-06 1.3206033483810441e-05 0.0000000000000000e+00 0.0000000000000000e+00 0.0000000000000000e+00 0.0000000000000000e+00  1.1454530130198434e-05 1.3522107688693919e-06 0.0000000000000000e+00 1.3522107688693919e-06 1.2731058722172226e-05 0.0000000000000000e+00 0.0000000000000000e+00 0.0000000000000000e+00 0.0000000000000000e+00  1.1655567892121755e-05 1.5684060508685916e-06 0.0000000000000000e+00 1.5684060508685916e-06 1.2125477898167598e-05 0.0000000000000000e+00 0.0000000000000000e+00 0.0000000000000000e+00 0.0000000000000000e+00  1.1952708405114898e-05 2.2190166002517953e-06 0.0000000000000000e+00 2.2190166002517953e-06 1.1117918747877913e-05 0.0000000000000000e+00 0.0000000000000000e+00 0.0000000000000000e+00 0.0000000000000000e+00  1.2298306010019677e-05 1.8461736989925721e-06 0.0000000000000000e+00 1.8461736989925721e-06 1.0003303984534068e-05 0.0000000000000000e+00 0.0000000000000000e+00 0.0000000000000000e+00 0.0000000000000000e+00  1.2500554903962073e-05 1.3092755100627406e-06 0.0000000000000000e+00 1.3092755100627406e-06 9.1821141099587642e-06 0.0000000000000000e+00 0.0000000000000000e+00 0.0000000000000000e+00 0.0000000000000000e+00  1.2553054969199399e-05 7.2455508738120828e-07 0.0000000000000000e+00 7.2455508738120828e-07 8.6846167712833060e-06 0.0000000000000000e+00 0.0000000000000000e+00 0.0000000000000000e+00 0.0000000000000000e+00  1.2497467291007888e-05 1.8490690752422312e-07 0.0000000000000000e+00 1.8490690752422312e-07 8.4639259319895951e-06 0.0000000000000000e+00 0.0000000000000000e+00 0.0000000000000000e+00 0.0000000000000000e+00  1.2396374690683497e-05 -2.6899944296968705e-07 0.0000000000000000e+00 -2.6899944296968705e-07 8.4349109656334978e-06 0.0000000000000000e+00 0.0000000000000000e+00 0.0000000000000000e+00 0.0000000000000000e+00  1.2299955510906987e-05 -6.4770187971593014e-07 0.0000000000000000e+00 -6.4770187971593014e-07 8.5214494042483004e-06 0.0000000000000000e+00 0.0000000000000000e+00 0.0000000000000000e+00 0.0000000000000000e+00  1.2224175977617493e-05 -9.8793377009658441e-07 0.0000000000000000e+00 -9.8793377009658441e-07 8.6881047216992049e-06 0.0000000000000000e+00 0.0000000000000000e+00 0.0000000000000000e+00 0.0000000000000000e+00  1.2149599199322855e-05 -1.3188025918553209e-06 0.0000000000000000e+00 -1.3188025918553209e-06 8.9436998395878641e-06 0.0000000000000000e+00 0.0000000000000000e+00 0.0000000000000000e+00 0.0000000000000000e+00  1.2039498862746371e-05 -1.6372577055832016e-06 0.0000000000000000e+00 -1.6372577055832016e-06 9.3185295402143186e-06 0.0000000000000000e+00 0.0000000000000000e+00 0.0000000000000000e+00 0.0000000000000000e+00  1.1866343353494301e-05 -1.9048280805853351e-06 0.0000000000000000e+00 -1.9048280805853351e-06 9.8296789707881352e-06 0.0000000000000000e+00 0.0000000000000000e+00 0.0000000000000000e+00 0.0000000000000000e+00  1.1632317978539271e-05 -2.0661197525587526e-06 0.0000000000000000e+00 -2.0661197525587526e-06 1.0454296218576935e-05 0.0000000000000000e+00 0.0000000000000000e+00 0.0000000000000000e+00 0.0000000000000000e+00  1.1373204827883922e-05 -2.0781420591455438e-06 0.0000000000000000e+00 -2.0781420591455438e-06 1.1125169793482882e-05 0.0000000000000000e+00 0.0000000000000000e+00 0.0000000000000000e+00 0.0000000000000000e+00  1.1144370843945809e-05 -1.9344288787048246e-06 0.0000000000000000e+00 -1.9344288787048246e-06 1.1750444386681895e-05 0.0000000000000000e+00 0.0000000000000000e+00 0.0000000000000000e+00 0.0000000000000000e+00  1.0997125463466181e-05 -1.6717430336018615e-06 0.0000000000000000e+00 -1.6717430336018615e-06 1.2246615114997326e-05 0.0000000000000000e+00 0.0000000000000000e+00 0.0000000000000000e+00 0.0000000000000000e+00  1.0957710200444493e-05 -1.3571428701121050e-06 0.0000000000000000e+00 -1.3571428701121050e-06 1.2567769627065486e-05 0.0000000000000000e+00 0.0000000000000000e+00 0.0000000000000000e+00 0.0000000000000000e+00  1.1018740716147457e-05 -1.0631610789517816e-06 0.0000000000000000e+00 -1.0631610789517816e-06 1.2717899649641175e-05 0.0000000000000000e+00 0.0000000000000000e+00 0.0000000000000000e+00 0.0000000000000000e+00  1.1145213470712638e-05 -8.4374826591966605e-07 0.0000000000000000e+00 -8.4374826591966605e-07 1.2742979171480439e-05 0.0000000000000000e+00 0.0000000000000000e+00 0.0000000000000000e+00 0.0000000000000000e+00  1.1289949235854704e-05 -7.2080434155594004e-07 0.0000000000000000e+00 -7.2080434155594004e-07 1.2709473675182880e-05 0.0000000000000000e+00 0.0000000000000000e+00 0.0000000000000000e+00 0.0000000000000000e+00  1.1410237464391235e-05 -6.8442495514488007e-07 0.0000000000000000e+00 -6.8442495514488007e-07 1.2680633121756070e-05 0.0000000000000000e+00 0.0000000000000000e+00 0.0000000000000000e+00 0.0000000000000000e+00  1.1478963205408278e-05 -7.0323163286848487e-07 0.0000000000000000e+00 -7.0323163286848487e-07 1.2699685260127762e-05 0.0000000000000000e+00 0.0000000000000000e+00 0.0000000000000000e+00 0.0000000000000000e+00  1.1487857664226266e-05 -7.3817686126417095e-07 0.0000000000000000e+00 -7.3817686126417095e-07 1.2783692598798194e-05 0.0000000000000000e+00 0.0000000000000000e+00 0.0000000000000000e+00 0.0000000000000000e+00  1.1444364114771267e-05 -7.5422036476374238e-07 0.0000000000000000e+00 -7.5422036476374238e-07 1.2926436439257384e-05 0.0000000000000000e+00 0.0000000000000000e+00 0.0000000000000000e+00 0.0000000000000000e+00  1.1365331202587136e-05 -7.2698630996168042e-07 0.0000000000000000e+00 -7.2698630996168042e-07 1.3106160562393389e-05 0.0000000000000000e+00 0.0000000000000000e+00 0.0000000000000000e+00 0.0000000000000000e+00  1.1270674709265426e-05 -6.4450345431255163e-07 0.0000000000000000e+00 -6.4450345431255163e-07 1.3294104282726457e-05 0.0000000000000000e+00 0.0000000000000000e+00 0.0000000000000000e+00 0.0000000000000000e+00  1.1178738344295450e-05 -5.0552101348176699e-07 0.0000000000000000e+00 -5.0552101348176699e-07 1.3461200979832129e-05 0.0000000000000000e+00 0.0000000000000000e+00 0.0000000000000000e+00 0.0000000000000000e+00  1.1103917819355219e-05 -3.1635545615788508e-07 0.0000000000000000e+00 -3.1635545615788508e-07 1.3582070257167019e-05 0.0000000000000000e+00 0.0000000000000000e+00 0.0000000000000000e+00 0.0000000000000000e+00  1.1056148572580271e-05 -8.7702246536617321e-08 0.0000000000000000e+00 -8.7702246536617321e-08 1.3636537496658150e-05 0.0000000000000000e+00 0.0000000000000000e+00 0.0000000000000000e+00 0.0000000000000000e+00  1.1041576597740655e-05 1.6774852910098585e-07 0.0000000000000000e+00 1.6774852910098585e-07 1.3609488585950045e-05 0.0000000000000000e+00 0.0000000000000000e+00 0.0000000000000000e+00 0.0000000000000000e+00  1.1063703737855972e-05 4.3663702036937928e-07 0.0000000000000000e+00 4.3663702036937928e-07 1.3489910579148783e-05 0.0000000000000000e+00 0.0000000000000000e+00 0.0000000000000000e+00 0.0000000000000000e+00  1.1124485672872596e-05 7.0527568415682237e-07 0.0000000000000000e+00 7.0527568415682237e-07 1.3269823542726116e-05 0.0000000000000000e+00 0.0000000000000000e+00 0.0000000000000000e+00 0.0000000000000000e+00  1.1225039920727206e-05 9.5925656127717093e-07 0.0000000000000000e+00 9.5925656127717093e-07 1.2943591916702960e-05 0.0000000000000000e+00 0.0000000000000000e+00 0.0000000000000000e+00 0.0000000000000000e+00  1.1365763113728364e-05 1.1826284599387843e-06 0.0000000000000000e+00 1.1826284599387843e-06 1.2507934643964378e-05 0.0000000000000000e+00 0.0000000000000000e+00 0.0000000000000000e+00 0.0000000000000000e+00  1.1545892396188013e-05 1.3572195299304692e-06 0.0000000000000000e+00 1.3572195299304692e-06 1.1962693235840269e-05 0.0000000000000000e+00 0.0000000000000000e+00 0.0000000000000000e+00 0.0000000000000000e+00  1.2022267701383597e-05 1.8552328964432586e-06 0.0000000000000000e+00 1.8552328964432586e-06 1.1339051993925164e-05 0.0000000000000000e+00 0.0000000000000000e+00 0.0000000000000000e+00 0.0000000000000000e+00  1.2314765200473668e-05 1.5805758128083833e-06 0.0000000000000000e+00 1.5805758128083833e-06 1.0414810702391753e-05 0.0000000000000000e+00 0.0000000000000000e+00 0.0000000000000000e+00 0.0000000000000000e+00  1.2510631687858082e-05 1.1749723189763502e-06 0.0000000000000000e+00 1.1749723189763502e-06 9.6947033427758993e-06 0.0000000000000000e+00 0.0000000000000000e+00 0.0000000000000000e+00 0.0000000000000000e+00  1.2599829788752168e-05 7.0918049629470246e-07 0.0000000000000000e+00 7.0918049629470246e-07 9.2075593680796555e-06 0.0000000000000000e+00 0.0000000000000000e+00 0.0000000000000000e+00 0.0000000000000000e+00  1.2600477626617347e-05 2.4546800161913083e-07 0.0000000000000000e+00 2.4546800161913083e-07 8.9374183379768010e-06 0.0000000000000000e+00 0.0000000000000000e+00 0.0000000000000000e+00 0.0000000000000000e+00  1.2545447608384647e-05 -1.8011028255468112e-07 0.0000000000000000e+00 -1.8011028255468112e-07 8.8420316921409696e-06 0.0000000000000000e+00 0.0000000000000000e+00 0.0000000000000000e+00 0.0000000000000000e+00  1.2464234794662433e-05 -5.5951963148992667e-07 0.0000000000000000e+00 -5.5951963148992667e-07 8.8778206563291201e-06 0.0000000000000000e+00 0.0000000000000000e+00 0.0000000000000000e+00 0.0000000000000000e+00  1.2370355758185396e-05 -9.0101930773449528e-07 0.0000000000000000e+00 -9.0101930773449528e-07 9.0178335126437017e-06 0.0000000000000000e+00 0.0000000000000000e+00 0.0000000000000000e+00 0.0000000000000000e+00  1.2259631508286123e-05 -1.2120116042367668e-06 0.0000000000000000e+00 -1.2120116042367668e-06 9.2553380489348365e-06 0.0000000000000000e+00 0.0000000000000000e+00 0.0000000000000000e+00 0.0000000000000000e+00  1.2118877735761292e-05 -1.4860889112921922e-06 0.0000000000000000e+00 -1.4860889112921922e-06 9.5935037818392222e-06 0.0000000000000000e+00 0.0000000000000000e+00 0.0000000000000000e+00 0.0000000000000000e+00  1.1939424272901827e-05 -1.7008819610359305e-06 0.0000000000000000e+00 -1.7008819610359305e-06 1.0028547873537534e-05 0.0000000000000000e+00 0.0000000000000000e+00 0.0000000000000000e+00 0.0000000000000000e+00  1.1727787789431560e-05 -1.8272026506948054e-06 0.0000000000000000e+00 -1.8272026506948054e-06 1.0536472711354437e-05 0.0000000000000000e+00 0.0000000000000000e+00 0.0000000000000000e+00 0.0000000000000000e+00  1.1507821213233327e-05 -1.8440241583114619e-06 0.0000000000000000e+00 -1.8440241583114619e-06 1.1070999537982931e-05 0.0000000000000000e+00 0.0000000000000000e+00 0.0000000000000000e+00 0.0000000000000000e+00  1.1313427430970358e-05 -1.7510882013193443e-06 0.0000000000000000e+00 -1.7510882013193443e-06 1.1573956627527194e-05 0.0000000000000000e+00 0.0000000000000000e+00 0.0000000000000000e+00 0.0000000000000000e+00  1.1175824656795984e-05 -1.5726340598020328e-06 0.0000000000000000e+00 -1.5726340598020328e-06 1.1992815193484396e-05 0.0000000000000000e+00 0.0000000000000000e+00 0.0000000000000000e+00 0.0000000000000000e+00  1.1111815562556822e-05 -1.3506708806582381e-06 0.0000000000000000e+00 -1.3506708806582381e-06 1.2296825001596126e-05 0.0000000000000000e+00 0.0000000000000000e+00 0.0000000000000000e+00 0.0000000000000000e+00  1.1118339141704018e-05 -1.1314642714328897e-06 0.0000000000000000e+00 -1.1314642714328897e-06 1.2484595273334732e-05 0.0000000000000000e+00 0.0000000000000000e+00 0.0000000000000000e+00 0.0000000000000000e+00  1.1174981173822635e-05 -9.5158787947010275e-07 0.0000000000000000e+00 -9.5158787947010275e-07 1.2580795855348930e-05 0.0000000000000000e+00 0.0000000000000000e+00 0.0000000000000000e+00 0.0000000000000000e+00  1.1252252794888438e-05 -8.2911740348782063e-07 0.0000000000000000e+00 -8.2911740348782063e-07 1.2624808887211733e-05 0.0000000000000000e+00 0.0000000000000000e+00 0.0000000000000000e+00 0.0000000000000000e+00  1.1321399260791287e-05 -7.6224608440168470e-07 0.0000000000000000e+00 -7.6224608440168470e-07 1.2656943940140945e-05 0.0000000000000000e+00 0.0000000000000000e+00 0.0000000000000000e+00 0.0000000000000000e+00  1.1361896970047567e-05 -7.3411080606355279e-07 0.0000000000000000e+00 -7.3411080606355279e-07 1.2707482798979632e-05 0.0000000000000000e+00 0.0000000000000000e+00 0.0000000000000000e+00 0.0000000000000000e+00  1.1364733134878945e-05 -7.2060383273015464e-07 0.0000000000000000e+00 -7.2060383273015464e-07 1.2791272932820375e-05 0.0000000000000000e+00 0.0000000000000000e+00 0.0000000000000000e+00 0.0000000000000000e+00  1.1331690365827963e-05 -6.9787259557558846e-07 0.0000000000000000e+00 -6.9787259557558846e-07 1.2907800392949674e-05 0.0000000000000000e+00 0.0000000000000000e+00 0.0000000000000000e+00 0.0000000000000000e+00  1.1272166934227141e-05 -6.4747268622932545e-07 0.0000000000000000e+00 -6.4747268622932545e-07 1.3044875499065886e-05 0.0000000000000000e+00 0.0000000000000000e+00 0.0000000000000000e+00 0.0000000000000000e+00  1.1199283561821978e-05 -5.5862015646089275e-07 0.0000000000000000e+00 -5.5862015646089275e-07 1.3183638331398663e-05 0.0000000000000000e+00 0.0000000000000000e+00 0.0000000000000000e+00 0.0000000000000000e+00  1.1126581617462439e-05 -4.2810290737843980e-07 0.0000000000000000e+00 -4.2810290737843980e-07 1.3303127361640190e-05 0.0000000000000000e+00 0.0000000000000000e+00 0.0000000000000000e+00 0.0000000000000000e+00  1.1065897059803240e-05 -2.5883248812703691e-07 0.0000000000000000e+00 -2.5883248812703691e-07 1.3383507341297082e-05 0.0000000000000000e+00 0.0000000000000000e+00 0.0000000000000000e+00 0.0000000000000000e+00  1.1026434743103011e-05 -5.7982520585664622e-08 0.0000000000000000e+00 -5.7982520585664622e-08 1.3407813515908654e-05 0.0000000000000000e+00 0.0000000000000000e+00 0.0000000000000000e+00 0.0000000000000000e+00  1.1014728443864937e-05 1.6464498177109985e-07 0.0000000000000000e+00 1.6464498177109985e-07 1.3362517251988059e-05 0.0000000000000000e+00 0.0000000000000000e+00 0.0000000000000000e+00 0.0000000000000000e+00  1.1035076918954874e-05 3.9770933909095939e-07 0.0000000000000000e+00 3.9770933909095939e-07 1.3237396711058205e-05 0.0000000000000000e+00 0.0000000000000000e+00 0.0000000000000000e+00 0.0000000000000000e+00  1.1090079596467633e-05 6.2882379903457340e-07 0.0000000000000000e+00 6.2882379903457340e-07 1.3025183734891437e-05 0.0000000000000000e+00 0.0000000000000000e+00 0.0000000000000000e+00 0.0000000000000000e+00  1.1180989532627191e-05 8.4456147753811500e-07 0.0000000000000000e+00 8.4456147753811500e-07 1.2721366392038719e-05 0.0000000000000000e+00 0.0000000000000000e+00 0.0000000000000000e+00 0.0000000000000000e+00  1.1307695548797913e-05 1.0301803231161022e-06 0.0000000000000000e+00 1.0301803231161022e-06 1.2324414665596904e-05 0.0000000000000000e+00 0.0000000000000000e+00 0.0000000000000000e+00 0.0000000000000000e+00  1.1468394560232598e-05 1.1695182787554596e-06 0.0000000000000000e+00 1.1695182787554596e-06 1.1836437189559994e-05 0.0000000000000000e+00 0.0000000000000000e+00 0.0000000000000000e+00 0.0000000000000000e+00  1.2075203511706865e-05 1.5528510812461513e-06 0.0000000000000000e+00 1.5528510812461513e-06 1.1503137127611076e-05 0.0000000000000000e+00 0.0000000000000000e+00 0.0000000000000000e+00 0.0000000000000000e+00  1.2325297542648429e-05 1.3459307304336385e-06 0.0000000000000000e+00 1.3459307304336385e-06 1.0723466814388282e-05 0.0000000000000000e+00 0.0000000000000000e+00 0.0000000000000000e+00 0.0000000000000000e+00  1.2506572867526662e-05 1.0321215654436918e-06 0.0000000000000000e+00 1.0321215654436918e-06 1.0094068052857170e-05 0.0000000000000000e+00 0.0000000000000000e+00 0.0000000000000000e+00 0.0000000000000000e+00  1.2608704575474150e-05 6.5664802905509551e-07 0.0000000000000000e+00 6.5664802905509551e-07 9.6392750687602230e-06 0.0000000000000000e+00 0.0000000000000000e+00 0.0000000000000000e+00 0.0000000000000000e+00  1.2637944906261345e-05 2.6269351624005689e-07 0.0000000000000000e+00 2.6269351624005689e-07 9.3572087707924173e-06 0.0000000000000000e+00 0.0000000000000000e+00 0.0000000000000000e+00 0.0000000000000000e+00  1.2610851160367653e-05 -1.1925757213379481e-07 0.0000000000000000e+00 -1.1925757213379481e-07 9.2280181212048562e-06 0.0000000000000000e+00 0.0000000000000000e+00 0.0000000000000000e+00 0.0000000000000000e+00  1.2544678410018509e-05 -4.7386069226674397e-07 0.0000000000000000e+00 -4.7386069226674397e-07 9.2267475678668353e-06 0.0000000000000000e+00 0.0000000000000000e+00 0.0000000000000000e+00 0.0000000000000000e+00  1.2450183893454256e-05 -7.9592864785266521e-07 0.0000000000000000e+00 -7.9592864785266521e-07 9.3333862054066683e-06 0.0000000000000000e+00 0.0000000000000000e+00 0.0000000000000000e+00 0.0000000000000000e+00  1.2329984767494070e-05 -1.0820912419935964e-06 0.0000000000000000e+00 -1.0820912419935964e-06 9.5358369159106439e-06 0.0000000000000000e+00 0.0000000000000000e+00 0.0000000000000000e+00 0.0000000000000000e+00  1.2182452977412479e-05 -1.3241945832260179e-06 0.0000000000000000e+00 -1.3241945832260179e-06 9.8257037463873808e-06 0.0000000000000000e+00 0.0000000000000000e+00 0.0000000000000000e+00 0.0000000000000000e+00  1.2008321346968040e-05 -1.5080177946566371e-06 0.0000000000000000e+00 -1.5080177946566371e-06 1.0190498644396079e-05 0.0000000000000000e+00 0.0000000000000000e+00 0.0000000000000000e+00 0.0000000000000000e+00  1.1816014623680151e-05 -1.6177467250804778e-06 0.0000000000000000e+00 -1.6177467250804778e-06 1.0607438242302843e-05 0.0000000000000000e+00 0.0000000000000000e+00 0.0000000000000000e+00 0.0000000000000000e+00  1.1622653431764528e-05 -1.6435237918792905e-06 0.0000000000000000e+00 -1.6435237918792905e-06 1.1042799282321371e-05 0.0000000000000000e+00 0.0000000000000000e+00 0.0000000000000000e+00 0.0000000000000000e+00  1.1450118093990440e-05 -1.5878758152790810e-06 0.0000000000000000e+00 -1.5878758152790810e-06 1.1457635133435995e-05 0.0000000000000000e+00 0.0000000000000000e+00 0.0000000000000000e+00 0.0000000000000000e+00  1.1318134620747174e-05 -1.4675731832034505e-06 0.0000000000000000e+00 -1.4675731832034505e-06 1.1817292577060395e-05 0.0000000000000000e+00 0.0000000000000000e+00 0.0000000000000000e+00 0.0000000000000000e+00  1.1237704908729716e-05 -1.3099195147011427e-06 0.0000000000000000e+00 -1.3099195147011427e-06 1.2100359335472433e-05 0.0000000000000000e+00 0.0000000000000000e+00 0.0000000000000000e+00 0.0000000000000000e+00  1.1207785575530404e-05 -1.1451774351869514e-06 0.0000000000000000e+00 -1.1451774351869514e-06 1.2303211060732214e-05 0.0000000000000000e+00 0.0000000000000000e+00 0.0000000000000000e+00 0.0000000000000000e+00  1.1216336945129163e-05 -9.9840808053295284e-07 0.0000000000000000e+00 -9.9840808053295284e-07 1.2438638234502180e-05 0.0000000000000000e+00 0.0000000000000000e+00 0.0000000000000000e+00 0.0000000000000000e+00  1.1244833009070864e-05 -8.8380787845016445e-07 0.0000000000000000e+00 -8.8380787845016445e-07 1.2529710677151481e-05 0.0000000000000000e+00 0.0000000000000000e+00 0.0000000000000000e+00 0.0000000000000000e+00  1.1274076893040184e-05 -8.0310513347087649e-07 0.0000000000000000e+00 -8.0310513347087649e-07 1.2601717370893410e-05 0.0000000000000000e+00 0.0000000000000000e+00 0.0000000000000000e+00 0.0000000000000000e+00  1.1289121197016065e-05 -7.4771987399841747e-07 0.0000000000000000e+00 -7.4771987399841747e-07 1.2675125458906762e-05 0.0000000000000000e+00 0.0000000000000000e+00 0.0000000000000000e+00 0.0000000000000000e+00  1.1281966430673162e-05 -7.0313082407111159e-07 0.0000000000000000e+00 -7.0313082407111159e-07 1.2761409422555192e-05 0.0000000000000000e+00 0.0000000000000000e+00 0.0000000000000000e+00 0.0000000000000000e+00  1.1251847037452963e-05 -6.5360171059260504e-07 0.0000000000000000e+00 -6.5360171059260504e-07 1.2862119662135166e-05 0.0000000000000000e+00 0.0000000000000000e+00 0.0000000000000000e+00 0.0000000000000000e+00  1.1203752837973709e-05 -5.8589047492429944e-07 0.0000000000000000e+00 -5.8589047492429944e-07 1.2970436060853023e-05 0.0000000000000000e+00 0.0000000000000000e+00 0.0000000000000000e+00 0.0000000000000000e+00  1.1146154070618800e-05 -4.9135152340192029e-07 0.0000000000000000e+00 -4.9135152340192029e-07 1.3073987180236631e-05 0.0000000000000000e+00 0.0000000000000000e+00 0.0000000000000000e+00 0.0000000000000000e+00  1.1088770989915545e-05 -3.6651465327997103e-07 0.0000000000000000e+00 -3.6651465327997103e-07 1.3157821803539495e-05 0.0000000000000000e+00 0.0000000000000000e+00 0.0000000000000000e+00 0.0000000000000000e+00  1.1040893042768293e-05 -2.1260891536358741e-07 0.0000000000000000e+00 -2.1260891536358741e-07 1.3206825783287645e-05 0.0000000000000000e+00 0.0000000000000000e+00 0.0000000000000000e+00 0.0000000000000000e+00  1.1010398693299764e-05 -3.4582894039169423e-08 0.0000000000000000e+00 -3.4582894039169423e-08 1.3207317066039396e-05 0.0000000000000000e+00 0.0000000000000000e+00 0.0000000000000000e+00 0.0000000000000000e+00  1.1003380365349646e-05 1.5992896344634438e-07 0.0000000000000000e+00 1.5992896344634438e-07 1.3147881686289102e-05 0.0000000000000000e+00 0.0000000000000000e+00 0.0000000000000000e+00 0.0000000000000000e+00  1.1024155737047542e-05 3.6142337564399817e-07 0.0000000000000000e+00 3.6142337564399817e-07 1.3019688828524390e-05 0.0000000000000000e+00 0.0000000000000000e+00 0.0000000000000000e+00 0.0000000000000000e+00  1.1075424713603772e-05 5.5903041971498748e-07 0.0000000000000000e+00 5.5903041971498748e-07 1.2816574058197227e-05 0.0000000000000000e+00 0.0000000000000000e+00 0.0000000000000000e+00 0.0000000000000000e+00  1.1158365896084555e-05 7.4073639342922573e-07 0.0000000000000000e+00 7.4073639342922573e-07 1.2535152308757026e-05 0.0000000000000000e+00 0.0000000000000000e+00 0.0000000000000000e+00 0.0000000000000000e+00  1.1272525591217145e-05 8.9345553775042118e-07 0.0000000000000000e+00 8.9345553775042118e-07 1.2175156268954548e-05 0.0000000000000000e+00 0.0000000000000000e+00 0.0000000000000000e+00 0.0000000000000000e+00  1.1415581343603507e-05 1.0032829207837084e-06 0.0000000000000000e+00 1.0032829207837084e-06 1.1739963042949590e-05 0.0000000000000000e+00 0.0000000000000000e+00 0.0000000000000000e+00 0.0000000000000000e+00  1.2110707486594922e-05 1.2972818316717203e-06 0.0000000000000000e+00 1.2972818316717203e-06 1.1625103197135068e-05 0.0000000000000000e+00 0.0000000000000000e+00 0.0000000000000000e+00 0.0000000000000000e+00  1.2325846736782028e-05 1.1399716167022420e-06 0.0000000000000000e+00 1.1399716167022420e-06 1.0959972953152030e-05 0.0000000000000000e+00 0.0000000000000000e+00 0.0000000000000000e+00 0.0000000000000000e+00  1.2489456128128002e-05 8.9350596694084274e-07 0.0000000000000000e+00 8.9350596694084274e-07 1.0410402701737281e-05 0.0000000000000000e+00 0.0000000000000000e+00 0.0000000000000000e+00 0.0000000000000000e+00  1.2592121326675434e-05 5.8857601462739221e-07 0.0000000000000000e+00 5.8857601462739221e-07 9.9961648984695117e-06 0.0000000000000000e+00 0.0000000000000000e+00 0.0000000000000000e+00 0.0000000000000000e+00  1.2634399821388480e-05 2.5634148364315319e-07 0.0000000000000000e+00 2.5634148364315319e-07 9.7212680480567653e-06 0.0000000000000000e+00 0.0000000000000000e+00 0.0000000000000000e+00 0.0000000000000000e+00  1.2624093661775336e-05 -7.7924503111974435e-08 0.0000000000000000e+00 -7.7924503111974449e-08 9.5773202429438710e-06 0.0000000000000000e+00 0.0000000000000000e+00 0.0000000000000000e+00 0.0000000000000000e+00  1.2571268035310588e-05 -3.9707425859005065e-07 0.0000000000000000e+00 -3.9707425859005065e-07 9.5500069085953050e-06 0.0000000000000000e+00 0.0000000000000000e+00 0.0000000000000000e+00 0.0000000000000000e+00  1.2484187325050677e-05 -6.9033563447904241e-07 0.0000000000000000e+00 -6.9033563447904241e-07 9.6246608341759647e-06 0.0000000000000000e+00 0.0000000000000000e+00 0.0000000000000000e+00 0.0000000000000000e+00  1.2367976944779909e-05 -9.4952933693576820e-07 0.0000000000000000e+00 -9.4952933693576820e-07 9.7884973010960381e-06 0.0000000000000000e+00 0.0000000000000000e+00 0.0000000000000000e+00 0.0000000000000000e+00  1.2226154890089096e-05 -1.1658811003471969e-06 0.0000000000000000e+00 -1.1658811003471969e-06 1.0029240616509470e-05 0.0000000000000000e+00 0.0000000000000000e+00 0.0000000000000000e+00 0.0000000000000000e+00  1.2063658353502832e-05 -1.3293549012136837e-06 0.0000000000000000e+00 -1.3293549012136837e-06 1.0331844408924412e-05 0.0000000000000000e+00 0.0000000000000000e+00 0.0000000000000000e+00 0.0000000000000000e+00  1.1889317664810168e-05 -1.4308360533409650e-06 0.0000000000000000e+00 -1.4308360533409650e-06 1.0675894280237836e-05 0.0000000000000000e+00 0.0000000000000000e+00 0.0000000000000000e+00 0.0000000000000000e+00  1.1716163004652449e-05 -1.4658679127758556e-06 0.0000000000000000e+00 -1.4658679127758556e-06 1.1035744327456775e-05 0.0000000000000000e+00 0.0000000000000000e+00 0.0000000000000000e+00 0.0000000000000000e+00  1.1559181591301211e-05 -1.4378119026242692e-06 0.0000000000000000e+00 -1.4378119026242692e-06 1.1383863670094478e-05 0.0000000000000000e+00 0.0000000000000000e+00 0.0000000000000000e+00 0.0000000000000000e+00  1.1431486620080148e-05 -1.3586197804847595e-06 0.0000000000000000e+00 -1.3586197804847595e-06 1.1696141372860460e-05 0.0000000000000000e+00 0.0000000000000000e+00 0.0000000000000000e+00 0.0000000000000000e+00  1.1340623771099270e-05 -1.2466192677556935e-06 0.0000000000000000e+00 -1.2466192677556935e-06 1.1956911520552847e-05 0.0000000000000000e+00 0.0000000000000000e+00 0.0000000000000000e+00 0.0000000000000000e+00  1.1286597102263814e-05 -1.1221247445005382e-06 0.0000000000000000e+00 -1.1221247445005382e-06 1.2161638414546332e-05 0.0000000000000000e+00 0.0000000000000000e+00 0.0000000000000000e+00 0.0000000000000000e+00  1.1262325762831547e-05 -1.0025735473503297e-06 0.0000000000000000e+00 -1.0025735473503297e-06 1.2316325945529932e-05 0.0000000000000000e+00 0.0000000000000000e+00 0.0000000000000000e+00 0.0000000000000000e+00  1.1256167402882199e-05 -8.9890599560058281e-07 0.0000000000000000e+00 -8.9890599560058281e-07 1.2434113247829444e-05 0.0000000000000000e+00 0.0000000000000000e+00 0.0000000000000000e+00 0.0000000000000000e+00  1.1255402656517066e-05 -8.1419112673244990e-07 0.0000000000000000e+00 -8.1419112673244990e-07 1.2530497380107317e-05 0.0000000000000000e+00 0.0000000000000000e+00 0.0000000000000000e+00 0.0000000000000000e+00  1.1249433287544837e-05 -7.4452256639259833e-07 0.0000000000000000e+00 -7.4452256639259833e-07 1.2618835192377063e-05 0.0000000000000000e+00 0.0000000000000000e+00 0.0000000000000000e+00 0.0000000000000000e+00  1.1231821844406114e-05 -6.8144940291570054e-07 0.0000000000000000e+00 -6.8144940291570054e-07 1.2707312266324700e-05 0.0000000000000000e+00 0.0000000000000000e+00 0.0000000000000000e+00 0.0000000000000000e+00  1.1200897287036733e-05 -6.1491701744386298e-07 0.0000000000000000e+00 -6.1491701744386298e-07 1.2797803725290599e-05 0.0000000000000000e+00 0.0000000000000000e+00 0.0000000000000000e+00 0.0000000000000000e+00  1.1159166046971275e-05 -5.3584310919037967e-07 0.0000000000000000e+00 -5.3584310919037967e-07 1.2886375338765548e-05 0.0000000000000000e+00 0.0000000000000000e+00 0.0000000000000000e+00 0.0000000000000000e+00  1.1112034328682742e-05 -4.3783898561461497e-07 0.0000000000000000e+00 -4.3783898561461497e-07 1.2964803877599811e-05 0.0000000000000000e+00 0.0000000000000000e+00 0.0000000000000000e+00 0.0000000000000000e+00  1.1066361252646036e-05 -3.1798720986199286e-07 0.0000000000000000e+00 -3.1798720986199286e-07 1.3022449497022596e-05 0.0000000000000000e+00 0.0000000000000000e+00 0.0000000000000000e+00 0.0000000000000000e+00  1.1029213717201504e-05 -1.7686160793690649e-07 0.0000000000000000e+00 -1.7686160793690649e-07 1.3047979330161112e-05 0.0000000000000000e+00 0.0000000000000000e+00 0.0000000000000000e+00 0.0000000000000000e+00  1.1006996486440390e-05 -1.8090369368889996e-08 0.0000000000000000e+00 -1.8090369368889996e-08 1.3030683170524514e-05 0.0000000000000000e+00 0.0000000000000000e+00 0.0000000000000000e+00 0.0000000000000000e+00  1.1004962474562765e-05 1.5225147513695176e-07 0.0000000000000000e+00 1.5225147513695176e-07 1.2961336439874991e-05 0.0000000000000000e+00 0.0000000000000000e+00 0.0000000000000000e+00 0.0000000000000000e+00  1.1027003964446779e-05 3.2621853939375228e-07 0.0000000000000000e+00 3.2621853939375228e-07 1.2832706720688904e-05 0.0000000000000000e+00 0.0000000000000000e+00 0.0000000000000000e+00 0.0000000000000000e+00  1.1075584118031862e-05 4.9444420144645001e-07 0.0000000000000000e+00 4.9444420144645001e-07 1.2639863628238563e-05 0.0000000000000000e+00 0.0000000000000000e+00 0.0000000000000000e+00 0.0000000000000000e+00  1.1151673433784041e-05 6.4646128834769828e-07 0.0000000000000000e+00 6.4646128834769828e-07 1.2380455638130660e-05 0.0000000000000000e+00 0.0000000000000000e+00 0.0000000000000000e+00 0.0000000000000000e+00  1.1254589595769769e-05 7.7096824051684447e-07 0.0000000000000000e+00 7.7096824051684447e-07 1.2055081161040764e-05 0.0000000000000000e+00 0.0000000000000000e+00 0.0000000000000000e+00 0.0000000000000000e+00  1.1381835237664403e-05 8.5627308291362735e-07 0.0000000000000000e+00 8.5627308291362735e-07 1.1667685795920537e-05 0.0000000000000000e+00 0.0000000000000000e+00 0.0000000000000000e+00 0.0000000000000000e+00  1.2129646827380151e-05 1.0791435456520223e-06 0.0000000000000000e+00 1.0791435456520223e-06 1.1714353475481195e-05 0.0000000000000000e+00 0.0000000000000000e+00 0.0000000000000000e+00 0.0000000000000000e+00  1.2315311355684771e-05 9.5991381446638697e-07 0.0000000000000000e+00 9.5991381446638697e-07 1.1143155123349346e-05 0.0000000000000000e+00 0.0000000000000000e+00 0.0000000000000000e+00 0.0000000000000000e+00  1.2460855989339053e-05 7.6498517989661445e-07 0.0000000000000000e+00 7.6498517989661445e-07 1.0663459047231828e-05 0.0000000000000000e+00 0.0000000000000000e+00 0.0000000000000000e+00 0.0000000000000000e+00  1.2558057865584563e-05 5.1648150669391204e-07 0.0000000000000000e+00 5.1648150669391204e-07 1.0291276332356615e-05 0.0000000000000000e+00 0.0000000000000000e+00 0.0000000000000000e+00 0.0000000000000000e+00  1.2604930098544840e-05 2.3779331377042847e-07 0.0000000000000000e+00 2.3779331377042847e-07 1.0032704025946243e-05 0.0000000000000000e+00 0.0000000000000000e+00 0.0000000000000000e+00 0.0000000000000000e+00  1.2604671304764178e-05 -5.0243338834172708e-08 0.0000000000000000e+00 -5.0243338834172715e-08 9.8850950109520844e-06 0.0000000000000000e+00 0.0000000000000000e+00 0.0000000000000000e+00 0.0000000000000000e+00  1.2563131141852321e-05 -3.3115275561475876e-07 0.0000000000000000e+00 -3.3115275561475876e-07 9.8402525918744566e-06 0.0000000000000000e+00 0.0000000000000000e+00 0.0000000000000000e+00 0.0000000000000000e+00  1.2486529553547335e-05 -5.9252578704545559e-07 0.0000000000000000e+00 -5.9252578704545559e-07 9.8875035672706869e-06 0.0000000000000000e+00 0.0000000000000000e+00 0.0000000000000000e+00 0.0000000000000000e+00  1.2380447317501621e-05 -8.2451504283405348e-07 0.0000000000000000e+00 -8.2451504283405348e-07 1.0015299882433676e-05 0.0000000000000000e+00 0.0000000000000000e+00 0.0000000000000000e+00 0.0000000000000000e+00  1.2250255341075374e-05 -1.0184384777071905e-06 0.0000000000000000e+00 -1.0184384777071905e-06 1.0211078914164946e-05 0.0000000000000000e+00 0.0000000000000000e+00 0.0000000000000000e+00 0.0000000000000000e+00  1.2102339399763777e-05 -1.1665079896706672e-06 0.0000000000000000e+00 -1.1665079896706672e-06 1.0460149847683690e-05 0.0000000000000000e+00 0.0000000000000000e+00 0.0000000000000000e+00 0.0000000000000000e+00  1.1945092321036072e-05 -1.2629050181351405e-06 0.0000000000000000e+00 -1.2629050181351405e-06 1.0744873392464626e-05 0.0000000000000000e+00 0.0000000000000000e+00 0.0000000000000000e+00 0.0000000000000000e+00  1.1788834786750042e-05 -1.3055862422661192e-06 0.0000000000000000e+00 -1.3055862422661192e-06 1.1045172088920752e-05 0.0000000000000000e+00 0.0000000000000000e+00 0.0000000000000000e+00 0.0000000000000000e+00  1.1644443774628599e-05 -1.2977488030192651e-06 0.0000000000000000e+00 -1.2977488030192651e-06 1.1340631470499788e-05 0.0000000000000000e+00 0.0000000000000000e+00 0.0000000000000000e+00 0.0000000000000000e+00  1.1521166374912386e-05 -1.2480156633907830e-06 0.0000000000000000e+00 -1.2480156633907830e-06 1.1613568897859424e-05 0.0000000000000000e+00 0.0000000000000000e+00 0.0000000000000000e+00 0.0000000000000000e+00  1.1424518264347568e-05 -1.1690048040235861e-06 0.0000000000000000e+00 -1.1690048040235861e-06 1.1851912506811581e-05 0.0000000000000000e+00 0.0000000000000000e+00 0.0000000000000000e+00 0.0000000000000000e+00  1.1355128066570829e-05 -1.0746807776572625e-06 0.0000000000000000e+00 -1.0746807776572625e-06 1.2050782913466684e-05 0.0000000000000000e+00 0.0000000000000000e+00 0.0000000000000000e+00 0.0000000000000000e+00  1.1308958499060953e-05 -9.7738707141232988e-07 0.0000000000000000e+00 -9.7738707141232988e-07 1.2212221598382967e-05 0.0000000000000000e+00 0.0000000000000000e+00 0.0000000000000000e+00 0.0000000000000000e+00  1.1278764458888799e-05 -8.8551986043046879e-07 0.0000000000000000e+00 -8.8551986043046879e-07 1.2343244950899362e-05 0.0000000000000000e+00 0.0000000000000000e+00 0.0000000000000000e+00 0.0000000000000000e+00  1.1256214906573304e-05 -8.0246826527430677e-07 0.0000000000000000e+00 -8.0246826527430677e-07 1.2452967490466600e-05 0.0000000000000000e+00 0.0000000000000000e+00 0.0000000000000000e+00 0.0000000000000000e+00  1.1233970279533423e-05 -7.2692932283486547e-07 0.0000000000000000e+00 -7.2692932283486547e-07 1.2549723764054292e-05 0.0000000000000000e+00 0.0000000000000000e+00 0.0000000000000000e+00 0.0000000000000000e+00  1.1207160515887074e-05 -6.5425774734921640e-07 0.0000000000000000e+00 -6.5425774734921640e-07 1.2638933953327322e-05 0.0000000000000000e+00 0.0000000000000000e+00 0.0000000000000000e+00 0.0000000000000000e+00  1.1174017802097739e-05 -5.7828770098327819e-07 0.0000000000000000e+00 -5.7828770098327819e-07 1.2722067598159778e-05 0.0000000000000000e+00 0.0000000000000000e+00 0.0000000000000000e+00 0.0000000000000000e+00  1.1135723258054512e-05 -4.9308457957458507e-07 0.0000000000000000e+00 -4.9308457957458507e-07 1.2796665244798732e-05 0.0000000000000000e+00 0.0000000000000000e+00 0.0000000000000000e+00 0.0000000000000000e+00  1.1095720553308663e-05 -3.9426603941470101e-07 0.0000000000000000e+00 -3.9426603941470101e-07 1.2857117830750014e-05 0.0000000000000000e+00 0.0000000000000000e+00 0.0000000000000000e+00 0.0000000000000000e+00  1.1058803335036072e-05 -2.7975765199681523e-07 0.0000000000000000e+00 -2.7975765199681523e-07 1.2895818490778808e-05 0.0000000000000000e+00 0.0000000000000000e+00 0.0000000000000000e+00 0.0000000000000000e+00  1.1030230226916773e-05 -1.5003162090515135e-07 0.0000000000000000e+00 -1.5003162090515135e-07 1.2904354557618808e-05 0.0000000000000000e+00 0.0000000000000000e+00 0.0000000000000000e+00 0.0000000000000000e+00  1.1015017015175919e-05 -7.9772448879949338e-09 0.0000000000000000e+00 -7.9772448879949338e-09 1.2874530241953187e-05 0.0000000000000000e+00 0.0000000000000000e+00 0.0000000000000000e+00 0.0000000000000000e+00  1.1017450510462892e-05 1.4142733772122022e-07 0.0000000000000000e+00 1.4142733772122022e-07 1.2799140805132984e-05 0.0000000000000000e+00 0.0000000000000000e+00 0.0000000000000000e+00 0.0000000000000000e+00  1.1040791303094313e-05 2.9150610401104377e-07 0.0000000000000000e+00 2.9150610401104377e-07 1.2672518911374790e-05 0.0000000000000000e+00 0.0000000000000000e+00 0.0000000000000000e+00 0.0000000000000000e+00  1.1087092286946247e-05 4.3426157800463653e-07 0.0000000000000000e+00 4.3426157800463653e-07 1.2490929990560165e-05 0.0000000000000000e+00 0.0000000000000000e+00 0.0000000000000000e+00 0.0000000000000000e+00  1.1157052502061804e-05 5.6072160672199904e-07 0.0000000000000000e+00 5.6072160672199904e-07 1.2252908390457448e-05 0.0000000000000000e+00 0.0000000000000000e+00 0.0000000000000000e+00 0.0000000000000000e+00  1.1249843640323972e-05 6.6129479510788330e-07 0.0000000000000000e+00 6.6129479510788330e-07 1.1959607808971118e-05 0.0000000000000000e+00 0.0000000000000000e+00 0.0000000000000000e+00 0.0000000000000000e+00  1.1363007015743190e-05 7.2628991749618279e-07 0.0000000000000000e+00 7.2628991749618279e-07 1.1615082132011151e-05 0.0000000000000000e+00 0.0000000000000000e+00 0.0000000000000000e+00 0.0000000000000000e+00  1.2133845024836811e-05 8.9198159938717490e-07 0.0000000000000000e+00 8.9198159938717490e-07 1.1777433592709188e-05 0.0000000000000000e+00 0.0000000000000000e+00 0.0000000000000000e+00 0.0000000000000000e+00  1.2294280052025181e-05 8.0292076452744817e-07 0.0000000000000000e+00 8.0292076452744817e-07 1.1285225961608599e-05 0.0000000000000000e+00 0.0000000000000000e+00 0.0000000000000000e+00 0.0000000000000000e+00  1.2422640132826565e-05 6.4872074516634965e-07 0.0000000000000000e+00 6.4872074516634965e-07 1.0866727473634418e-05 0.0000000000000000e+00 0.0000000000000000e+00 0.0000000000000000e+00 0.0000000000000000e+00  1.2511842277870115e-05 4.4617042661044155e-07 0.0000000000000000e+00 4.4617042661044155e-07 1.0535049172859305e-05 0.0000000000000000e+00 0.0000000000000000e+00 0.0000000000000000e+00 0.0000000000000000e+00  1.2558908087954269e-05 2.1344864390938267e-07 0.0000000000000000e+00 2.1344864390938267e-07 1.0296706942674887e-05 0.0000000000000000e+00 0.0000000000000000e+00 0.0000000000000000e+00 0.0000000000000000e+00  1.2564663998398920e-05 -3.2238113215384312e-08 0.0000000000000000e+00 -3.2238113215384312e-08 1.0151873628238836e-05 0.0000000000000000e+00 0.0000000000000000e+00 0.0000000000000000e+00 0.0000000000000000e+00  1.2532471609365456e-05 -2.7604427584269537e-07 0.0000000000000000e+00 -2.7604427584269537e-07 1.0095926855870595e-05 0.0000000000000000e+00 0.0000000000000000e+00 0.0000000000000000e+00 0.0000000000000000e+00  1.2466947701881637e-05 -5.0578430148943841e-07 0.0000000000000000e+00 -5.0578430148943841e-07 1.0121149228494279e-05 0.0000000000000000e+00 0.0000000000000000e+00 0.0000000000000000e+00 0.0000000000000000e+00  1.2373232448430523e-05 -7.1151718211258556e-07 0.0000000000000000e+00 -7.1151718211258556e-07 1.0217849042646575e-05 0.0000000000000000e+00 0.0000000000000000e+00 0.0000000000000000e+00 0.0000000000000000e+00  1.2256944374263800e-05 -8.8505656861041896e-07 0.0000000000000000e+00 -8.8505656861041896e-07 1.0374692265937880e-05 0.0000000000000000e+00 0.0000000000000000e+00 0.0000000000000000e+00 0.0000000000000000e+00  1.2124537050403732e-05 -1.0199299187307701e-06 0.0000000000000000e+00 -1.0199299187307701e-06 1.0578569604497064e-05 0.0000000000000000e+00 0.0000000000000000e+00 0.0000000000000000e+00 0.0000000000000000e+00  1.1983556151905125e-05 -1.1119241394743527e-06 0.0000000000000000e+00 -1.1119241394743527e-06 1.0814598485977036e-05 0.0000000000000000e+00 0.0000000000000000e+00 0.0000000000000000e+00 0.0000000000000000e+00  1.1842373920053696e-05 -1.1599289198637719e-06 0.0000000000000000e+00 -1.1599289198637719e-06 1.1066766830138829e-05 0.0000000000000000e+00 0.0000000000000000e+00 0.0000000000000000e+00 0.0000000000000000e+00  1.1709284611986320e-05 -1.1665467675429465e-06 0.0000000000000000e+00 -1.1665467675429465e-06 1.1319345533161971e-05 0.0000000000000000e+00 0.0000000000000000e+00 0.0000000000000000e+00 0.0000000000000000e+00  1.1591204973284324e-05 -1.1379919329928059e-06 0.0000000000000000e+00 -1.1379919329928059e-06 1.1558747821265722e-05 0.0000000000000000e+00 0.0000000000000000e+00 0.0000000000000000e+00 0.0000000000000000e+00  1.1492452776211056e-05 -1.0831019235628838e-06 0.0000000000000000e+00 -1.0831019235628838e-06 1.1775229203629883e-05 0.0000000000000000e+00 0.0000000000000000e+00 0.0000000000000000e+00 0.0000000000000000e+00  1.1414071760587838e-05 -1.0116692344428644e-06 0.0000000000000000e+00 -1.0116692344428644e-06 1.1963831066780014e-05 0.0000000000000000e+00 0.0000000000000000e+00 0.0000000000000000e+00 0.0000000000000000e+00  1.1353956094606043e-05 -9.3257869509019088e-07 0.0000000000000000e+00 -9.3257869509019088e-07 1.2124246249030298e-05 0.0000000000000000e+00 0.0000000000000000e+00 0.0000000000000000e+00 0.0000000000000000e+00  1.1307722340787735e-05 -8.5229316859791746e-07 0.0000000000000000e+00 -8.5229316859791746e-07 1.2259675155707616e-05 0.0000000000000000e+00 0.0000000000000000e+00 0.0000000000000000e+00 0.0000000000000000e+00  1.1270026112019934e-05 -7.7407156214130913e-07 0.0000000000000000e+00 -7.7407156214130913e-07 1.2375064374565497e-05 0.0000000000000000e+00 0.0000000000000000e+00 0.0000000000000000e+00 0.0000000000000000e+00  1.1235918419108412e-05 -6.9802823523392918e-07 0.0000000000000000e+00 -6.9802823523392918e-07 1.2475256162738904e-05 0.0000000000000000e+00 0.0000000000000000e+00 0.0000000000000000e+00 0.0000000000000000e+00  1.1201893841141773e-05 -6.2188105883732450e-07 0.0000000000000000e+00 -6.2188105883732450e-07 1.2563510833002246e-05 0.0000000000000000e+00 0.0000000000000000e+00 0.0000000000000000e+00 0.0000000000000000e+00  1.1166441280557708e-05 -5.4207993363244024e-07 0.0000000000000000e+00 -5.4207993363244024e-07 1.2640665900916208e-05 0.0000000000000000e+00 0.0000000000000000e+00 0.0000000000000000e+00 0.0000000000000000e+00  1.1130085509995930e-05 -4.5498518397331394e-07 0.0000000000000000e+00 -4.5498518397331394e-07 1.2704969148313932e-05 0.0000000000000000e+00 0.0000000000000000e+00 0.0000000000000000e+00 0.0000000000000000e+00  1.1095038499521952e-05 -3.5784463558199937e-07 0.0000000000000000e+00 -3.5784463558199937e-07 1.2752450755113349e-05 0.0000000000000000e+00 0.0000000000000000e+00 0.0000000000000000e+00 0.0000000000000000e+00  1.1064636097446186e-05 -2.4944180306550028e-07 0.0000000000000000e+00 -2.4944180306550023e-07 1.2777619080947921e-05 0.0000000000000000e+00 0.0000000000000000e+00 0.0000000000000000e+00 0.0000000000000000e+00  1.1042725415587319e-05 -1.3040259002551263e-07 0.0000000000000000e+00 -1.3040259002551263e-07 1.2774268562545842e-05 0.0000000000000000e+00 0.0000000000000000e+00 0.0000000000000000e+00 0.0000000000000000e+00  1.1033117850281670e-05 -3.2236096004004593e-09 0.0000000000000000e+00 -3.2236096004004593e-09 1.2736245063206112e-05 0.0000000000000000e+00 0.0000000000000000e+00 0.0000000000000000e+00 0.0000000000000000e+00  1.1039160887357692e-05 1.2788536575397808e-07 0.0000000000000000e+00 1.2788536575397808e-07 1.2658088382642662e-05 0.0000000000000000e+00 0.0000000000000000e+00 0.0000000000000000e+00 0.0000000000000000e+00  1.1063429661968809e-05 2.5726014380548239e-07 0.0000000000000000e+00 2.5726014380548239e-07 1.2535537023247355e-05 0.0000000000000000e+00 0.0000000000000000e+00 0.0000000000000000e+00 0.0000000000000000e+00  1.1107506855132100e-05 3.7808711691387236e-07 0.0000000000000000e+00 3.7808711691387236e-07 1.2365922927017408e-05 0.0000000000000000e+00 0.0000000000000000e+00 0.0000000000000000e+00 0.0000000000000000e+00  1.1171808651660084e-05 4.8273671093005311e-07 0.0000000000000000e+00 4.8273671093005311e-07 1.2148500385739154e-05 0.0000000000000000e+00 0.0000000000000000e+00 0.0000000000000000e+00 0.0000000000000000e+00  1.1255422678299387e-05 5.6314180152277303e-07 0.0000000000000000e+00 5.6314180152277303e-07 1.1884745407132798e-05 0.0000000000000000e+00 0.0000000000000000e+00 0.0000000000000000e+00 0.0000000000000000e+00  1.1356051156809823e-05 6.1132096629424284e-07 0.0000000000000000e+00 6.1132096629424284e-07 1.1578538761718689e-05 0.0000000000000000e+00 0.0000000000000000e+00 0.0000000000000000e+00 0.0000000000000000e+00  1.2125489051938698e-05 7.3103807234473755e-07 0.0000000000000000e+00 7.3103807234473755e-07 1.1819283682789770e-05 0.0000000000000000e+00 0.0000000000000000e+00 0.0000000000000000e+00 0.0000000000000000e+00  1.2264118073334389e-05 6.6632266609575457e-07 0.0000000000000000e+00 6.6632266609575457e-07 1.1394647264671461e-05 0.0000000000000000e+00 0.0000000000000000e+00 0.0000000000000000e+00 0.0000000000000000e+00  1.2376701981629827e-05 5.4500584656030065e-07 0.0000000000000000e+00 5.4500584656030065e-07 1.1029902347684929e-05 0.0000000000000000e+00 0.0000000000000000e+00 0.0000000000000000e+00 0.0000000000000000e+00  1.2457158412039091e-05 3.8032963607198517e-07 0.0000000000000000e+00 3.8032963607198517e-07 1.0735941538957793e-05 0.0000000000000000e+00 0.0000000000000000e+00 0.0000000000000000e+00 0.0000000000000000e+00  1.2502255077859681e-05 1.8682358180132569e-07 0.0000000000000000e+00 1.8682358180132569e-07 1.0519018872575132e-05 0.0000000000000000e+00 0.0000000000000000e+00 0.0000000000000000e+00 0.0000000000000000e+00  1.2511622777777791e-05 -2.1229214535196351e-08 0.0000000000000000e+00 -2.1229214535196351e-08 1.0380655741937884e-05 0.0000000000000000e+00 0.0000000000000000e+00 0.0000000000000000e+00 0.0000000000000000e+00  1.2487128790978258e-05 -2.3085073803804156e-07 0.0000000000000000e+00 -2.3085073803804156e-07 1.0318377355282079e-05 0.0000000000000000e+00 0.0000000000000000e+00 0.0000000000000000e+00 0.0000000000000000e+00  1.2432154244850876e-05 -4.3086259953908484e-07 0.0000000000000000e+00 -4.3086259953908484e-07 1.0326662014363881e-05 0.0000000000000000e+00 0.0000000000000000e+00 0.0000000000000000e+00 0.0000000000000000e+00  1.2351073868132191e-05 -6.1195635549158171e-07 0.0000000000000000e+00 -6.1195635549158171e-07 1.0397717561707467e-05 0.0000000000000000e+00 0.0000000000000000e+00 0.0000000000000000e+00 0.0000000000000000e+00  1.2249037436113509e-05 -7.6663738566014178e-07 0.0000000000000000e+00 -7.6663738566014178e-07 1.0521940930743542e-05 0.0000000000000000e+00 0.0000000000000000e+00 0.0000000000000000e+00 0.0000000000000000e+00  1.2131936884411230e-05 -8.8930332122672762e-07 0.0000000000000000e+00 -8.8930332122672762e-07 1.0688182599000133e-05 0.0000000000000000e+00 0.0000000000000000e+00 0.0000000000000000e+00 0.0000000000000000e+00  1.2006324962128266e-05 -9.7653626864546891e-07 0.0000000000000000e+00 -9.7653626864546891e-07 1.0884085480376313e-05 0.0000000000000000e+00 0.0000000000000000e+00 0.0000000000000000e+00 0.0000000000000000e+00  1.1879081854875516e-05 -1.0274759755297946e-06 0.0000000000000000e+00 -1.0274759755297946e-06 1.1096732229855927e-05 0.0000000000000000e+00 0.0000000000000000e+00 0.0000000000000000e+00 0.0000000000000000e+00  1.1756776743871483e-05 -1.0440153992806484e-06 0.0000000000000000e+00 -1.0440153992806484e-06 1.1313650810088087e-05 0.0000000000000000e+00 0.0000000000000000e+00 0.0000000000000000e+00 0.0000000000000000e+00  1.1644855256828492e-05 -1.0305825765912540e-06 0.0000000000000000e+00 -1.0305825765912540e-06 1.1524002527354921e-05 0.0000000000000000e+00 0.0000000000000000e+00 0.0000000000000000e+00 0.0000000000000000e+00  1.1546905408848424e-05 -9.9342499139610777e-07 0.0000000000000000e+00 -9.9342499139610777e-07 1.1719628652145440e-05 0.0000000000000000e+00 0.0000000000000000e+00 0.0000000000000000e+00 0.0000000000000000e+00  1.1464257320220477e-05 -9.3951377604691129e-07 0.0000000000000000e+00 -9.3951377604691129e-07 1.1895631915352078e-05 0.0000000000000000e+00 0.0000000000000000e+00 0.0000000000000000e+00 0.0000000000000000e+00  1.1396061854133663e-05 -8.7533809764702246e-07 0.0000000000000000e+00 -8.7533809764702246e-07 1.2050310340969358e-05 0.0000000000000000e+00 0.0000000000000000e+00 0.0000000000000000e+00 0.0000000000000000e+00  1.1339828430172695e-05 -8.0590102333545743e-07 0.0000000000000000e+00 -8.0590102333545743e-07 1.2184470900008512e-05 0.0000000000000000e+00 0.0000000000000000e+00 0.0000000000000000e+00 0.0000000000000000e+00  1.1292257551169923e-05 -7.3415169897198281e-07 0.0000000000000000e+00 -7.3415169897198281e-07 1.2300335751144183e-05 0.0000000000000000e+00 0.0000000000000000e+00 0.0000000000000000e+00 0.0000000000000000e+00  1.1250133310162558e-05 -6.6094071946586484e-07 0.0000000000000000e+00 -6.6094071946586484e-07 1.2400345964269048e-05 0.0000000000000000e+00 0.0000000000000000e+00 0.0000000000000000e+00 0.0000000000000000e+00  1.1211058638919297e-05 -5.8543287223123064e-07 0.0000000000000000e+00 -5.8543287223123064e-07 1.2486148963655915e-05 0.0000000000000000e+00 0.0000000000000000e+00 0.0000000000000000e+00 0.0000000000000000e+00  1.1173897036471870e-05 -5.0580819896922208e-07 0.0000000000000000e+00 -5.0580819896922208e-07 1.2557955811618387e-05 0.0000000000000000e+00 0.0000000000000000e+00 0.0000000000000000e+00 0.0000000000000000e+00  1.1138886659606600e-05 -4.2005089740775407e-07 0.0000000000000000e+00 -4.2005089740775407e-07 1.2614325265778741e-05 0.0000000000000000e+00 0.0000000000000000e+00 0.0000000000000000e+00 0.0000000000000000e+00  1.1107477585079057e-05 -3.2665650906343909e-07 0.0000000000000000e+00 -3.2665650906343909e-07 1.2652321502200551e-05 0.0000000000000000e+00 0.0000000000000000e+00 0.0000000000000000e+00 0.0000000000000000e+00  1.1081989789150607e-05 -2.2515315030365932e-07 0.0000000000000000e+00 -2.2515315030365932e-07 1.2667928650062181e-05 0.0000000000000000e+00 0.0000000000000000e+00 0.0000000000000000e+00 0.0000000000000000e+00  1.1065196290550915e-05 -1.1640210032333947e-07 0.0000000000000000e+00 -1.1640210032333947e-07 1.2656591168758327e-05 0.0000000000000000e+00 0.0000000000000000e+00 0.0000000000000000e+00 0.0000000000000000e+00  1.1059914370555638e-05 -2.6956854249124115e-09 0.0000000000000000e+00 -2.6956854249124115e-09 1.2613771500483786e-05 0.0000000000000000e+00 0.0000000000000000e+00 0.0000000000000000e+00 0.0000000000000000e+00  1.1068653680169382e-05 1.1230248680183773e-07 0.0000000000000000e+00 1.1230248680183773e-07 1.2535456235253144e-05 0.0000000000000000e+00 0.0000000000000000e+00 0.0000000000000000e+00 0.0000000000000000e+00  1.1093337035111669e-05 2.2372653649537299e-07 0.0000000000000000e+00 2.2372653649537299e-07 1.2418582258380083e-05 0.0000000000000000e+00 0.0000000000000000e+00 0.0000000000000000e+00 0.0000000000000000e+00  1.1135086285310713e-05 3.2575105977154849e-07 0.0000000000000000e+00 3.2575105977154849e-07 1.2261384044870971e-05 0.0000000000000000e+00 0.0000000000000000e+00 0.0000000000000000e+00 0.0000000000000000e+00  1.1194055173671800e-05 4.1189224224188545e-07 0.0000000000000000e+00 4.1189224224188545e-07 1.2063677614712393e-05 0.0000000000000000e+00 0.0000000000000000e+00 0.0000000000000000e+00 0.0000000000000000e+00  1.1269293677878723e-05 4.7537172445835272e-07 0.0000000000000000e+00 4.7537172445835272e-07 1.1827094705583360e-05 0.0000000000000000e+00 0.0000000000000000e+00 0.0000000000000000e+00 0.0000000000000000e+00  1.1358726831183119e-05 5.0960566943438029e-07 0.0000000000000000e+00 5.0960566943438029e-07 1.1555186912248950e-05 0.0000000000000000e+00 0.0000000000000000e+00 0.0000000000000000e+00 0.0000000000000000e+00  1.2106749951390777e-05 5.9260241577125402e-07 0.0000000000000000e+00 5.9260241577125402e-07 1.1843829080097056e-05 0.0000000000000000e+00 0.0000000000000000e+00 0.0000000000000000e+00 0.0000000000000000e+00  1.2226405948648275e-05 5.4770543153475368e-07 0.0000000000000000e+00 5.4770543153475368e-07 1.1477669121988969e-05 0.0000000000000000e+00 0.0000000000000000e+00 0.0000000000000000e+00 0.0000000000000000e+00  1.2324765002974251e-05 4.5325859572295608e-07 0.0000000000000000e+00 4.5325859572295608e-07 1.1160312307358524e-05 0.0000000000000000e+00 0.0000000000000000e+00 0.0000000000000000e+00 0.0000000000000000e+00  1.2396607312900918e-05 3.1999914361179895e-07 0.0000000000000000e+00 3.1999914361179895e-07 1.0900913859360422e-05 0.0000000000000000e+00 0.0000000000000000e+00 0.0000000000000000e+00 0.0000000000000000e+00  1.2438779929896413e-05 1.5979838440974925e-07 0.0000000000000000e+00 1.5979838440974931e-07 1.0705224933076076e-05 0.0000000000000000e+00 0.0000000000000000e+00 0.0000000000000000e+00 0.0000000000000000e+00  1.2450327621476475e-05 -1.5403721760275267e-08 0.0000000000000000e+00 -1.5403721760275267e-08 1.0575387992721840e-05 0.0000000000000000e+00 0.0000000000000000e+00 0.0000000000000000e+00 0.0000000000000000e+00  1.2432192485653973e-05 -1.9441716424454098e-07 0.0000000000000000e+00 -1.9441716424454098e-07 1.0510273334396334e-05 0.0000000000000000e+00 0.0000000000000000e+00 0.0000000000000000e+00 0.0000000000000000e+00  1.2386803603981295e-05 -3.6732069181061921e-07 0.0000000000000000e+00 -3.6732069181061921e-07 1.0506012607523267e-05 0.0000000000000000e+00 0.0000000000000000e+00 0.0000000000000000e+00 0.0000000000000000e+00  1.2317711292238016e-05 -5.2572116550846722e-07 0.0000000000000000e+00 -5.2572116550846722e-07 1.0556533033109456e-05 0.0000000000000000e+00 0.0000000000000000e+00 0.0000000000000000e+00 0.0000000000000000e+00  1.2229331613682265e-05 -6.6288469369342140e-07 0.0000000000000000e+00 -6.6288469369342140e-07 1.0654000070720764e-05 0.0000000000000000e+00 0.0000000000000000e+00 0.0000000000000000e+00 0.0000000000000000e+00  1.2126761530017576e-05 -7.7386496894095841e-07 0.0000000000000000e+00 -7.7386496894095841e-07 1.0789203172278100e-05 0.0000000000000000e+00 0.0000000000000000e+00 0.0000000000000000e+00 0.0000000000000000e+00  1.2015563169137099e-05 -8.5567180091196851e-07 0.0000000000000000e+00 -8.5567180091196851e-07 1.0951994757126310e-05 0.0000000000000000e+00 0.0000000000000000e+00 0.0000000000000000e+00 0.0000000000000000e+00  1.1901427015103148e-05 -9.0742018003902474e-07 0.0000000000000000e+00 -9.0742018003902474e-07 1.1131879286722748e-05 0.0000000000000000e+00 0.0000000000000000e+00 0.0000000000000000e+00 0.0000000000000000e+00  1.1789696958558771e-05 -9.3033743497299941e-07 0.0000000000000000e+00 -9.3033743497299941e-07 1.1318760826544284e-05 0.0000000000000000e+00 0.0000000000000000e+00 0.0000000000000000e+00 0.0000000000000000e+00  1.1684832661548195e-05 -9.2751700285753538e-07 0.0000000000000000e+00 -9.2751700285753538e-07 1.1503745658570345e-05 0.0000000000000000e+00 0.0000000000000000e+00 0.0000000000000000e+00 0.0000000000000000e+00  1.1589947396726818e-05 -9.0338553466171330e-07 0.0000000000000000e+00 -9.0338553466171330e-07 1.1679821804531264e-05 0.0000000000000000e+00 0.0000000000000000e+00 0.0000000000000000e+00 0.0000000000000000e+00  1.1506561450315863e-05 -8.6295595031736961e-07 0.0000000000000000e+00 -8.6295595031736961e-07 1.1842237883651636e-05 0.0000000000000000e+00 0.0000000000000000e+00 0.0000000000000000e+00 0.0000000000000000e+00  1.1434652806379843e-05 -8.1102268554862850e-07 0.0000000000000000e+00 -8.1102268554862850e-07 1.1988478987908862e-05 0.0000000000000000e+00 0.0000000000000000e+00 0.0000000000000000e+00 0.0000000000000000e+00  1.1372996240627849e-05 -7.5148134767261956e-07 0.0000000000000000e+00 -7.5148134767261956e-07 1.2117852490134761e-05 0.0000000000000000e+00 0.0000000000000000e+00 0.0000000000000000e+00 0.0000000000000000e+00  1.1319698201442831e-05 -6.8691693807399582e-07 0.0000000000000000e+00 -6.8691693807399582e-07 1.2230803456231630e-05 0.0000000000000000e+00 0.0000000000000000e+00 0.0000000000000000e+00 0.0000000000000000e+00  1.1272788792328279e-05 -6.1852375573624112e-07 0.0000000000000000e+00 -6.1852375573624112e-07 1.2328139092629509e-05 0.0000000000000000e+00 0.0000000000000000e+00 0.0000000000000000e+00 0.0000000000000000e+00  1.1230734581342993e-05 -5.4633061739270603e-07 0.0000000000000000e+00 -5.4633061739270603e-07 1.2410340572975674e-05 0.0000000000000000e+00 0.0000000000000000e+00 0.0000000000000000e+00 0.0000000000000000e+00  1.1192777217267982e-05 -4.6963812004315720e-07 0.0000000000000000e+00 -4.6963812004315720e-07 1.2477090112888330e-05 0.0000000000000000e+00 0.0000000000000000e+00 0.0000000000000000e+00 0.0000000000000000e+00  1.1159061472055852e-05 -3.8754631529118788e-07 0.0000000000000000e+00 -3.8754631529118788e-07 1.2527067634691591e-05 0.0000000000000000e+00 0.0000000000000000e+00 0.0000000000000000e+00 0.0000000000000000e+00  1.1130570343507553e-05 -2.9946014484879557e-07 0.0000000000000000e+00 -2.9946014484879557e-07 1.2558002179589295e-05 0.0000000000000000e+00 0.0000000000000000e+00 0.0000000000000000e+00 0.0000000000000000e+00  1.1108919887450351e-05 -2.0549323543671463e-07 0.0000000000000000e+00 -2.0549323543671463e-07 1.2566916648244542e-05 0.0000000000000000e+00 0.0000000000000000e+00 0.0000000000000000e+00 0.0000000000000000e+00  1.1096078451587147e-05 -1.0673144774826173e-07 0.0000000000000000e+00 -1.0673144774826173e-07 1.2550486185471272e-05 0.0000000000000000e+00 0.0000000000000000e+00 0.0000000000000000e+00 0.0000000000000000e+00  1.1094068147891758e-05 -5.3523024819195583e-09 0.0000000000000000e+00 -5.3523024819195583e-09 1.2505436042116031e-05 0.0000000000000000e+00 0.0000000000000000e+00 0.0000000000000000e+00 0.0000000000000000e+00  1.1104688955634293e-05 9.5382215729575205e-08 0.0000000000000000e+00 9.5382215729575205e-08 1.2428924307200039e-05 0.0000000000000000e+00 0.0000000000000000e+00 0.0000000000000000e+00 0.0000000000000000e+00  1.1129286135211209e-05 1.9123495364670263e-07 0.0000000000000000e+00 1.9123495364670263e-07 1.2318878330482262e-05 0.0000000000000000e+00 0.0000000000000000e+00 0.0000000000000000e+00 0.0000000000000000e+00  1.1168565752047870e-05 2.7718445410309361e-07 0.0000000000000000e+00 2.7718445410309361e-07 1.2174273270457846e-05 0.0000000000000000e+00 0.0000000000000000e+00 0.0000000000000000e+00 0.0000000000000000e+00  1.1222454252253349e-05 3.4768646777742929e-07 0.0000000000000000e+00 3.4768646777742929e-07 1.1995352737678711e-05 0.0000000000000000e+00 0.0000000000000000e+00 0.0000000000000000e+00 0.0000000000000000e+00  1.1289997204966053e-05 3.9700504840337198e-07 0.0000000000000000e+00 3.9700504840337198e-07 1.1783793222023261e-05 0.0000000000000000e+00 0.0000000000000000e+00 0.0000000000000000e+00 0.0000000000000000e+00  1.1369366422937881e-05 4.1965246422198650e-07 0.0000000000000000e+00 4.1965246422198650e-07 1.1542744668535818e-05 0.0000000000000000e+00 0.0000000000000000e+00 0.0000000000000000e+00 0.0000000000000000e+00  1.2079583041947259e-05 4.7367302874112853e-07 0.0000000000000000e+00 4.7367302874112853e-07 1.1854276523487221e-05 0.0000000000000000e+00 0.0000000000000000e+00 0.0000000000000000e+00 0.0000000000000000e+00  1.2182638813828769e-05 4.4493692498343916e-07 0.0000000000000000e+00 4.4493692498343916e-07 1.1539162475454979e-05 0.0000000000000000e+00 0.0000000000000000e+00 0.0000000000000000e+00 0.0000000000000000e+00  1.2268279751819890e-05 3.7254096024015196e-07 0.0000000000000000e+00 3.7254096024015196e-07 1.1263750887364315e-05 0.0000000000000000e+00 0.0000000000000000e+00 0.0000000000000000e+00 0.0000000000000000e+00  1.2332034265267722e-05 2.6538116359519147e-07 0.0000000000000000e+00 2.6538116359519147e-07 1.1035786789162035e-05 0.0000000000000000e+00 0.0000000000000000e+00 0.0000000000000000e+00 0.0000000000000000e+00  1.2370965192775142e-05 1.3333763584265815e-07 0.0000000000000000e+00 1.3333763584265815e-07 1.0860466627887385e-05 0.0000000000000000e+00 0.0000000000000000e+00 0.0000000000000000e+00 0.0000000000000000e+00  1.2383840213972746e-05 -1.3524042670015639e-08 0.0000000000000000e+00 -1.3524042670015639e-08 1.0740205187898968e-05 0.0000000000000000e+00 0.0000000000000000e+00 0.0000000000000000e+00 0.0000000000000000e+00  1.2371002275998528e-05 -1.6560178086305142e-07 0.0000000000000000e+00 -1.6560178086305142e-07 1.0674765266421572e-05 0.0000000000000000e+00 0.0000000000000000e+00 0.0000000000000000e+00 0.0000000000000000e+00  1.2334139544500942e-05 -3.1423317383026778e-07 0.0000000000000000e+00 -3.1423317383026778e-07 1.0661550642975029e-05 0.0000000000000000e+00 0.0000000000000000e+00 0.0000000000000000e+00 0.0000000000000000e+00  1.2276031758397948e-05 -4.5200300366656370e-07 0.0000000000000000e+00 -4.5200300366656370e-07 1.0695967339386209e-05 0.0000000000000000e+00 0.0000000000000000e+00 0.0000000000000000e+00 0.0000000000000000e+00  1.2200314605540976e-05 -5.7293667749466640e-07 0.0000000000000000e+00 -5.7293667749466640e-07 1.0771796689673638e-05 0.0000000000000000e+00 0.0000000000000000e+00 0.0000000000000000e+00 0.0000000000000000e+00  1.2111255387364197e-05 -6.7263788740307771e-07 0.0000000000000000e+00 -6.7263788740307771e-07 1.0881579841149316e-05 0.0000000000000000e+00 0.0000000000000000e+00 0.0000000000000000e+00 0.0000000000000000e+00  1.2013502650649443e-05 -7.4839294387913552e-07 0.0000000000000000e+00 -7.4839294387913552e-07 1.1017049197470113e-05 0.0000000000000000e+00 0.0000000000000000e+00 0.0000000000000000e+00 0.0000000000000000e+00  1.1911776648774374e-05 -7.9921615705728046e-07 0.0000000000000000e+00 -7.9921615705728046e-07 1.1169636936900076e-05 0.0000000000000000e+00 0.0000000000000000e+00 0.0000000000000000e+00 0.0000000000000000e+00  1.1810502543458250e-05 -8.2578085965876084e-07 0.0000000000000000e+00 -8.2578085965876084e-07 1.1331048582324220e-05 0.0000000000000000e+00 0.0000000000000000e+00 0.0000000000000000e+00 0.0000000000000000e+00  1.1713433721214942e-05 -8.3018736624470308e-07 0.0000000000000000e+00 -8.3018736624470308e-07 1.1493835404425121e-05 0.0000000000000000e+00 0.0000000000000000e+00 0.0000000000000000e+00 0.0000000000000000e+00  1.1623343476607479e-05 -8.1556030621320240e-07 0.0000000000000000e+00 -8.1556030621320240e-07 1.1651863578770730e-05 0.0000000000000000e+00 0.0000000000000000e+00 0.0000000000000000e+00 0.0000000000000000e+00  1.1541862959772348e-05 -7.8552394882993917e-07 0.0000000000000000e+00 -7.8552394882993917e-07 1.1800580712773008e-05 0.0000000000000000e+00 0.0000000000000000e+00 0.0000000000000000e+00 0.0000000000000000e+00  1.1469510779442345e-05 -7.4364957168182849e-07 0.0000000000000000e+00 -7.4364957168182849e-07 1.1937022613013229e-05 0.0000000000000000e+00 0.0000000000000000e+00 0.0000000000000000e+00 0.0000000000000000e+00  1.1405908708888447e-05 -6.9298418312676513e-07 0.0000000000000000e+00 -6.9298418312676513e-07 1.2059568047071013e-05 0.0000000000000000e+00 0.0000000000000000e+00 0.0000000000000000e+00 0.0000000000000000e+00  1.1350129027398517e-05 -6.3574999579681617e-07 0.0000000000000000e+00 -6.3574999579681617e-07 1.2167511503821506e-05 0.0000000000000000e+00 0.0000000000000000e+00 0.0000000000000000e+00 0.0000000000000000e+00  1.1301089545966524e-05 -5.7325862084057687e-07 0.0000000000000000e+00 -5.7325862084057687e-07 1.2260561995425407e-05 0.0000000000000000e+00 0.0000000000000000e+00 0.0000000000000000e+00 0.0000000000000000e+00  1.1257909881479759e-05 -5.0603098634760291e-07 0.0000000000000000e+00 -5.0603098634760291e-07 1.2338380220418331e-05 0.0000000000000000e+00 0.0000000000000000e+00 0.0000000000000000e+00 0.0000000000000000e+00  1.1220163602487361e-05 -4.3407107801177144e-07 0.0000000000000000e+00 -4.3407107801177144e-07 1.2400240937023359e-05 0.0000000000000000e+00 0.0000000000000000e+00 0.0000000000000000e+00 0.0000000000000000e+00  1.1187994661343966e-05 -3.5721936157322010e-07 0.0000000000000000e+00 -3.5721936157322010e-07 1.2444865354707203e-05 0.0000000000000000e+00 0.0000000000000000e+00 0.0000000000000000e+00 0.0000000000000000e+00  1.1162100605053540e-05 -2.7551159505103953e-07 0.0000000000000000e+00 -2.7551159505103953e-07 1.2470425116289657e-05 0.0000000000000000e+00 0.0000000000000000e+00 0.0000000000000000e+00 0.0000000000000000e+00  1.1143610123986919e-05 -1.8948483597734845e-07 0.0000000000000000e+00 -1.8948483597734845e-07 1.2474686706023889e-05 0.0000000000000000e+00 0.0000000000000000e+00 0.0000000000000000e+00 0.0000000000000000e+00  1.1133894605133633e-05 -1.0039572685980264e-07 0.0000000000000000e+00 -1.0039572685980264e-07 1.2455248121930405e-05 0.0000000000000000e+00 0.0000000000000000e+00 0.0000000000000000e+00 0.0000000000000000e+00  1.1134353497915185e-05 -1.0338189604068694e-08 0.0000000000000000e+00 -1.0338189604068694e-08 1.2409817569688096e-05 0.0000000000000000e+00 0.0000000000000000e+00 0.0000000000000000e+00 0.0000000000000000e+00  1.1146205467322833e-05 7.7736904232696705e-08 0.0000000000000000e+00 7.7736904232696705e-08 1.2336492167517089e-05 0.0000000000000000e+00 0.0000000000000000e+00 0.0000000000000000e+00 0.0000000000000000e+00  1.1170306273763691e-05 1.6009043589129051e-07 0.0000000000000000e+00 1.6009043589129051e-07 1.2234007473521510e-05 0.0000000000000000e+00 0.0000000000000000e+00 0.0000000000000000e+00 0.0000000000000000e+00  1.1207004014495347e-05 2.3234245244499146e-07 0.0000000000000000e+00 2.3234245244499146e-07 1.2101941199236112e-05 0.0000000000000000e+00 0.0000000000000000e+00 0.0000000000000000e+00 0.0000000000000000e+00  1.1256035146424422e-05 2.8969251197145700e-07 0.0000000000000000e+00 2.8969251197145700e-07 1.1940863695619521e-05 0.0000000000000000e+00 0.0000000000000000e+00 0.0000000000000000e+00 0.0000000000000000e+00  1.1316461597184343e-05 3.2721122012280004e-07 0.0000000000000000e+00 3.2721122012280004e-07 1.1752432160666467e-05 0.0000000000000000e+00 0.0000000000000000e+00 0.0000000000000000e+00 0.0000000000000000e+00  1.1386702554082451e-05 3.4023003586817774e-07 0.0000000000000000e+00 3.4023003586817774e-07 1.1539376980158045e-05 0.0000000000000000e+00 0.0000000000000000e+00 0.0000000000000000e+00 0.0000000000000000e+00  1.2045651886780966e-05 3.7178096680738473e-07 0.0000000000000000e+00 3.7178096680738473e-07 1.1853286503956049e-05 0.0000000000000000e+00 0.0000000000000000e+00 0.0000000000000000e+00 0.0000000000000000e+00  1.2134095542396297e-05 3.5616530864004734e-07 0.0000000000000000e+00 3.5616530864004734e-07 1.1583085282027716e-05 0.0000000000000000e+00 0.0000000000000000e+00 0.0000000000000000e+00 0.0000000000000000e+00  1.2208395883959091e-05 3.0181924882644016e-07 0.0000000000000000e+00 3.0181924882644016e-07 1.1344968993656776e-05 0.0000000000000000e+00 0.0000000000000000e+00 0.0000000000000000e+00 0.0000000000000000e+00  1.2264736220371379e-05 2.1627242242264060e-07 0.0000000000000000e+00 2.1627242242264060e-07 1.1145502584067560e-05 0.0000000000000000e+00 0.0000000000000000e+00 0.0000000000000000e+00 0.0000000000000000e+00  1.2300435202103880e-05 1.0789685732303338e-07 0.0000000000000000e+00 1.0789685732303338e-07 1.0989360180358425e-05 0.0000000000000000e+00 0.0000000000000000e+00 0.0000000000000000e+00 0.0000000000000000e+00  1.2314133015776807e-05 -1.4736426109707001e-08 0.0000000000000000e+00 -1.4736426109707001e-08 1.0879077676154549e-05 0.0000000000000000e+00 0.0000000000000000e+00 0.0000000000000000e+00 0.0000000000000000e+00  1.2305760628614708e-05 -1.4338448672896018e-07 0.0000000000000000e+00 -1.4338448672896018e-07 1.0815058673747226e-05 0.0000000000000000e+00 0.0000000000000000e+00 0.0000000000000000e+00 0.0000000000000000e+00  1.2276420648076075e-05 -2.7054315797840088e-07 0.0000000000000000e+00 -2.7054315797840088e-07 1.0795715141722896e-05 0.0000000000000000e+00 0.0000000000000000e+00 0.0000000000000000e+00 0.0000000000000000e+00  1.2228216097917684e-05 -3.8973797243817173e-07 0.0000000000000000e+00 -3.8973797243817173e-07 1.0817700514177339e-05 0.0000000000000000e+00 0.0000000000000000e+00 0.0000000000000000e+00 0.0000000000000000e+00  1.2164053754519893e-05 -4.9571827154943551e-07 0.0000000000000000e+00 -4.9571827154943551e-07 1.0876200814578766e-05 0.0000000000000000e+00 0.0000000000000000e+00 0.0000000000000000e+00 0.0000000000000000e+00  1.2087429012655057e-05 -5.8458168009571146e-07 0.0000000000000000e+00 -5.8458168009571146e-07 1.0965270357999076e-05 0.0000000000000000e+00 0.0000000000000000e+00 0.0000000000000000e+00 0.0000000000000000e+00  1.2002185354556212e-05 -6.5384082730000898e-07 0.0000000000000000e+00 -6.5384082730000898e-07 1.1078213628712886e-05 0.0000000000000000e+00 0.0000000000000000e+00 0.0000000000000000e+00 0.0000000000000000e+00  1.1912243104884614e-05 -7.0242234956059013e-07 0.0000000000000000e+00 -7.0242234956059013e-07 1.1208012186063482e-05 0.0000000000000000e+00 0.0000000000000000e+00 0.0000000000000000e+00 0.0000000000000000e+00  1.1821308465699553e-05 -7.3057501267131674e-07 0.0000000000000000e+00 -7.3057501267131674e-07 1.1347775745529687e-05 0.0000000000000000e+00 0.0000000000000000e+00 0.0000000000000000e+00 0.0000000000000000e+00  1.1732595239580374e-05 -7.3966868962624525e-07 0.0000000000000000e+00 -7.3966868962624525e-07 1.1491171384986669e-05 0.0000000000000000e+00 0.0000000000000000e+00 0.0000000000000000e+00 0.0000000000000000e+00  1.1648605653359243e-05 -7.3188829813302180e-07 0.0000000000000000e+00 -7.3188829813302180e-07 1.1632769146560227e-05 0.0000000000000000e+00 0.0000000000000000e+00 0.0000000000000000e+00 0.0000000000000000e+00  1.1571014525340738e-05 -7.0985698466970861e-07 0.0000000000000000e+00 -7.0985698466970861e-07 1.1768246616097853e-05 0.0000000000000000e+00 0.0000000000000000e+00 0.0000000000000000e+00 0.0000000000000000e+00  1.1500681759038936e-05 -6.7624745838257352e-07 0.0000000000000000e+00 -6.7624745838257352e-07 1.1894420319417221e-05 0.0000000000000000e+00 0.0000000000000000e+00 0.0000000000000000e+00 0.0000000000000000e+00  1.1437788602924921e-05 -6.3344882671065273e-07 0.0000000000000000e+00 -6.3344882671065273e-07 1.2009109546223256e-05 0.0000000000000000e+00 0.0000000000000000e+00 0.0000000000000000e+00 0.0000000000000000e+00  1.1382064097986034e-05 -5.8334519342508722e-07 0.0000000000000000e+00 -5.8334519342508722e-07 1.2110875189889059e-05 0.0000000000000000e+00 0.0000000000000000e+00 0.0000000000000000e+00 0.0000000000000000e+00  1.1333049425735633e-05 -5.2723611914783981e-07 0.0000000000000000e+00 -5.2723611914783981e-07 1.2198700302812196e-05 0.0000000000000000e+00 0.0000000000000000e+00 0.0000000000000000e+00 0.0000000000000000e+00  1.1290344418932084e-05 -4.6589725280161641e-07 0.0000000000000000e+00 -4.6589725280161641e-07 1.2271684129186356e-05 0.0000000000000000e+00 0.0000000000000000e+00 0.0000000000000000e+00 0.0000000000000000e+00  1.1253791317305700e-05 -3.9975199557365735e-07 0.0000000000000000e+00 -3.9975199557365735e-07 1.2328808478044582e-05 0.0000000000000000e+00 0.0000000000000000e+00 0.0000000000000000e+00 0.0000000000000000e+00  1.1223570519842776e-05 -3.2910872081279802e-07 0.0000000000000000e+00 -3.2910872081279802e-07 1.2368811007600602e-05 0.0000000000000000e+00 0.0000000000000000e+00 0.0000000000000000e+00 0.0000000000000000e+00  1.1200204621272779e-05 -2.5441473180968760e-07 0.0000000000000000e+00 -2.5441473180968760e-07 1.2390172884717771e-05 0.0000000000000000e+00 0.0000000000000000e+00 0.0000000000000000e+00 0.0000000000000000e+00  1.1184484599166789e-05 -1.7648535511373916e-07 0.0000000000000000e+00 -1.7648535511373916e-07 1.2391205631540049e-05 0.0000000000000000e+00 0.0000000000000000e+00 0.0000000000000000e+00 0.0000000000000000e+00  1.1177342520490320e-05 -9.6679494831556312e-08 0.0000000000000000e+00 -9.6679494831556312e-08 1.2370207818728042e-05 0.0000000000000000e+00 0.0000000000000000e+00 0.0000000000000000e+00 0.0000000000000000e+00  1.1179698298423684e-05 -1.7006530265200070e-08 0.0000000000000000e+00 -1.7006530265200070e-08 1.2325657189578586e-05 0.0000000000000000e+00 0.0000000000000000e+00 0.0000000000000000e+00 0.0000000000000000e+00  1.1192305590876076e-05 5.9840116931182966e-08 0.0000000000000000e+00 5.9840116931182966e-08 1.2256405893191580e-05 0.0000000000000000e+00 0.0000000000000000e+00 0.0000000000000000e+00 0.0000000000000000e+00  1.1215616412683126e-05 1.3052179847052174e-07 0.0000000000000000e+00 1.3052179847052174e-07 1.2161852817586308e-05 0.0000000000000000e+00 0.0000000000000000e+00 0.0000000000000000e+00 0.0000000000000000e+00  1.1249677677291484e-05 1.9116381116409694e-07 0.0000000000000000e+00 1.9116381116409694e-07 1.2042074826552072e-05 0.0000000000000000e+00 0.0000000000000000e+00 0.0000000000000000e+00 0.0000000000000000e+00  1.1294067041798254e-05 2.3753451526358279e-07 0.0000000000000000e+00 2.3753451526358279e-07 1.1897906285883659e-05 0.0000000000000000e+00 0.0000000000000000e+00 0.0000000000000000e+00 0.0000000000000000e+00  1.1347870610483575e-05 2.6529563228284422e-07 0.0000000000000000e+00 2.6529563228284422e-07 1.1730962831711571e-05 0.0000000000000000e+00 0.0000000000000000e+00 0.0000000000000000e+00 0.0000000000000000e+00  1.1409739984145505e-05 2.7034770344186063e-07 0.0000000000000000e+00 2.7034770344186063e-07 1.1543575207731910e-05 0.0000000000000000e+00 0.0000000000000000e+00 0.0000000000000000e+00 0.0000000000000000e+00  1.2006330260081457e-05 2.8489661287074448e-07 0.0000000000000000e+00 2.8489661287074448e-07 1.1843098323530380e-05 0.0000000000000000e+00 0.0000000000000000e+00 0.0000000000000000e+00 0.0000000000000000e+00  1.2081811446694434e-05 2.7980609519824953e-07 0.0000000000000000e+00 2.7980609519824953e-07 1.1612763317911635e-05 0.0000000000000000e+00 0.0000000000000000e+00 0.0000000000000000e+00 0.0000000000000000e+00  1.2145986546623031e-05 2.4008865166147710e-07 0.0000000000000000e+00 2.4008865166147710e-07 1.1407980015110295e-05 0.0000000000000000e+00 0.0000000000000000e+00 0.0000000000000000e+00 0.0000000000000000e+00  1.2195610248513788e-05 1.7229028888197978e-07 0.0000000000000000e+00 1.7229028888197978e-07 1.1234316976807716e-05 0.0000000000000000e+00 0.0000000000000000e+00 0.0000000000000000e+00 0.0000000000000000e+00  1.2228246049824416e-05 8.3650865217837034e-08 0.0000000000000000e+00 8.3650865217837034e-08 1.1096006597592798e-05 0.0000000000000000e+00 0.0000000000000000e+00 0.0000000000000000e+00 0.0000000000000000e+00  1.2242470107304270e-05 -1.8443746792742650e-08 0.0000000000000000e+00 -1.8443746792742650e-08 1.0995666796787953e-05 0.0000000000000000e+00 0.0000000000000000e+00 0.0000000000000000e+00 0.0000000000000000e+00  1.2237909184927079e-05 -1.2689396881982867e-07 0.0000000000000000e+00 -1.2689396881982867e-07 1.0934212012324269e-05 0.0000000000000000e+00 0.0000000000000000e+00 0.0000000000000000e+00 0.0000000000000000e+00  1.2215196092939335e-05 -2.3522387882426750e-07 0.0000000000000000e+00 -2.3522387882426750e-07 1.0910884211808866e-05 0.0000000000000000e+00 0.0000000000000000e+00 0.0000000000000000e+00 0.0000000000000000e+00  1.2175859637265727e-05 -3.3782585837589110e-07 0.0000000000000000e+00 -3.3782585837589110e-07 1.0923387045449183e-05 0.0000000000000000e+00 0.0000000000000000e+00 0.0000000000000000e+00 0.0000000000000000e+00  1.2122168369800134e-05 -4.3012555023683211e-07 0.0000000000000000e+00 -4.3012555023683211e-07 1.0968099932672020e-05 0.0000000000000000e+00 0.0000000000000000e+00 0.0000000000000000e+00 0.0000000000000000e+00  1.2056941364425062e-05 -5.0868133171284190e-07 0.0000000000000000e+00 -5.0868133171284190e-07 1.1040353299444821e-05 0.0000000000000000e+00 0.0000000000000000e+00 0.0000000000000000e+00 0.0000000000000000e+00  1.1983333440258240e-05 -5.7122513131882525e-07 0.0000000000000000e+00 -5.7122513131882525e-07 1.1134751185135596e-05 0.0000000000000000e+00 0.0000000000000000e+00 0.0000000000000000e+00 0.0000000000000000e+00  1.1904602577026726e-05 -6.1664146359935364e-07 0.0000000000000000e+00 -6.1664146359935364e-07 1.1245525968977493e-05 0.0000000000000000e+00 0.0000000000000000e+00 0.0000000000000000e+00 0.0000000000000000e+00  1.1823874158050677e-05 -6.4487624137717875e-07 0.0000000000000000e+00 -6.4487624137717875e-07 1.1366901406263474e-05 0.0000000000000000e+00 0.0000000000000000e+00 0.0000000000000000e+00 0.0000000000000000e+00  1.1743925817621218e-05 -6.5677080877967031e-07 0.0000000000000000e+00 -6.5677080877967031e-07 1.1493429566469038e-05 0.0000000000000000e+00 0.0000000000000000e+00 0.0000000000000000e+00 0.0000000000000000e+00  1.1667021912090632e-05 -6.5382935067034161e-07 0.0000000000000000e+00 -6.5382935067034161e-07 1.1620261873340247e-05 0.0000000000000000e+00 0.0000000000000000e+00 0.0000000000000000e+00 0.0000000000000000e+00  1.1594823458994043e-05 -6.3794440322482318e-07 0.0000000000000000e+00 -6.3794440322482318e-07 1.1743319539978322e-05 0.0000000000000000e+00 0.0000000000000000e+00 0.0000000000000000e+00 0.0000000000000000e+00  1.1528387184332851e-05 -6.1111859217103931e-07 0.0000000000000000e+00 -6.1111859217103931e-07 1.1859344845732088e-05 0.0000000000000000e+00 0.0000000000000000e+00 0.0000000000000000e+00 0.0000000000000000e+00  1.1468249538345786e-05 -5.7522518852962621e-07 0.0000000000000000e+00 -5.7522518852962621e-07 1.1965837595376265e-05 0.0000000000000000e+00 0.0000000000000000e+00 0.0000000000000000e+00 0.0000000000000000e+00  1.1414573951467465e-05 -5.3184349909501948e-07 0.0000000000000000e+00 -5.3184349909501948e-07 1.2060903629343742e-05 0.0000000000000000e+00 0.0000000000000000e+00 0.0000000000000000e+00 0.0000000000000000e+00  1.1367327704011401e-05 -4.8218961694325254e-07 0.0000000000000000e+00 -4.8218961694325254e-07 1.2143057646028774e-05 0.0000000000000000e+00 0.0000000000000000e+00 0.0000000000000000e+00 0.0000000000000000e+00  1.1326451688349986e-05 -4.2714367677837065e-07 0.0000000000000000e+00 -4.2714367677837065e-07 1.2211026987739677e-05 0.0000000000000000e+00 0.0000000000000000e+00 0.0000000000000000e+00 0.0000000000000000e+00  1.1291991963850742e-05 -3.6735717037389054e-07 0.0000000000000000e+00 -3.6735717037389054e-07 1.2263596471096062e-05 0.0000000000000000e+00 0.0000000000000000e+00 0.0000000000000000e+00 0.0000000000000000e+00  1.1264173634359321e-05 -3.0341230482006086e-07 0.0000000000000000e+00 -3.0341230482006086e-07 1.2299520075778423e-05 0.0000000000000000e+00 0.0000000000000000e+00 0.0000000000000000e+00 0.0000000000000000e+00  1.1243411318866801e-05 -2.3600147146958068e-07 0.0000000000000000e+00 -2.3600147146958068e-07 1.2317508112217001e-05 0.0000000000000000e+00 0.0000000000000000e+00 0.0000000000000000e+00 0.0000000000000000e+00  1.1230262771541330e-05 -1.6609772994436352e-07 0.0000000000000000e+00 -1.6609772994436352e-07 1.2316282804710706e-05 0.0000000000000000e+00 0.0000000000000000e+00 0.0000000000000000e+00 0.0000000000000000e+00  1.1225340807269921e-05 -9.5094228183177106e-08 0.0000000000000000e+00 -9.5094228183177106e-08 1.2294683918522809e-05 0.0000000000000000e+00 0.0000000000000000e+00 0.0000000000000000e+00 0.0000000000000000e+00  1.1229202976064357e-05 -2.4898612719487102e-08 0.0000000000000000e+00 -2.4898612719487102e-08 1.2251800074042804e-05 0.0000000000000000e+00 0.0000000000000000e+00 0.0000000000000000e+00 0.0000000000000000e+00  1.1242239023473376e-05 4.2024837148470197e-08 0.0000000000000000e+00 4.2024837148470197e-08 1.2187100151202226e-05 0.0000000000000000e+00 0.0000000000000000e+00 0.0000000000000000e+00 0.0000000000000000e+00  1.1264574256186888e-05 1.0266890064857166e-07 0.0000000000000000e+00 1.0266890064857166e-07 1.2100541388414259e-05 0.0000000000000000e+00 0.0000000000000000e+00 0.0000000000000000e+00 0.0000000000000000e+00  1.1296003537170216e-05 1.5355599966153302e-07 0.0000000000000000e+00 1.5355599966153302e-07 1.1992635221905290e-05 0.0000000000000000e+00 0.0000000000000000e+00 0.0000000000000000e+00 0.0000000000000000e+00  1.1335966137414440e-05 1.9087456841292519e-07 0.0000000000000000e+00 1.9087456841292519e-07 1.1864458107782113e-05 0.0000000000000000e+00 0.0000000000000000e+00 0.0000000000000000e+00 0.0000000000000000e+00  1.1383565707281613e-05 2.1068635412810164e-07 0.0000000000000000e+00 2.1068635412810164e-07 1.1717602886905343e-05 0.0000000000000000e+00 0.0000000000000000e+00 0.0000000000000000e+00 0.0000000000000000e+00  1.1437657706899105e-05 2.0923381771096529e-07 0.0000000000000000e+00 2.0923381771096529e-07 1.1554053253954182e-05 0.0000000000000000e+00 0.0000000000000000e+00 0.0000000000000000e+00 0.0000000000000000e+00  1.1962752981944046e-05 2.1137810479004397e-07 0.0000000000000000e+00 2.1137810479004397e-07 1.1825641760494782e-05 0.0000000000000000e+00 0.0000000000000000e+00 0.0000000000000000e+00 0.0000000000000000e+00  1.2026614205335153e-05 2.1452498921169559e-07 0.0000000000000000e+00 2.1452498921169559e-07 1.1631079027232911e-05 0.0000000000000000e+00 0.0000000000000000e+00 0.0000000000000000e+00 0.0000000000000000e+00  1.2081709159290378e-05 1.8642908118738088e-07 0.0000000000000000e+00 1.8642908118738088e-07 1.1456260550138009e-05 0.0000000000000000e+00 0.0000000000000000e+00 0.0000000000000000e+00 0.0000000000000000e+00  1.2125275632721157e-05 1.3299160718293432e-07 0.0000000000000000e+00 1.3299160718293432e-07 1.1305940801456126e-05 0.0000000000000000e+00 0.0000000000000000e+00 0.0000000000000000e+00 0.0000000000000000e+00  1.2155078232482222e-05 6.0627383882973975e-08 0.0000000000000000e+00 6.0627383882973975e-08 1.1184035726743150e-05 0.0000000000000000e+00 0.0000000000000000e+00 0.0000000000000000e+00 0.0000000000000000e+00  1.2169644420747621e-05 -2.4213397340336469e-08 0.0000000000000000e+00 -2.4213397340336469e-08 1.1093281124278691e-05 0.0000000000000000e+00 0.0000000000000000e+00 0.0000000000000000e+00 0.0000000000000000e+00  1.2168360412926801e-05 -1.1539108916268731e-07 0.0000000000000000e+00 -1.1539108916268731e-07 1.1035051948665052e-05 0.0000000000000000e+00 0.0000000000000000e+00 0.0000000000000000e+00 0.0000000000000000e+00  1.2151480209156073e-05 -2.0733430953091245e-07 0.0000000000000000e+00 -2.0733430953091245e-07 1.1009304756055225e-05 0.0000000000000000e+00 0.0000000000000000e+00 0.0000000000000000e+00 0.0000000000000000e+00  1.2120059337414172e-05 -2.9522326981084756e-07 0.0000000000000000e+00 -2.9522326981084756e-07 1.1014634360671568e-05 0.0000000000000000e+00 0.0000000000000000e+00 0.0000000000000000e+00 0.0000000000000000e+00  1.2075831765855126e-05 -3.7511132422736012e-07 0.0000000000000000e+00 -3.7511132422736012e-07 1.1048423686737214e-05 0.0000000000000000e+00 0.0000000000000000e+00 0.0000000000000000e+00 0.0000000000000000e+00  1.2021047473483736e-05 -4.4399401535945760e-07 0.0000000000000000e+00 -4.4399401535945760e-07 1.1107063913492661e-05 0.0000000000000000e+00 0.0000000000000000e+00 0.0000000000000000e+00 0.0000000000000000e+00  1.1958285179003157e-05 -4.9982962863285661e-07 0.0000000000000000e+00 -4.9982962863285661e-07 1.1186223466154561e-05 0.0000000000000000e+00 0.0000000000000000e+00 0.0000000000000000e+00 0.0000000000000000e+00  1.1890253724614504e-05 -5.4151032774248209e-07 0.0000000000000000e+00 -5.4151032774248209e-07 1.1281144416695293e-05 0.0000000000000000e+00 0.0000000000000000e+00 0.0000000000000000e+00 0.0000000000000000e+00  1.1819597460141028e-05 -5.6878120590341926e-07 0.0000000000000000e+00 -5.6878120590341926e-07 1.1386942272297343e-05 0.0000000000000000e+00 0.0000000000000000e+00 0.0000000000000000e+00 0.0000000000000000e+00  1.1748723820523853e-05 -5.8210783211148165e-07 0.0000000000000000e+00 -5.8210783211148165e-07 1.1498881993688878e-05 0.0000000000000000e+00 0.0000000000000000e+00 0.0000000000000000e+00 0.0000000000000000e+00  1.1679672122162447e-05 -5.8250059248144819e-07 0.0000000000000000e+00 -5.8250059248144819e-07 1.1612602830074533e-05 0.0000000000000000e+00 0.0000000000000000e+00 0.0000000000000000e+00 0.0000000000000000e+00  1.1614039095554701e-05 -5.7131359560091314e-07 0.0000000000000000e+00 -5.7131359560091314e-07 1.1724269797721737e-05 0.0000000000000000e+00 0.0000000000000000e+00 0.0000000000000000e+00 0.0000000000000000e+00  1.1552968459287044e-05 -5.5004336719616765e-07 0.0000000000000000e+00 -5.5004336719616744e-07 1.1830640647743987e-05 0.0000000000000000e+00 0.0000000000000000e+00 0.0000000000000000e+00 0.0000000000000000e+00  1.1497200711574412e-05 -5.2015486420565099e-07 0.0000000000000000e+00 -5.2015486420565089e-07 1.1929051684418026e-05 0.0000000000000000e+00 0.0000000000000000e+00 0.0000000000000000e+00 0.0000000000000000e+00  1.1447168380612016e-05 -4.8295826214047700e-07 0.0000000000000000e+00 -4.8295826214047700e-07 1.2017339958060843e-05 0.0000000000000000e+00 0.0000000000000000e+00 0.0000000000000000e+00 0.0000000000000000e+00  1.1403114333802677e-05 -4.3955056555850581e-07 0.0000000000000000e+00 -4.3955056555850581e-07 1.2093729346650295e-05 0.0000000000000000e+00 0.0000000000000000e+00 0.0000000000000000e+00 0.0000000000000000e+00  1.1365208312465468e-05 -3.9082410405421494e-07 0.0000000000000000e+00 -3.9082410405421494e-07 1.2156711485862959e-05 0.0000000000000000e+00 0.0000000000000000e+00 0.0000000000000000e+00 0.0000000000000000e+00  1.1333639817940477e-05 -3.3753267570604701e-07 0.0000000000000000e+00 -3.3753267570604701e-07 1.2204949143830099e-05 0.0000000000000000e+00 0.0000000000000000e+00 0.0000000000000000e+00 0.0000000000000000e+00  1.1308672481473047e-05 -2.8039810978238985e-07 0.0000000000000000e+00 -2.8039810978238985e-07 1.2237221079439715e-05 0.0000000000000000e+00 0.0000000000000000e+00 0.0000000000000000e+00 0.0000000000000000e+00  1.1290653940754617e-05 -2.2023658809885597e-07 0.0000000000000000e+00 -2.2023658809885597e-07 1.2252416314684704e-05 0.0000000000000000e+00 0.0000000000000000e+00 0.0000000000000000e+00 0.0000000000000000e+00  1.1279983882321398e-05 -1.5808494233500910e-07 0.0000000000000000e+00 -1.5808494233500910e-07 1.2249574752270680e-05 0.0000000000000000e+00 0.0000000000000000e+00 0.0000000000000000e+00 0.0000000000000000e+00  1.1277049806488822e-05 -9.5310967061900438e-08 0.0000000000000000e+00 -9.5310967061900438e-08 1.2227962094139907e-05 0.0000000000000000e+00 0.0000000000000000e+00 0.0000000000000000e+00 0.0000000000000000e+00  1.1282144637015477e-05 -3.3696675790938865e-08 0.0000000000000000e+00 -3.3696675790938865e-08 1.2187160935636535e-05 0.0000000000000000e+00 0.0000000000000000e+00 0.0000000000000000e+00 0.0000000000000000e+00  1.1295382680969308e-05 2.4512441376857442e-08 0.0000000000000000e+00 2.4512441376857442e-08 1.2127156712101555e-05 0.0000000000000000e+00 0.0000000000000000e+00 0.0000000000000000e+00 0.0000000000000000e+00  1.1316631124345925e-05 7.6597098857563425e-08 0.0000000000000000e+00 7.6597098857563399e-08 1.2048396438966047e-05 0.0000000000000000e+00 0.0000000000000000e+00 0.0000000000000000e+00 0.0000000000000000e+00  1.1345473507221126e-05 1.1939863371962465e-07 0.0000000000000000e+00 1.1939863371962465e-07 1.1951799683657333e-05 0.0000000000000000e+00 0.0000000000000000e+00 0.0000000000000000e+00 0.0000000000000000e+00  1.1381219025785234e-05 1.4940763486492353e-07 0.0000000000000000e+00 1.4940763486492353e-07 1.1838705478618782e-05 0.0000000000000000e+00 0.0000000000000000e+00 0.0000000000000000e+00 0.0000000000000000e+00  1.1422965571596686e-05 1.6292188277202210e-07 0.0000000000000000e+00 1.6292188277202210e-07 1.1710747732660585e-05 0.0000000000000000e+00 0.0000000000000000e+00 0.0000000000000000e+00 0.0000000000000000e+00  1.1469726941001287e-05 1.5631637044838806e-07 0.0000000000000000e+00 1.5631637044838806e-07 1.1569654655357189e-05 0.0000000000000000e+00 0.0000000000000000e+00 0.0000000000000000e+00 0.0000000000000000e+00  1.1915901907687445e-05 1.4993970712341469e-07 0.0000000000000000e+00 1.4993970712341469e-07 1.1802651405742553e-05 0.0000000000000000e+00 0.0000000000000000e+00 0.0000000000000000e+00 0.0000000000000000e+00  1.1969203884161180e-05 1.5921878073899637e-07 0.0000000000000000e+00 1.5921878073899637e-07 1.1640614304264191e-05 0.0000000000000000e+00 0.0000000000000000e+00 0.0000000000000000e+00 0.0000000000000000e+00  1.2016095983242470e-05 1.4002921259030395e-07 0.0000000000000000e+00 1.4002921259030395e-07 1.1492888802866601e-05 0.0000000000000000e+00 0.0000000000000000e+00 0.0000000000000000e+00 0.0000000000000000e+00  1.2054188776752512e-05 9.7942152951716148e-08 0.0000000000000000e+00 9.7942152951716148e-08 1.1363641853643441e-05 0.0000000000000000e+00 0.0000000000000000e+00 0.0000000000000000e+00 0.0000000000000000e+00  1.2081377569331660e-05 3.8798461872485711e-08 0.0000000000000000e+00 3.8798461872485711e-08 1.1256654812125067e-05 0.0000000000000000e+00 0.0000000000000000e+00 0.0000000000000000e+00 0.0000000000000000e+00  1.2096130672890610e-05 -3.1696686728639700e-08 0.0000000000000000e+00 -3.1696686728639700e-08 1.1174877033365464e-05 0.0000000000000000e+00 0.0000000000000000e+00 0.0000000000000000e+00 0.0000000000000000e+00  1.2097637660693007e-05 -1.0822308685878935e-07 0.0000000000000000e+00 -1.0822308685878935e-07 1.1120148573112609e-05 0.0000000000000000e+00 0.0000000000000000e+00 0.0000000000000000e+00 0.0000000000000000e+00  1.2085854619420383e-05 -1.8601319150496779e-07 0.0000000000000000e+00 -1.8601319150496779e-07 1.1093069051646668e-05 0.0000000000000000e+00 0.0000000000000000e+00 0.0000000000000000e+00 0.0000000000000000e+00  1.2061463986230889e-05 -2.6096486279708414e-07 0.0000000000000000e+00 -2.6096486279708414e-07 1.1092997195952733e-05 0.0000000000000000e+00 0.0000000000000000e+00 0.0000000000000000e+00 0.0000000000000000e+00  1.2025772370842454e-05 -3.2971348542737783e-07 0.0000000000000000e+00 -3.2971348542737783e-07 1.1118154161948243e-05 0.0000000000000000e+00 0.0000000000000000e+00 0.0000000000000000e+00 0.0000000000000000e+00  1.1980568208979089e-05 -3.8966970997817543e-07 0.0000000000000000e+00 -3.8966970997817543e-07 1.1165802229105205e-05 0.0000000000000000e+00 0.0000000000000000e+00 0.0000000000000000e+00 0.0000000000000000e+00  1.1927957435891336e-05 -4.3902388749079952e-07 0.0000000000000000e+00 -4.3902388749079952e-07 1.1232472650900652e-05 0.0000000000000000e+00 0.0000000000000000e+00 0.0000000000000000e+00 0.0000000000000000e+00  1.1870192599820720e-05 -4.7671553939684400e-07 0.0000000000000000e+00 -4.7671553939684400e-07 1.1314218655098880e-05 0.0000000000000000e+00 0.0000000000000000e+00 0.0000000000000000e+00 0.0000000000000000e+00  1.1809509727208779e-05 -5.0236628225131936e-07 0.0000000000000000e+00 -5.0236628225131936e-07 1.1406870669229080e-05 0.0000000000000000e+00 0.0000000000000000e+00 0.0000000000000000e+00 0.0000000000000000e+00  1.1747986900080039e-05 -5.1617762621433626e-07 0.0000000000000000e+00 -5.1617762621433626e-07 1.1506271631206168e-05 0.0000000000000000e+00 0.0000000000000000e+00 0.0000000000000000e+00 0.0000000000000000e+00  1.1687437295831382e-05 -5.1880029110932274e-07 0.0000000000000000e+00 -5.1880029110932274e-07 1.1608472447588643e-05 0.0000000000000000e+00 0.0000000000000000e+00 0.0000000000000000e+00 0.0000000000000000e+00  1.1629346085742716e-05 -5.1118751055878433e-07 0.0000000000000000e+00 -5.1118751055878433e-07 1.1709872643580837e-05 0.0000000000000000e+00 0.0000000000000000e+00 0.0000000000000000e+00 0.0000000000000000e+00  1.1574854844849766e-05 -4.9444917150811245e-07 0.0000000000000000e+00 -4.9444917150811235e-07 1.1807299165110449e-05 0.0000000000000000e+00 0.0000000000000000e+00 0.0000000000000000e+00 0.0000000000000000e+00  1.1524789922320620e-05 -4.6972487170446882e-07 0.0000000000000000e+00 -4.6972487170446871e-07 1.1898025921596523e-05 0.0000000000000000e+00 0.0000000000000000e+00 0.0000000000000000e+00 0.0000000000000000e+00  1.1479724253790321e-05 -4.3809140056341775e-07 0.0000000000000000e+00 -4.3809140056341775e-07 1.1979745881053083e-05 0.0000000000000000e+00 0.0000000000000000e+00 0.0000000000000000e+00 0.0000000000000000e+00  1.1440057123269713e-05 -4.0051433554813242e-07 0.0000000000000000e+00 -4.0051433554813242e-07 1.2050514172543477e-05 0.0000000000000000e+00 0.0000000000000000e+00 0.0000000000000000e+00 0.0000000000000000e+00  1.1406094566383614e-05 -3.5784594715618139e-07 0.0000000000000000e+00 -3.5784594715618139e-07 1.2108683268745079e-05 0.0000000000000000e+00 0.0000000000000000e+00 0.0000000000000000e+00 0.0000000000000000e+00  1.1378114673500445e-05 -3.1086434220647587e-07 0.0000000000000000e+00 -3.1086434220647587e-07 1.2152849613198220e-05 0.0000000000000000e+00 0.0000000000000000e+00 0.0000000000000000e+00 0.0000000000000000e+00  1.1356406338041122e-05 -2.6034338738040389e-07 0.0000000000000000e+00 -2.6034338738040389e-07 1.2181825811177630e-05 0.0000000000000000e+00 0.0000000000000000e+00 0.0000000000000000e+00 0.0000000000000000e+00  1.1341275810305640e-05 -2.0714034760884302e-07 0.0000000000000000e+00 -2.0714034760884302e-07 1.2194645173692075e-05 0.0000000000000000e+00 0.0000000000000000e+00 0.0000000000000000e+00 0.0000000000000000e+00  1.1333021512755707e-05 -1.5228837403061810e-07 0.0000000000000000e+00 -1.5228837403061810e-07 1.2190597548251608e-05 0.0000000000000000e+00 0.0000000000000000e+00 0.0000000000000000e+00 0.0000000000000000e+00  1.1331883037379131e-05 -9.7083267156056992e-08 0.0000000000000000e+00 -9.7083267156056992e-08 1.2169288182084067e-05 0.0000000000000000e+00 0.0000000000000000e+00 0.0000000000000000e+00 0.0000000000000000e+00  1.1337974690058328e-05 -4.3157141345862534e-08 0.0000000000000000e+00 -4.3157141345862534e-08 1.2130705454102287e-05 0.0000000000000000e+00 0.0000000000000000e+00 0.0000000000000000e+00 0.0000000000000000e+00  1.1351217444363280e-05 7.4656364017629076e-09 0.0000000000000000e+00 7.4656364017629059e-09 1.2075278778084529e-05 0.0000000000000000e+00 0.0000000000000000e+00 0.0000000000000000e+00 0.0000000000000000e+00  1.1371285974941820e-05 5.2333912349709089e-08 0.0000000000000000e+00 5.2333912349709089e-08 1.2003904729908053e-05 0.0000000000000000e+00 0.0000000000000000e+00 0.0000000000000000e+00 0.0000000000000000e+00  1.1397589561058360e-05 8.8562364060973037e-08 0.0000000000000000e+00 8.8562364060973037e-08 1.1917917691233371e-05 0.0000000000000000e+00 0.0000000000000000e+00 0.0000000000000000e+00 0.0000000000000000e+00  1.1429306259645885e-05 1.1286314533224831e-07 0.0000000000000000e+00 1.1286314533224831e-07 1.1818982145891387e-05 0.0000000000000000e+00 0.0000000000000000e+00 0.0000000000000000e+00 0.0000000000000000e+00  1.1465486342724659e-05 1.2163956050272984e-07 0.0000000000000000e+00 1.2163956050272984e-07 1.1708890247228570e-05 0.0000000000000000e+00 0.0000000000000000e+00 0.0000000000000000e+00 0.0000000000000000e+00  1.1505231014402014e-05 1.1120630055381919e-07 0.0000000000000000e+00 1.1120630055381919e-07 1.1589263722947091e-05 0.0000000000000000e+00 0.0000000000000000e+00 0.0000000000000000e+00 0.0000000000000000e+00  1.1866726720611044e-05 9.9626649722880952e-08 0.0000000000000000e+00 9.9626649722880952e-08 1.1775793149968445e-05 0.0000000000000000e+00 0.0000000000000000e+00 0.0000000000000000e+00 0.0000000000000000e+00  1.1910275028826725e-05 1.1299427577574334e-07 0.0000000000000000e+00 1.1299427577574334e-07 1.1643765937632682e-05 0.0000000000000000e+00 0.0000000000000000e+00 0.0000000000000000e+00 0.0000000000000000e+00  1.1949677169670038e-05 1.0020127681775755e-07 0.0000000000000000e+00 1.0020127681775755e-07 1.1520636685653462e-05 0.0000000000000000e+00 0.0000000000000000e+00 0.0000000000000000e+00 0.0000000000000000e+00  1.1982763865482655e-05 6.6774455953366653e-08 0.0000000000000000e+00 6.6774455953366653e-08 1.1410309347935964e-05 0.0000000000000000e+00 0.0000000000000000e+00 0.0000000000000000e+00 0.0000000000000000e+00  1.2007468528522424e-05 1.8166411813768568e-08 0.0000000000000000e+00 1.8166411813768568e-08 1.1316686067793242e-05 0.0000000000000000e+00 0.0000000000000000e+00 0.0000000000000000e+00 0.0000000000000000e+00  1.2022183929866632e-05 -4.0539047695365320e-08 0.0000000000000000e+00 -4.0539047695365320e-08 1.1243075686849428e-05 0.0000000000000000e+00 0.0000000000000000e+00 0.0000000000000000e+00 0.0000000000000000e+00  1.2025949703825035e-05 -1.0475062742812141e-07 0.0000000000000000e+00 -1.0475062742812141e-07 1.1191822515235788e-05 0.0000000000000000e+00 0.0000000000000000e+00 0.0000000000000000e+00 0.0000000000000000e+00  1.2018510972600966e-05 -1.7043265828655702e-07 0.0000000000000000e+00 -1.7043265828655702e-07 1.1164122655903118e-05 0.0000000000000000e+00 0.0000000000000000e+00 0.0000000000000000e+00 0.0000000000000000e+00  1.2000282955457718e-05 -2.3414203646237083e-07 0.0000000000000000e+00 -2.3414203646237083e-07 1.1159991371297611e-05 0.0000000000000000e+00 0.0000000000000000e+00 0.0000000000000000e+00 0.0000000000000000e+00  1.1972254283203900e-05 -2.9305118022014713e-07 0.0000000000000000e+00 -2.9305118022014713e-07 1.1178341911237545e-05 0.0000000000000000e+00 0.0000000000000000e+00 0.0000000000000000e+00 0.0000000000000000e+00  1.1935855126139021e-05 -3.4495810078667404e-07 0.0000000000000000e+00 -3.4495810078667404e-07 1.1217140415635926e-05 0.0000000000000000e+00 0.0000000000000000e+00 0.0000000000000000e+00 0.0000000000000000e+00  1.1892809636627333e-05 -3.8827995481230351e-07 0.0000000000000000e+00 -3.8827995481230351e-07 1.1273607393215761e-05 0.0000000000000000e+00 0.0000000000000000e+00 0.0000000000000000e+00 0.0000000000000000e+00  1.1844987429957379e-05 -4.2202556308297352e-07 0.0000000000000000e+00 -4.2202556308297352e-07 1.1344441313470875e-05 0.0000000000000000e+00 0.0000000000000000e+00 0.0000000000000000e+00 0.0000000000000000e+00  1.1794265998820783e-05 -4.4574396096099364e-07 0.0000000000000000e+00 -4.4574396096099364e-07 1.1426043418134185e-05 0.0000000000000000e+00 0.0000000000000000e+00 0.0000000000000000e+00 0.0000000000000000e+00  1.1742414195020442e-05 -4.5944928201910927e-07 0.0000000000000000e+00 -4.5944928201910927e-07 1.1514725658325906e-05 0.0000000000000000e+00 0.0000000000000000e+00 0.0000000000000000e+00 0.0000000000000000e+00  1.1691005050457816e-05 -4.6352639539398760e-07 0.0000000000000000e+00 -4.6352639539398760e-07 1.1606886845628159e-05 0.0000000000000000e+00 0.0000000000000000e+00 0.0000000000000000e+00 0.0000000000000000e+00  1.1641363375445579e-05 -4.5862573193193339e-07 0.0000000000000000e+00 -4.5862573193193339e-07 1.1699146551518499e-05 0.0000000000000000e+00 0.0000000000000000e+00 0.0000000000000000e+00 0.0000000000000000e+00  1.1594549545956534e-05 -4.4555855176624772e-07 0.0000000000000000e+00 -4.4555855176624772e-07 1.1788432155639044e-05 0.0000000000000000e+00 0.0000000000000000e+00 0.0000000000000000e+00 0.0000000000000000e+00  1.1551376150878267e-05 -4.2520466109819096e-07 0.0000000000000000e+00 -4.2520466109819096e-07 1.1872021080639407e-05 0.0000000000000000e+00 0.0000000000000000e+00 0.0000000000000000e+00 0.0000000000000000e+00  1.1512449656361391e-05 -3.9844296369621652e-07 0.0000000000000000e+00 -3.9844296369621652e-07 1.1947546475494308e-05 0.0000000000000000e+00 0.0000000000000000e+00 0.0000000000000000e+00 0.0000000000000000e+00  1.1478225968751768e-05 -3.6611159761494826e-07 0.0000000000000000e+00 -3.6611159761494826e-07 1.2012979161648155e-05 0.0000000000000000e+00 0.0000000000000000e+00 0.0000000000000000e+00 0.0000000000000000e+00  1.1449067449119125e-05 -3.2899967912927115e-07 0.0000000000000000e+00 -3.2899967912927115e-07 1.2066600650359799e-05 0.0000000000000000e+00 0.0000000000000000e+00 0.0000000000000000e+00 0.0000000000000000e+00  1.1425289741532343e-05 -2.8786801657008441e-07 0.0000000000000000e+00 -2.8786801657008441e-07 1.2106981219532938e-05 0.0000000000000000e+00 0.0000000000000000e+00 0.0000000000000000e+00 0.0000000000000000e+00  1.1407189398716673e-05 -2.4349261401869685e-07 0.0000000000000000e+00 -2.4349261401869685e-07 1.2132973780371656e-05 0.0000000000000000e+00 0.0000000000000000e+00 0.0000000000000000e+00 0.0000000000000000e+00  1.1395047068075489e-05 -1.9672301754978655e-07 0.0000000000000000e+00 -1.9672301754978655e-07 1.2143729358627487e-05 0.0000000000000000e+00 0.0000000000000000e+00 0.0000000000000000e+00 0.0000000000000000e+00  1.1389105231613458e-05 -1.4854771724159412e-07 0.0000000000000000e+00 -1.4854771724159412e-07 1.2138734341958559e-05 0.0000000000000000e+00 0.0000000000000000e+00 0.0000000000000000e+00 0.0000000000000000e+00  1.1389523677258560e-05 -1.0016057704290577e-07 0.0000000000000000e+00 -1.0016057704290577e-07 1.2117863872183473e-05 0.0000000000000000e+00 0.0000000000000000e+00 0.0000000000000000e+00 0.0000000000000000e+00  1.1396319887742802e-05 -5.3024903594844437e-08 0.0000000000000000e+00 -5.3024903594844437e-08 1.2081440170947851e-05 0.0000000000000000e+00 0.0000000000000000e+00 0.0000000000000000e+00 0.0000000000000000e+00  1.1409305608094836e-05 -8.9342512405362885e-09 0.0000000000000000e+00 -8.9342512405362885e-09 1.2030279093816207e-05 0.0000000000000000e+00 0.0000000000000000e+00 0.0000000000000000e+00 0.0000000000000000e+00  1.1428035432995423e-05 2.9929949124213303e-08 0.0000000000000000e+00 2.9929949124213303e-08 1.1965702587411278e-05 0.0000000000000000e+00 0.0000000000000000e+00 0.0000000000000000e+00 0.0000000000000000e+00  1.1451788581785969e-05 6.0946054155599283e-08 0.0000000000000000e+00 6.0946054155599283e-08 1.1889489089212925e-05 0.0000000000000000e+00 0.0000000000000000e+00 0.0000000000000000e+00 0.0000000000000000e+00  1.1479610596939846e-05 8.1014841642765956e-08 0.0000000000000000e+00 8.1014841642765956e-08 1.1803729182555717e-05 0.0000000000000000e+00 0.0000000000000000e+00 0.0000000000000000e+00 0.0000000000000000e+00  1.1510445246156618e-05 8.6563380813180224e-08 0.0000000000000000e+00 8.6563380813180224e-08 1.1710552945058530e-05 0.0000000000000000e+00 0.0000000000000000e+00 0.0000000000000000e+00 0.0000000000000000e+00  1.1543372174688696e-05 7.3680444003018830e-08 0.0000000000000000e+00 7.3680444003018830e-08 1.1611713565053922e-05 0.0000000000000000e+00 0.0000000000000000e+00 0.0000000000000000e+00 0.0000000000000000e+00  1.1816313447502954e-05 5.9783575684249171e-08 0.0000000000000000e+00 5.9783575684249171e-08 1.1746809476096041e-05 0.0000000000000000e+00 0.0000000000000000e+00 0.0000000000000000e+00 0.0000000000000000e+00  1.1850694706213676e-05 7.5145160619566789e-08 0.0000000000000000e+00 7.5145160619566789e-08 1.1642832204261003e-05 0.0000000000000000e+00 0.0000000000000000e+00 0.0000000000000000e+00 0.0000000000000000e+00  1.1883147252644424e-05 6.6406735377973297e-08 0.0000000000000000e+00 6.6406735377973297e-08 1.1542012223803357e-05 0.0000000000000000e+00 0.0000000000000000e+00 0.0000000000000000e+00 0.0000000000000000e+00  1.1911507978837806e-05 3.9266479409431784e-08 0.0000000000000000e+00 3.9266479409431784e-08 1.1448476549392890e-05 0.0000000000000000e+00 0.0000000000000000e+00 0.0000000000000000e+00 0.0000000000000000e+00  1.1933648513006260e-05 -1.1239265982319101e-09 0.0000000000000000e+00 -1.1239265982319101e-09 1.1366585818050674e-05 0.0000000000000000e+00 0.0000000000000000e+00 0.0000000000000000e+00 0.0000000000000000e+00  1.1947892389052772e-05 -5.0260565341423304e-08 0.0000000000000000e+00 -5.0260565341423304e-08 1.1300186307007506e-05 0.0000000000000000e+00 0.0000000000000000e+00 0.0000000000000000e+00 0.0000000000000000e+00  1.1953205759015231e-05 -1.0424308137349855e-07 0.0000000000000000e+00 -1.0424308137349855e-07 1.1252175001346883e-05 0.0000000000000000e+00 0.0000000000000000e+00 0.0000000000000000e+00 0.0000000000000000e+00  1.1949234088153209e-05 -1.5972074392435247e-07 0.0000000000000000e+00 -1.5972074392435247e-07 1.1224300834433697e-05 0.0000000000000000e+00 0.0000000000000000e+00 0.0000000000000000e+00 0.0000000000000000e+00  1.1936245266171849e-05 -2.1385579888826216e-07 0.0000000000000000e+00 -2.1385579888826216e-07 1.1217133087534413e-05 0.0000000000000000e+00 0.0000000000000000e+00 0.0000000000000000e+00 0.0000000000000000e+00  1.1915022087109138e-05 -2.6430529952022530e-07 0.0000000000000000e+00 -2.6430529952022530e-07 1.1230141420851461e-05 0.0000000000000000e+00 0.0000000000000000e+00 0.0000000000000000e+00 0.0000000000000000e+00  1.1886732138175575e-05 -3.0921259228871624e-07 0.0000000000000000e+00 -3.0921259228871624e-07 1.1261845728361488e-05 0.0000000000000000e+00 0.0000000000000000e+00 0.0000000000000000e+00 0.0000000000000000e+00  1.1852792706326872e-05 -3.4719775696313808e-07 0.0000000000000000e+00 -3.4719775696313808e-07 1.1310005303336268e-05 0.0000000000000000e+00 0.0000000000000000e+00 0.0000000000000000e+00 0.0000000000000000e+00  1.1814742095156137e-05 -3.7733828834706254e-07 0.0000000000000000e+00 -3.7733828834706254e-07 1.1371824567146992e-05 0.0000000000000000e+00 0.0000000000000000e+00 0.0000000000000000e+00 0.0000000000000000e+00  1.1774125420950145e-05 -3.9913480530992503e-07 0.0000000000000000e+00 -3.9913480530992503e-07 1.1444157616201214e-05 0.0000000000000000e+00 0.0000000000000000e+00 0.0000000000000000e+00 0.0000000000000000e+00  1.1732401113604585e-05 -4.1246047255542798e-07 0.0000000000000000e+00 -4.1246047255542798e-07 1.1523697336782329e-05 0.0000000000000000e+00 0.0000000000000000e+00 0.0000000000000000e+00 0.0000000000000000e+00  1.1690872780622432e-05 -4.1749655498076459e-07 0.0000000000000000e+00 -4.1749655498076459e-07 1.1607138037442842e-05 0.0000000000000000e+00 0.0000000000000000e+00 0.0000000000000000e+00 0.0000000000000000e+00  1.1650649067642317e-05 -4.1465962931902957e-07 0.0000000000000000e+00 -4.1465962931902957e-07 1.1691304233020768e-05 0.0000000000000000e+00 0.0000000000000000e+00 0.0000000000000000e+00 0.0000000000000000e+00  1.1612631465499248e-05 -4.0452798108879755e-07 0.0000000000000000e+00 -4.0452798108879755e-07 1.1773242578292520e-05 0.0000000000000000e+00 0.0000000000000000e+00 0.0000000000000000e+00 0.0000000000000000e+00  1.1577526934711637e-05 -3.8777525437840655e-07 0.0000000000000000e+00 -3.8777525437840655e-07 1.1850278647044097e-05 0.0000000000000000e+00 0.0000000000000000e+00 0.0000000000000000e+00 0.0000000000000000e+00  1.1545879295120250e-05 -3.6511840914558699e-07 0.0000000000000000e+00 -3.6511840914558699e-07 1.1920044593271331e-05 0.0000000000000000e+00 0.0000000000000000e+00 0.0000000000000000e+00 0.0000000000000000e+00  1.1518111165899896e-05 -3.3728474323090681e-07 0.0000000000000000e+00 -3.3728474323090681e-07 1.1980486959043217e-05 0.0000000000000000e+00 0.0000000000000000e+00 0.0000000000000000e+00 0.0000000000000000e+00  1.1494567278039928e-05 -3.0499972912195873e-07 0.0000000000000000e+00 -3.0499972912195873e-07 1.2029865450635064e-05 0.0000000000000000e+00 0.0000000000000000e+00 0.0000000000000000e+00 0.0000000000000000e+00  1.1475550358127796e-05 -2.6899442620159140e-07 0.0000000000000000e+00 -2.6899442620159140e-07 1.2066753193197042e-05 0.0000000000000000e+00 0.0000000000000000e+00 0.0000000000000000e+00 0.0000000000000000e+00  1.1461342330844921e-05 -2.3002894728486305e-07 0.0000000000000000e+00 -2.3002894728486305e-07 1.2090046971824767e-05 0.0000000000000000e+00 0.0000000000000000e+00 0.0000000000000000e+00 0.0000000000000000e+00  1.1452205933813266e-05 -1.8892738128646359e-07 0.0000000000000000e+00 -1.8892738128646359e-07 1.2098992706121637e-05 0.0000000000000000e+00 0.0000000000000000e+00 0.0000000000000000e+00 0.0000000000000000e+00  1.1448364576008015e-05 -1.4661993155809705e-07 0.0000000000000000e+00 -1.4661993155809705e-07 1.2093227370766128e-05 0.0000000000000000e+00 0.0000000000000000e+00 0.0000000000000000e+00 0.0000000000000000e+00  1.1449961157677669e-05 -1.0418977716173248e-07 0.0000000000000000e+00 -1.0418977716173248e-07 1.2072834081253033e-05 0.0000000000000000e+00 0.0000000000000000e+00 0.0000000000000000e+00 0.0000000000000000e+00  1.1456999702024059e-05 -6.2924989209519518e-08 0.0000000000000000e+00 -6.2924989209519518e-08 1.2038402077860487e-05 0.0000000000000000e+00 0.0000000000000000e+00 0.0000000000000000e+00 0.0000000000000000e+00  1.1469277567233153e-05 -2.4379080125752336e-08 0.0000000000000000e+00 -2.4379080125752336e-08 1.1991077415095665e-05 0.0000000000000000e+00 0.0000000000000000e+00 0.0000000000000000e+00 0.0000000000000000e+00  1.1486321612673061e-05 9.5537658149869002e-09 0.0000000000000000e+00 9.5537658149869002e-09 1.1932582587012237e-05 0.0000000000000000e+00 0.0000000000000000e+00 0.0000000000000000e+00 0.0000000000000000e+00  1.1507350102414316e-05 3.6543040311679330e-08 0.0000000000000000e+00 3.6543040311679330e-08 1.1865173422541417e-05 0.0000000000000000e+00 0.0000000000000000e+00 0.0000000000000000e+00 0.0000000000000000e+00  1.1531294016538453e-05 5.3706184017012965e-08 0.0000000000000000e+00 5.3706184017012965e-08 1.1791489711411704e-05 0.0000000000000000e+00 0.0000000000000000e+00 0.0000000000000000e+00 0.0000000000000000e+00  1.1556926548910170e-05 5.7490227097070323e-08 0.0000000000000000e+00 5.7490227097070323e-08 1.1714242748120694e-05 0.0000000000000000e+00 0.0000000000000000e+00 0.0000000000000000e+00 0.0000000000000000e+00  1.1583146838539055e-05 4.3656368951170720e-08 0.0000000000000000e+00 4.3656368951170720e-08 1.1635685164598952e-05 0.0000000000000000e+00 0.0000000000000000e+00 0.0000000000000000e+00 0.0000000000000000e+00  1.1766130972718563e-05 2.9996935815448296e-08 0.0000000000000000e+00 2.9996935815448296e-08 1.1717683652125707e-05 0.0000000000000000e+00 0.0000000000000000e+00 0.0000000000000000e+00 0.0000000000000000e+00  1.1791767619647479e-05 4.5131257686424636e-08 0.0000000000000000e+00 4.5131257686424636e-08 1.1640044201497047e-05 0.0000000000000000e+00 0.0000000000000000e+00 0.0000000000000000e+00 0.0000000000000000e+00  1.1817591938107221e-05 3.8323260943329088e-08 0.0000000000000000e+00 3.8323260943329088e-08 1.1559230844894341e-05 0.0000000000000000e+00 0.0000000000000000e+00 0.0000000000000000e+00 0.0000000000000000e+00  1.1841171638999025e-05 1.5480772378753881e-08 0.0000000000000000e+00 1.5480772378753881e-08 1.1480293704863143e-05 0.0000000000000000e+00 0.0000000000000000e+00 0.0000000000000000e+00 0.0000000000000000e+00  1.1860255353348726e-05 -1.8612136578479813e-08 0.0000000000000000e+00 -1.8612136578479813e-08 1.1408446061893312e-05 0.0000000000000000e+00 0.0000000000000000e+00 0.0000000000000000e+00 0.0000000000000000e+00  1.1873173554318259e-05 -6.0085135458426313e-08 0.0000000000000000e+00 -6.0085135458426313e-08 1.1348240097872311e-05 0.0000000000000000e+00 0.0000000000000000e+00 0.0000000000000000e+00 0.0000000000000000e+00  1.1878959546733207e-05 -1.0573501369040035e-07 0.0000000000000000e+00 -1.0573501369040035e-07 1.1303146741242418e-05 0.0000000000000000e+00 0.0000000000000000e+00 0.0000000000000000e+00 0.0000000000000000e+00  1.1877313569690594e-05 -1.5285787320078828e-07 0.0000000000000000e+00 -1.5285787320078828e-07 1.1275401146720713e-05 0.0000000000000000e+00 0.0000000000000000e+00 0.0000000000000000e+00 0.0000000000000000e+00  1.1868495903324170e-05 -1.9915591352283261e-07 0.0000000000000000e+00 -1.9915591352283261e-07 1.1266013695640769e-05 0.0000000000000000e+00 0.0000000000000000e+00 0.0000000000000000e+00 0.0000000000000000e+00  1.1853195966793031e-05 -2.4269694702825137e-07 0.0000000000000000e+00 -2.4269694702825137e-07 1.1274877611628637e-05 0.0000000000000000e+00 0.0000000000000000e+00 0.0000000000000000e+00 0.0000000000000000e+00  1.1832400547104910e-05 -2.8190268779254105e-07 0.0000000000000000e+00 -2.8190268779254105e-07 1.1300930099650662e-05 0.0000000000000000e+00 0.0000000000000000e+00 0.0000000000000000e+00 0.0000000000000000e+00  1.1807271972588812e-05 -3.1554658250113331e-07 0.0000000000000000e+00 -3.1554658250113331e-07 1.1342339765530298e-05 0.0000000000000000e+00 0.0000000000000000e+00 0.0000000000000000e+00 0.0000000000000000e+00  1.1779041251420655e-05 -3.4274837408964706e-07 0.0000000000000000e+00 -3.4274837408964706e-07 1.1396702177592505e-05 0.0000000000000000e+00 0.0000000000000000e+00 0.0000000000000000e+00 0.0000000000000000e+00  1.1748919088545513e-05 -3.6295841310779307e-07 0.0000000000000000e+00 -3.6295841310779307e-07 1.1461230341483926e-05 0.0000000000000000e+00 0.0000000000000000e+00 0.0000000000000000e+00 0.0000000000000000e+00  1.1718026986061738e-05 -3.7592936767544963e-07 0.0000000000000000e+00 -3.7592936767544963e-07 1.1532929813466141e-05 0.0000000000000000e+00 0.0000000000000000e+00 0.0000000000000000e+00 0.0000000000000000e+00  1.1687350044112620e-05 -3.8167651022737610e-07 0.0000000000000000e+00 -3.8167651022737610e-07 1.1608750660033351e-05 0.0000000000000000e+00 0.0000000000000000e+00 0.0000000000000000e+00 0.0000000000000000e+00  1.1657712047805865e-05 -3.8043027104605700e-07 0.0000000000000000e+00 -3.8043027104605700e-07 1.1685711214557104e-05 0.0000000000000000e+00 0.0000000000000000e+00 0.0000000000000000e+00 0.0000000000000000e+00  1.1629771858070763e-05 -3.7258622478487655e-07 0.0000000000000000e+00 -3.7258622478487655e-07 1.1760991754970120e-05 0.0000000000000000e+00 0.0000000000000000e+00 0.0000000000000000e+00 0.0000000000000000e+00  1.1604038233376606e-05 -3.5865806601566295e-07 0.0000000000000000e+00 -3.5865806601566295e-07 1.1831999600574044e-05 0.0000000000000000e+00 0.0000000000000000e+00 0.0000000000000000e+00 0.0000000000000000e+00  1.1580898367801430e-05 -3.3923847594398337e-07 0.0000000000000000e+00 -3.3923847594398337e-07 1.1896410247860989e-05 0.0000000000000000e+00 0.0000000000000000e+00 0.0000000000000000e+00 0.0000000000000000e+00  1.1560654028752163e-05 -3.1497129463817675e-07 0.0000000000000000e+00 -3.1497129463817675e-07 1.1952191542192477e-05 0.0000000000000000e+00 0.0000000000000000e+00 0.0000000000000000e+00 0.0000000000000000e+00  1.1543558495217124e-05 -2.8653646324662058e-07 0.0000000000000000e+00 -2.8653646324662058e-07 1.1997619144221996e-05 0.0000000000000000e+00 0.0000000000000000e+00 0.0000000000000000e+00 0.0000000000000000e+00  1.1529847627671580e-05 -2.5464725316631784e-07 0.0000000000000000e+00 -2.5464725316631784e-07 1.2031291550527722e-05 0.0000000000000000e+00 0.0000000000000000e+00 0.0000000000000000e+00 0.0000000000000000e+00  1.1519759237243234e-05 -2.2005781692307138e-07 0.0000000000000000e+00 -2.2005781692307138e-07 1.2052151759566254e-05 0.0000000000000000e+00 0.0000000000000000e+00 0.0000000000000000e+00 0.0000000000000000e+00  1.1513536214208152e-05 -1.8357846480477788e-07 0.0000000000000000e+00 -1.8357846480477788e-07 1.2059520598665367e-05 0.0000000000000000e+00 0.0000000000000000e+00 0.0000000000000000e+00 0.0000000000000000e+00  1.1511410339735124e-05 -1.4609657330112085e-07 0.0000000000000000e+00 -1.4609657330112085e-07 1.2053144039806149e-05 0.0000000000000000e+00 0.0000000000000000e+00 0.0000000000000000e+00 0.0000000000000000e+00  1.1513565175777191e-05 -1.0860286027406949e-07 0.0000000000000000e+00 -1.0860286027406949e-07 1.2033253673776605e-05 0.0000000000000000e+00 0.0000000000000000e+00 0.0000000000000000e+00 0.0000000000000000e+00  1.1520078067303796e-05 -7.2226039647937148e-08 0.0000000000000000e+00 -7.2226039647937148e-08 1.2000635660259235e-05 0.0000000000000000e+00 0.0000000000000000e+00 0.0000000000000000e+00 0.0000000000000000e+00  1.1530843855038727e-05 -3.8283549498814942e-08 0.0000000000000000e+00 -3.8283549498814942e-08 1.1956698094728116e-05 0.0000000000000000e+00 0.0000000000000000e+00 0.0000000000000000e+00 0.0000000000000000e+00  1.1545487997961170e-05 -8.3614759976016683e-09 0.0000000000000000e+00 -8.3614759976016700e-09 1.1903518355376639e-05 0.0000000000000000e+00 0.0000000000000000e+00 0.0000000000000000e+00 0.0000000000000000e+00  1.1563286455482240e-05 1.5558870099636594e-08 0.0000000000000000e+00 1.5558870099636594e-08 1.1843838916589264e-05 0.0000000000000000e+00 0.0000000000000000e+00 0.0000000000000000e+00 0.0000000000000000e+00  1.1583127679452925e-05 3.0910386001793408e-08 0.0000000000000000e+00 3.0910386001793408e-08 1.1780959989906625e-05 0.0000000000000000e+00 0.0000000000000000e+00 0.0000000000000000e+00 0.0000000000000000e+00  1.1603581672346710e-05 3.4277448933296841e-08 0.0000000000000000e+00 3.4277448933296841e-08 1.1718453491281797e-05 0.0000000000000000e+00 0.0000000000000000e+00 0.0000000000000000e+00 0.0000000000000000e+00  1.1623162425927729e-05 2.1143489652620880e-08 0.0000000000000000e+00 2.1143489652620880e-08 1.1659598216299166e-05 0.0000000000000000e+00 0.0000000000000000e+00 0.0000000000000000e+00 0.0000000000000000e+00  1.1718411956761759e-05 9.9701928407318966e-09 0.0000000000000000e+00 9.9701928407318966e-09 1.1690797019371608e-05 0.0000000000000000e+00 0.0000000000000000e+00 0.0000000000000000e+00 0.0000000000000000e+00  1.1735642627465463e-05 2.2584518001939383e-08 0.0000000000000000e+00 2.2584518001939383e-08 1.1637470268891415e-05 0.0000000000000000e+00 0.0000000000000000e+00 0.0000000000000000e+00 0.0000000000000000e+00  1.1754786550962938e-05 1.6012032888333051e-08 0.0000000000000000e+00 1.6012032888333051e-08 1.1574079304595740e-05 0.0000000000000000e+00 0.0000000000000000e+00 0.0000000000000000e+00 0.0000000000000000e+00  1.1772898098856380e-05 -3.9788738172012828e-09 0.0000000000000000e+00 -3.9788738172012828e-09 1.1507448793854183e-05 0.0000000000000000e+00 0.0000000000000000e+00 0.0000000000000000e+00 0.0000000000000000e+00  1.1787677328901834e-05 -3.3247397194156446e-08 0.0000000000000000e+00 -3.3247397194156446e-08 1.1443993393183465e-05 0.0000000000000000e+00 0.0000000000000000e+00 0.0000000000000000e+00 0.0000000000000000e+00  1.1797680898786856e-05 -6.8696763823870841e-08 0.0000000000000000e+00 -6.8696763823870841e-08 1.1389055911414230e-05 0.0000000000000000e+00 0.0000000000000000e+00 0.0000000000000000e+00 0.0000000000000000e+00  1.1802253819368667e-05 -1.0783946378676184e-07 0.0000000000000000e+00 -1.0783946378676184e-07 1.1346625859956984e-05 0.0000000000000000e+00 0.0000000000000000e+00 0.0000000000000000e+00 0.0000000000000000e+00  1.1801361201068132e-05 -1.4855486006225596e-07 0.0000000000000000e+00 -1.4855486006225596e-07 1.1319309254550387e-05 0.0000000000000000e+00 0.0000000000000000e+00 0.0000000000000000e+00 0.0000000000000000e+00  1.1795411874414155e-05 -1.8898014178838348e-07 0.0000000000000000e+00 -1.8898014178838348e-07 1.1308423830124213e-05 0.0000000000000000e+00 0.0000000000000000e+00 0.0000000000000000e+00 0.0000000000000000e+00  1.1785103637745260e-05 -2.2747919764502975e-07 0.0000000000000000e+00 -2.2747919764502975e-07 1.1314154428997246e-05 0.0000000000000000e+00 0.0000000000000000e+00 0.0000000000000000e+00 0.0000000000000000e+00  1.1771297357802514e-05 -2.6264840736201842e-07 0.0000000000000000e+00 -2.6264840736201842e-07 1.1335734403686829e-05 0.0000000000000000e+00 0.0000000000000000e+00 0.0000000000000000e+00 0.0000000000000000e+00  1.1754917313590218e-05 -2.9333340659583539e-07 0.0000000000000000e+00 -2.9333340659583539e-07 1.1371635495069548e-05 0.0000000000000000e+00 0.0000000000000000e+00 0.0000000000000000e+00 0.0000000000000000e+00  1.1736873766584708e-05 -3.1864251595521824e-07 0.0000000000000000e+00 -3.1864251595521824e-07 1.1419755922545684e-05 0.0000000000000000e+00 0.0000000000000000e+00 0.0000000000000000e+00 0.0000000000000000e+00  1.1718004984281885e-05 -3.3795006795063022e-07 0.0000000000000000e+00 -3.3795006795063022e-07 1.1477599059256506e-05 0.0000000000000000e+00 0.0000000000000000e+00 0.0000000000000000e+00 0.0000000000000000e+00  1.1699037314711062e-05 -3.5088760004776622e-07 0.0000000000000000e+00 -3.5088760004776622e-07 1.1542436338859657e-05 0.0000000000000000e+00 0.0000000000000000e+00 0.0000000000000000e+00 0.0000000000000000e+00  1.1680562618579883e-05 -3.5732388326112266e-07 0.0000000000000000e+00 -3.5732388326112266e-07 1.1611449308825772e-05 0.0000000000000000e+00 0.0000000000000000e+00 0.0000000000000000e+00 0.0000000000000000e+00  1.1663032302011701e-05 -3.5733662515305370e-07 0.0000000000000000e+00 -3.5733662515305370e-07 1.1681847493040141e-05 0.0000000000000000e+00 0.0000000000000000e+00 0.0000000000000000e+00 0.0000000000000000e+00  1.1646766513724619e-05 -3.5117967758170760e-07 0.0000000000000000e+00 -3.5117967758170760e-07 1.1750960954591341e-05 0.0000000000000000e+00 0.0000000000000000e+00 0.0000000000000000e+00 0.0000000000000000e+00  1.1631976042198879e-05 -3.3924979153716612e-07 0.0000000000000000e+00 -3.3924979153716612e-07 1.1816308908090942e-05 0.0000000000000000e+00 0.0000000000000000e+00 0.0000000000000000e+00 0.0000000000000000e+00  1.1618793372356790e-05 -3.2205648090583594e-07 0.0000000000000000e+00 -3.2205648090583594e-07 1.1875648055241866e-05 0.0000000000000000e+00 0.0000000000000000e+00 0.0000000000000000e+00 0.0000000000000000e+00  1.1607308509900698e-05 -3.0019753723411415e-07 0.0000000000000000e+00 -3.0019753723411415e-07 1.1927006144003827e-05 0.0000000000000000e+00 0.0000000000000000e+00 0.0000000000000000e+00 0.0000000000000000e+00  1.1597604738079677e-05 -2.7434141417320267e-07 0.0000000000000000e+00 -2.7434141417320267e-07 1.1968707314240503e-05 0.0000000000000000e+00 0.0000000000000000e+00 0.0000000000000000e+00 0.0000000000000000e+00  1.1589789488931538e-05 -2.4521636433969638e-07 0.0000000000000000e+00 -2.4521636433969638e-07 1.1999395984541523e-05 0.0000000000000000e+00 0.0000000000000000e+00 0.0000000000000000e+00 0.0000000000000000e+00  1.1584015899477177e-05 -2.1360516634049216e-07 0.0000000000000000e+00 -2.1360516634049216e-07 1.2018065423282869e-05 0.0000000000000000e+00 0.0000000000000000e+00 0.0000000000000000e+00 0.0000000000000000e+00  1.1580491172294747e-05 -1.8034381256755710e-07 0.0000000000000000e+00 -1.8034381256755710e-07 1.2024095935654756e-05 0.0000000000000000e+00 0.0000000000000000e+00 0.0000000000000000e+00 0.0000000000000000e+00  1.1579468287934411e-05 -1.4632292014886742e-07 0.0000000000000000e+00 -1.4632292014886742e-07 1.2017306041026262e-05 0.0000000000000000e+00 0.0000000000000000e+00 0.0000000000000000e+00 0.0000000000000000e+00  1.1581217657023955e-05 -1.1249222095646184e-07 0.0000000000000000e+00 -1.1249222095646184e-07 1.1998018276712896e-05 0.0000000000000000e+00 0.0000000000000000e+00 0.0000000000000000e+00 0.0000000000000000e+00  1.1585974876249256e-05 -7.9871807316083186e-08 0.0000000000000000e+00 -7.9871807316083159e-08 1.1967139180929566e-05 0.0000000000000000e+00 0.0000000000000000e+00 0.0000000000000000e+00 0.0000000000000000e+00  1.1593860352853141e-05 -4.9579650179625783e-08 0.0000000000000000e+00 -4.9579650179625783e-08 1.1926249727624302e-05 0.0000000000000000e+00 0.0000000000000000e+00 0.0000000000000000e+00 0.0000000000000000e+00  1.1604768080922750e-05 -2.2894109678070297e-08 0.0000000000000000e+00 -2.2894109678070294e-08 1.1877695652533027e-05 0.0000000000000000e+00 0.0000000000000000e+00 0.0000000000000000e+00 0.0000000000000000e+00  1.1618228607886993e-05 -1.3818759697180073e-09 0.0000000000000000e+00 -1.3818759697180073e-09 1.1824653530586461e-05 0.0000000000000000e+00 0.0000000000000000e+00 0.0000000000000000e+00 0.0000000000000000e+00  1.1633267217091973e-05 1.2867055211857101e-08 0.0000000000000000e+00 1.2867055211857101e-08 1.1771125647275045e-05 0.0000000000000000e+00 0.0000000000000000e+00 0.0000000000000000e+00 0.0000000000000000e+00  1.1648322974745114e-05 1.6850402647416320e-08 0.0000000000000000e+00 1.6850402647416320e-08 1.1721774092246037e-05 0.0000000000000000e+00 0.0000000000000000e+00 0.0000000000000000e+00 0.0000000000000000e+00  1.1661353690108015e-05 6.1370414747459623e-09 0.0000000000000000e+00 6.1370414747459623e-09 1.1681517700898210e-05 0.0000000000000000e+00 0.0000000000000000e+00 0.0000000000000000e+00 0.0000000000000000e+00  1.1676782597410111e-05 -7.3848787371120447e-10 0.0000000000000000e+00 -7.3848787371120447e-10 1.1668932142735885e-05 0.0000000000000000e+00 0.0000000000000000e+00 0.0000000000000000e+00 0.0000000000000000e+00  1.1685900268246728e-05 7.4257241268768761e-09 0.0000000000000000e+00 7.4257241268768761e-09 1.1636655225630060e-05 0.0000000000000000e+00 0.0000000000000000e+00 0.0000000000000000e+00 0.0000000000000000e+00  1.1697556621090054e-05 2.9215849023005392e-10 0.0000000000000000e+00 2.9215849023005392e-10 1.1587640445063108e-05 0.0000000000000000e+00 0.0000000000000000e+00 0.0000000000000000e+00 0.0000000000000000e+00  1.1708319818907994e-05 -1.7512264093648667e-08 0.0000000000000000e+00 -1.7512264093648667e-08 1.1531052754242154e-05 0.0000000000000000e+00 0.0000000000000000e+00 0.0000000000000000e+00 0.0000000000000000e+00  1.1716238977301179e-05 -4.2966164282901475e-08 0.0000000000000000e+00 -4.2966164282901475e-08 1.1474627644609797e-05 0.0000000000000000e+00 0.0000000000000000e+00 0.0000000000000000e+00 0.0000000000000000e+00  1.1720560943153243e-05 -7.3907989167452460e-08 0.0000000000000000e+00 -7.3907989167452460e-08 1.1424381428585783e-05 0.0000000000000000e+00 0.0000000000000000e+00 0.0000000000000000e+00 0.0000000000000000e+00  1.1721319254901246e-05 -1.0852395212186038e-07 0.0000000000000000e+00 -1.0852395212186038e-07 1.1384640397267928e-05 0.0000000000000000e+00 0.0000000000000000e+00 0.0000000000000000e+00 0.0000000000000000e+00  1.1719002754502565e-05 -1.4512958189721300e-07 0.0000000000000000e+00 -1.4512958189721300e-07 1.1358203159959557e-05 0.0000000000000000e+00 0.0000000000000000e+00 0.0000000000000000e+00 0.0000000000000000e+00  1.1714318326508565e-05 -1.8211464015870192e-07 0.0000000000000000e+00 -1.8211464015870192e-07 1.1346543326437324e-05 0.0000000000000000e+00 0.0000000000000000e+00 0.0000000000000000e+00 0.0000000000000000e+00  1.1708037510302948e-05 -2.1796260848725026e-07 0.0000000000000000e+00 -2.1796260848725026e-07 1.1350015453048212e-05 0.0000000000000000e+00 0.0000000000000000e+00 0.0000000000000000e+00 0.0000000000000000e+00  1.1700900745926070e-05 -2.5129437639274336e-07 0.0000000000000000e+00 -2.5129437639274336e-07 1.1368052514284102e-05 0.0000000000000000e+00 0.0000000000000000e+00 0.0000000000000000e+00 0.0000000000000000e+00  1.1693558304885011e-05 -2.8091221352995657e-07 0.0000000000000000e+00 -2.8091221352995657e-07 1.1399354082743368e-05 0.0000000000000000e+00 0.0000000000000000e+00 0.0000000000000000e+00 0.0000000000000000e+00  1.1686535159634050e-05 -3.0583369292749507e-07 0.0000000000000000e+00 -3.0583369292749507e-07 1.1442064420897361e-05 0.0000000000000000e+00 0.0000000000000000e+00 0.0000000000000000e+00 0.0000000000000000e+00  1.1680212831809920e-05 -3.2531191685413257e-07 0.0000000000000000e+00 -3.2531191685413257e-07 1.1493938260284332e-05 0.0000000000000000e+00 0.0000000000000000e+00 0.0000000000000000e+00 0.0000000000000000e+00  1.1674824636726597e-05 -3.3884182357290993e-07 0.0000000000000000e+00 -3.3884182357290993e-07 1.1552491067254972e-05 0.0000000000000000e+00 0.0000000000000000e+00 0.0000000000000000e+00 0.0000000000000000e+00  1.1670462401260678e-05 -3.4615424712062650e-07 0.0000000000000000e+00 -3.4615424712062650e-07 1.1615130621695045e-05 0.0000000000000000e+00 0.0000000000000000e+00 0.0000000000000000e+00 0.0000000000000000e+00  1.1667093305292383e-05 -3.4720047131853643e-07 0.0000000000000000e+00 -3.4720047131853643e-07 1.1679267660944935e-05 0.0000000000000000e+00 0.0000000000000000e+00 0.0000000000000000e+00 0.0000000000000000e+00  1.1664585419294994e-05 -3.4213051551258947e-07 0.0000000000000000e+00 -3.4213051551258947e-07 1.1742404897899287e-05 0.0000000000000000e+00 0.0000000000000000e+00 0.0000000000000000e+00 0.0000000000000000e+00  1.1662740098749209e-05 -3.3126839646173225e-07 0.0000000000000000e+00 -3.3126839646173225e-07 1.1802205577391009e-05 0.0000000000000000e+00 0.0000000000000000e+00 0.0000000000000000e+00 0.0000000000000000e+00  1.1661328893882885e-05 -3.1508718372451069e-07 0.0000000000000000e+00 -3.1508718372451069e-07 1.1856544547120034e-05 0.0000000000000000e+00 0.0000000000000000e+00 0.0000000000000000e+00 0.0000000000000000e+00  1.1660132224031183e-05 -2.9418589396677100e-07 0.0000000000000000e+00 -2.9418589396677100e-07 1.1903546288667388e-05 0.0000000000000000e+00 0.0000000000000000e+00 0.0000000000000000e+00 0.0000000000000000e+00  1.1658976860216148e-05 -2.6926928986871290e-07 0.0000000000000000e+00 -2.6926928986871290e-07 1.1941615272651095e-05 0.0000000000000000e+00 0.0000000000000000e+00 0.0000000000000000e+00 0.0000000000000000e+00  1.1657769278558290e-05 -2.4113063298243387e-07 0.0000000000000000e+00 -2.4113063298243387e-07 1.1969464291557757e-05 0.0000000000000000e+00 0.0000000000000000e+00 0.0000000000000000e+00 0.0000000000000000e+00  1.1656522111703321e-05 -2.1063656915049309e-07 0.0000000000000000e+00 -2.1063656915049309e-07 1.1986146149497232e-05 0.0000000000000000e+00 0.0000000000000000e+00 0.0000000000000000e+00 0.0000000000000000e+00  1.1655371050641055e-05 -1.7871278000592094e-07 0.0000000000000000e+00 -1.7871278000592094e-07 1.1991093446081377e-05 0.0000000000000000e+00 0.0000000000000000e+00 0.0000000000000000e+00 0.0000000000000000e+00  1.1654579335102878e-05 -1.4632901278188320e-07 0.0000000000000000e+00 -1.4632901278188320e-07 1.1984170472399561e-05 0.0000000000000000e+00 0.0000000000000000e+00 0.0000000000000000e+00 0.0000000000000000e+00  1.1654525980335925e-05 -1.1448290585943109e-07 0.0000000000000000e+00 -1.1448290585943109e-07 1.1965740759119397e-05 0.0000000000000000e+00 0.0000000000000000e+00 0.0000000000000000e+00 0.0000000000000000e+00  1.1655671519155851e-05 -8.4184278227612917e-08 0.0000000000000000e+00 -8.4184278227612917e-08 1.1936753807099113e-05 0.0000000000000000e+00 0.0000000000000000e+00 0.0000000000000000e+00 0.0000000000000000e+00  1.1658490679608596e-05 -5.6446616579586992e-08 0.0000000000000000e+00 -5.6446616579586992e-08 1.1898854675446393e-05 0.0000000000000000e+00 0.0000000000000000e+00 0.0000000000000000e+00 0.0000000000000000e+00  1.1663355095771950e-05 -3.2303141554782139e-08 0.0000000000000000e+00 -3.2303141554782139e-08 1.1854518991376918e-05 0.0000000000000000e+00 0.0000000000000000e+00 0.0000000000000000e+00 0.0000000000000000e+00  1.1670345263308713e-05 -1.2885370043251365e-08 0.0000000000000000e+00 -1.2885370043251365e-08 1.1807206187705770e-05 0.0000000000000000e+00 0.0000000000000000e+00 0.0000000000000000e+00 0.0000000000000000e+00  1.1678983626590376e-05 3.7014818022799364e-10 0.0000000000000000e+00 3.7014818022799364e-10 1.1761504474398651e-05 0.0000000000000000e+00 0.0000000000000000e+00 0.0000000000000000e+00 0.0000000000000000e+00  1.1687891613579070e-05 5.2939934130629856e-09 0.0000000000000000e+00 5.2939934130629856e-09 1.1723206864125299e-05 0.0000000000000000e+00 0.0000000000000000e+00 0.0000000000000000e+00 0.0000000000000000e+00  1.1694518985563833e-05 -1.6000760879149822e-09 0.0000000000000000e+00 -1.6000760879149822e-09 1.1699200766456908e-05 0.0000000000000000e+00 0.0000000000000000e+00 0.0000000000000000e+00 0.0000000000000000e+00  1.1647164508831657e-05 -3.3603086655628047e-09 0.0000000000000000e+00 -3.3603086655628047e-09 1.1654597890276671e-05 0.0000000000000000e+00 0.0000000000000000e+00 0.0000000000000000e+00 0.0000000000000000e+00  1.1648406638503195e-05 3.1885613953546270e-10 0.0000000000000000e+00 3.1885613953546270e-10 1.1637832484259339e-05 0.0000000000000000e+00 0.0000000000000000e+00 0.0000000000000000e+00 0.0000000000000000e+00  1.1650137647945420e-05 -6.5089326455907202e-09 0.0000000000000000e+00 -6.5089326455907202e-09 1.1599857191119759e-05 0.0000000000000000e+00 0.0000000000000000e+00 0.0000000000000000e+00 0.0000000000000000e+00  1.1649479907298764e-05 -2.1766226386931166e-08 0.0000000000000000e+00 -2.1766226386931166e-08 1.1551567925186195e-05 0.0000000000000000e+00 0.0000000000000000e+00 0.0000000000000000e+00 0.0000000000000000e+00  1.1645847680429989e-05 -4.4082746964098079e-08 0.0000000000000000e+00 -4.4082746964098079e-08 1.1501590623696747e-05 0.0000000000000000e+00 0.0000000000000000e+00 0.0000000000000000e+00 0.0000000000000000e+00  1.1639968029842854e-05 -7.2246917810761926e-08 0.0000000000000000e+00 -7.2246917810761926e-08 1.1456183763208003e-05 0.0000000000000000e+00 0.0000000000000000e+00 0.0000000000000000e+00 0.0000000000000000e+00  1.1633067125539255e-05 -1.0487889227422139e-07 0.0000000000000000e+00 -1.0487889227422139e-07 1.1419685470912826e-05 0.0000000000000000e+00 0.0000000000000000e+00 0.0000000000000000e+00 0.0000000000000000e+00  1.1626410530333390e-05 -1.4041792554339548e-07 0.0000000000000000e+00 -1.4041792554339548e-07 1.1394865049438773e-05 0.0000000000000000e+00 0.0000000000000000e+00 0.0000000000000000e+00 0.0000000000000000e+00  1.1621088827760793e-05 -1.7720863046615904e-07 0.0000000000000000e+00 -1.7720863046615904e-07 1.1383211811488646e-05 0.0000000000000000e+00 0.0000000000000000e+00 0.0000000000000000e+00 0.0000000000000000e+00  1.1617931605189185e-05 -2.1360223678212666e-07 0.0000000000000000e+00 -2.1360223678212666e-07 1.1385162576846662e-05 0.0000000000000000e+00 0.0000000000000000e+00 0.0000000000000000e+00 0.0000000000000000e+00  1.1617483042614704e-05 -2.4804563618128755e-07 0.0000000000000000e+00 -2.4804563618128755e-07 1.1400295805362560e-05 0.0000000000000000e+00 0.0000000000000000e+00 0.0000000000000000e+00 0.0000000000000000e+00  1.1620008103626164e-05 -2.7915130038295960e-07 0.0000000000000000e+00 -2.7915130038295960e-07 1.1427506669305247e-05 0.0000000000000000e+00 0.0000000000000000e+00 0.0000000000000000e+00 0.0000000000000000e+00  1.1625514822359441e-05 -3.0574725927627891e-07 0.0000000000000000e+00 -3.0574725927627891e-07 1.1465169089658331e-05 0.0000000000000000e+00 0.0000000000000000e+00 0.0000000000000000e+00 0.0000000000000000e+00  1.1633785771535802e-05 -3.2690841090078757e-07 0.0000000000000000e+00 -3.2690841090078757e-07 1.1511285551440300e-05 0.0000000000000000e+00 0.0000000000000000e+00 0.0000000000000000e+00 0.0000000000000000e+00  1.1644415187073543e-05 -3.4197133480556942e-07 0.0000000000000000e+00 -3.4197133480556942e-07 1.1563623096283023e-05 0.0000000000000000e+00 0.0000000000000000e+00 0.0000000000000000e+00 0.0000000000000000e+00  1.1656849750302934e-05 -3.5053531934098828e-07 0.0000000000000000e+00 -3.5053531934098828e-07 1.1619833240455300e-05 0.0000000000000000e+00 0.0000000000000000e+00 0.0000000000000000e+00 0.0000000000000000e+00  1.1670431691903622e-05 -3.5245264739731190e-07 0.0000000000000000e+00 -3.5245264739731190e-07 1.1677554060868325e-05 0.0000000000000000e+00 0.0000000000000000e+00 0.0000000000000000e+00 0.0000000000000000e+00  1.1684443137959136e-05 -3.4781129584016883e-07 0.0000000000000000e+00 -3.4781129584016883e-07 1.1734493867338189e-05 0.0000000000000000e+00 0.0000000000000000e+00 0.0000000000000000e+00 0.0000000000000000e+00  1.1698150689197486e-05 -3.3691304953423746e-07 0.0000000000000000e+00 -3.3691304953423746e-07 1.1788497366245661e-05 0.0000000000000000e+00 0.0000000000000000e+00 0.0000000000000000e+00 0.0000000000000000e+00  1.1710849232435153e-05 -3.2024960042004142e-07 0.0000000000000000e+00 -3.2024960042004142e-07 1.1837596703549763e-05 0.0000000000000000e+00 0.0000000000000000e+00 0.0000000000000000e+00 0.0000000000000000e+00  1.1721904001843946e-05 -2.9847853089003551e-07 0.0000000000000000e+00 -2.9847853089003551e-07 1.1880051000076303e-05 0.0000000000000000e+00 0.0000000000000000e+00 0.0000000000000000e+00 0.0000000000000000e+00  1.1730789973150686e-05 -2.7240024542592995e-07 0.0000000000000000e+00 -2.7240024542592995e-07 1.1914378790161714e-05 0.0000000000000000e+00 0.0000000000000000e+00 0.0000000000000000e+00 0.0000000000000000e+00  1.1737127783520188e-05 -2.4293601603804134e-07 0.0000000000000000e+00 -2.4293601603804134e-07 1.1939388085628943e-05 0.0000000000000000e+00 0.0000000000000000e+00 0.0000000000000000e+00 0.0000000000000000e+00  1.1740715474561481e-05 -2.1110644802160243e-07 0.0000000000000000e+00 -2.1110644802160243e-07 1.1954208672060367e-05 0.0000000000000000e+00 0.0000000000000000e+00 0.0000000000000000e+00 0.0000000000000000e+00  1.1741555344412138e-05 -1.7800893739845409e-07 0.0000000000000000e+00 -1.7800893739845409e-07 1.1958330888644609e-05 0.0000000000000000e+00 0.0000000000000000e+00 0.0000000000000000e+00 0.0000000000000000e+00  1.1739874853917494e-05 -1.4479214046800126e-07 0.0000000000000000e+00 -1.4479214046800126e-07 1.1951654854239426e-05 0.0000000000000000e+00 0.0000000000000000e+00 0.0000000000000000e+00 0.0000000000000000e+00  1.1736139441335246e-05 -1.1262517353134800e-07 0.0000000000000000e+00 -1.1262517353134800e-07 1.1934554325946530e-05 0.0000000000000000e+00 0.0000000000000000e+00 0.0000000000000000e+00 0.0000000000000000e+00  1.1731052391374215e-05 -8.2659388475613887e-08 0.0000000000000000e+00 -8.2659388475613887e-08 1.1907960714555475e-05 0.0000000000000000e+00 0.0000000000000000e+00 0.0000000000000000e+00 0.0000000000000000e+00  1.1725530646934512e-05 -5.5981824194913122e-08 0.0000000000000000e+00 -5.5981824194913122e-08 1.1873476137689876e-05 0.0000000000000000e+00 0.0000000000000000e+00 0.0000000000000000e+00 0.0000000000000000e+00  1.1720631901692055e-05 -3.3564098251109899e-08 0.0000000000000000e+00 -3.3564098251109899e-08 1.1833529922762357e-05 0.0000000000000000e+00 0.0000000000000000e+00 0.0000000000000000e+00 0.0000000000000000e+00  1.1717379488257202e-05 -1.6226557801713563e-08 0.0000000000000000e+00 -1.6226557801713563e-08 1.1791602288641432e-05 0.0000000000000000e+00 0.0000000000000000e+00 0.0000000000000000e+00 0.0000000000000000e+00  1.1716393421200102e-05 -4.6816385270467388e-09 0.0000000000000000e+00 -4.6816385270467388e-09 1.1752513591048595e-05 0.0000000000000000e+00 0.0000000000000000e+00 0.0000000000000000e+00 0.0000000000000000e+00  1.1717247623806478e-05 1.8833573088171215e-10 0.0000000000000000e+00 1.8833573088171215e-10 1.1722804898499159e-05 0.0000000000000000e+00 0.0000000000000000e+00 0.0000000000000000e+00 0.0000000000000000e+00  1.1717699887329456e-05 -3.0561510273403520e-09 0.0000000000000000e+00 -3.0561510273403520e-09 1.1710699910943420e-05 0.0000000000000000e+00 0.0000000000000000e+00 0.0000000000000000e+00 0.0000000000000000e+00  1.1638218753163767e-05 -2.7077589228249358e-12 0.0000000000000000e+00 -2.7077589228249358e-12 1.1647939899224696e-05 0.0000000000000000e+00 0.0000000000000000e+00 0.0000000000000000e+00 0.0000000000000000e+00  1.1631823560164249e-05 3.3820503604127167e-09 0.0000000000000000e+00 3.3820503604127167e-09 1.1638833612806521e-05 0.0000000000000000e+00 0.0000000000000000e+00 0.0000000000000000e+00 0.0000000000000000e+00  1.1618376594871228e-05 5.3307772535845984e-10 0.0000000000000000e+00 5.3307772535845984e-10 1.1609087508414328e-05 0.0000000000000000e+00 0.0000000000000000e+00 0.0000000000000000e+00 0.0000000000000000e+00  1.1598483719210740e-05 -1.0604496834039021e-08 0.0000000000000000e+00 -1.0604496834039021e-08 1.1568901640387604e-05 0.0000000000000000e+00 0.0000000000000000e+00 0.0000000000000000e+00 0.0000000000000000e+00  1.1575310843256751e-05 -3.0608170222670608e-08 0.0000000000000000e+00 -3.0608170222670608e-08 1.1526313927106674e-05 0.0000000000000000e+00 0.0000000000000000e+00 0.0000000000000000e+00 0.0000000000000000e+00  1.1552332662657441e-05 -5.8611609229264965e-08 0.0000000000000000e+00 -5.8611609229264965e-08 1.1487062132879960e-05 0.0000000000000000e+00 0.0000000000000000e+00 0.0000000000000000e+00 0.0000000000000000e+00  1.1532445117067395e-05 -9.3006318153041828e-08 0.0000000000000000e+00 -9.3006318153041828e-08 1.1455097111003930e-05 0.0000000000000000e+00 0.0000000000000000e+00 0.0000000000000000e+00 0.0000000000000000e+00  1.1517784457493048e-05 -1.3180789134522687e-07 0.0000000000000000e+00 -1.3180789134522687e-07 1.1432982745515008e-05 0.0000000000000000e+00 0.0000000000000000e+00 0.0000000000000000e+00 0.0000000000000000e+00  1.1509749261885277e-05 -1.7289398077340471e-07 0.0000000000000000e+00 -1.7289398077340471e-07 1.1422154131122162e-05 0.0000000000000000e+00 0.0000000000000000e+00 0.0000000000000000e+00 0.0000000000000000e+00  1.1509073447186842e-05 -2.1416519145280766e-07 0.0000000000000000e+00 -2.1416519145280766e-07 1.1423112761235642e-05 0.0000000000000000e+00 0.0000000000000000e+00 0.0000000000000000e+00 0.0000000000000000e+00  1.1515913934285438e-05 -2.5365969327940738e-07 0.0000000000000000e+00 -2.5365969327940738e-07 1.1435591507657974e-05 0.0000000000000000e+00 0.0000000000000000e+00 0.0000000000000000e+00 0.0000000000000000e+00  1.1529942181510607e-05 -2.8963471981016060e-07 0.0000000000000000e+00 -2.8963471981016060e-07 1.1458704507541876e-05 0.0000000000000000e+00 0.0000000000000000e+00 0.0000000000000000e+00 0.0000000000000000e+00  1.1550435752527058e-05 -3.2062180846163308e-07 0.0000000000000000e+00 -3.2062180846163308e-07 1.1491087202719477e-05 0.0000000000000000e+00 0.0000000000000000e+00 0.0000000000000000e+00 0.0000000000000000e+00  1.1576367610642634e-05 -3.4546000042792864e-07 0.0000000000000000e+00 -3.4546000042792864e-07 1.1531027070017211e-05 0.0000000000000000e+00 0.0000000000000000e+00 0.0000000000000000e+00 0.0000000000000000e+00  1.1606491208025542e-05 -3.6331043040279647e-07 0.0000000000000000e+00 -3.6331043040279647e-07 1.1576583506302955e-05 0.0000000000000000e+00 0.0000000000000000e+00 0.0000000000000000e+00 0.0000000000000000e+00  1.1639419701565685e-05 -3.7365566034717435e-07 0.0000000000000000e+00 -3.7365566034717435e-07 1.1625694817893796e-05 0.0000000000000000e+00 0.0000000000000000e+00 0.0000000000000000e+00 0.0000000000000000e+00  1.1673698037528848e-05 -3.7628722874269457e-07 0.0000000000000000e+00 -3.7628722874269457e-07 1.1676270695324486e-05 0.0000000000000000e+00 0.0000000000000000e+00 0.0000000000000000e+00 0.0000000000000000e+00  1.1707867207458301e-05 -3.7128491812257157e-07 0.0000000000000000e+00 -3.7128491812257157e-07 1.1726269536791614e-05 0.0000000000000000e+00 0.0000000000000000e+00 0.0000000000000000e+00 0.0000000000000000e+00  1.1740520616852918e-05 -3.5899105199306340e-07 0.0000000000000000e+00 -3.5899105199306340e-07 1.1773761212830149e-05 0.0000000000000000e+00 0.0000000000000000e+00 0.0000000000000000e+00 0.0000000000000000e+00  1.1770353138751901e-05 -3.3998267241127034e-07 0.0000000000000000e+00 -3.3998267241127034e-07 1.1816977088585337e-05 0.0000000000000000e+00 0.0000000000000000e+00 0.0000000000000000e+00 0.0000000000000000e+00  1.1796203968261946e-05 -3.1504374451104295e-07 0.0000000000000000e+00 -3.1504374451104295e-07 1.1854350137226089e-05 0.0000000000000000e+00 0.0000000000000000e+00 0.0000000000000000e+00 0.0000000000000000e+00  1.1817094795296200e-05 -2.8513865473797673e-07 0.0000000000000000e+00 -2.8513865473797673e-07 1.1884548654710663e-05 0.0000000000000000e+00 0.0000000000000000e+00 0.0000000000000000e+00 0.0000000000000000e+00  1.1832265045081753e-05 -2.5138730972359696e-07 0.0000000000000000e+00 -2.5138730972359696e-07 1.1906507373021783e-05 0.0000000000000000e+00 0.0000000000000000e+00 0.0000000000000000e+00 0.0000000000000000e+00  1.1841206004721471e-05 -2.1504119242635807e-07 0.0000000000000000e+00 -2.1504119242635807e-07 1.1919459712144292e-05 0.0000000000000000e+00 0.0000000000000000e+00 0.0000000000000000e+00 0.0000000000000000e+00  1.1843695590713137e-05 -1.7745884493997371e-07 0.0000000000000000e+00 -1.7745884493997371e-07 1.1922974654878478e-05 0.0000000000000000e+00 0.0000000000000000e+00 0.0000000000000000e+00 0.0000000000000000e+00  1.1839835354522937e-05 -1.4007840305439180e-07 0.0000000000000000e+00 -1.4007840305439180e-07 1.1917001519564415e-05 0.0000000000000000e+00 0.0000000000000000e+00 0.0000000000000000e+00 0.0000000000000000e+00  1.1830091062604921e-05 -1.0438385520509651e-07 0.0000000000000000e+00 -1.0438385520509651e-07 1.1901926112893986e-05 0.0000000000000000e+00 0.0000000000000000e+00 0.0000000000000000e+00 0.0000000000000000e+00  1.1815337605196492e-05 -7.1860264515515939e-08 0.0000000000000000e+00 -7.1860264515515939e-08 1.1878642940010104e-05 0.0000000000000000e+00 0.0000000000000000e+00 0.0000000000000000e+00 0.0000000000000000e+00  1.1796907207364092e-05 -4.3930373734276841e-08 0.0000000000000000e+00 -4.3930373734276841e-08 1.1848651251977270e-05 0.0000000000000000e+00 0.0000000000000000e+00 0.0000000000000000e+00 0.0000000000000000e+00  1.1776633339780599e-05 -2.1859335091196294e-08 0.0000000000000000e+00 -2.1859335091196294e-08 1.1814189717296059e-05 0.0000000000000000e+00 0.0000000000000000e+00 0.0000000000000000e+00 0.0000000000000000e+00  1.1756860444320246e-05 -6.5996402904962133e-09 0.0000000000000000e+00 -6.5996402904962133e-09 1.1778437028152439e-05 0.0000000000000000e+00 0.0000000000000000e+00 0.0000000000000000e+00 0.0000000000000000e+00  1.1740293425213076e-05 1.4679053914023266e-09 0.0000000000000000e+00 1.4679053914023266e-09 1.1745838593167790e-05 0.0000000000000000e+00 0.0000000000000000e+00 0.0000000000000000e+00 0.0000000000000000e+00  1.1729284224839433e-05 3.0651206354286697e-09 0.0000000000000000e+00 3.0651206354286697e-09 1.1722511388753047e-05 0.0000000000000000e+00 0.0000000000000000e+00 0.0000000000000000e+00 0.0000000000000000e+00  1.1724054881850944e-05 -1.9755559045383718e-12 0.0000000000000000e+00 -1.9755559045383718e-12 1.1716067820934554e-05 0.0000000000000000e+00 0.0000000000000000e+00 0.0000000000000000e+00 0.0000000000000000e+00  </DataArray> 
</PointData> 
</Piece>
</UnstructuredGrid>
</VTKFile>